Date:  11:26, Monday, July 10, 2023
Model name: Hollow_DropBox
Study name: Drop Test_hollow_draft1(-Default-)
Plot type:  Stress1
Plot step: 21   time : 110.19 Microseconds
Result Type: von Mises 


Node  ,Value (N/m^2)  ,X (in)  ,Y (in)  ,Z (in)
1  ,3.486e+09   ,2.5  ,2.1331  ,4.9
2  ,1.688e+10   ,2.4577  ,2.1908  ,4.9577
3  ,5.190e+09   ,2.4894  ,2.1331  ,4.9447
4  ,5.966e+09   ,2.1331  ,2.5  ,4.9
5  ,1.195e+10   ,2.1331  ,2.4894  ,4.9447
6  ,1.936e+10   ,2.1908  ,2.4577  ,4.9577
7  ,1.386e+08   ,-2.4  ,2.4  ,5
8  ,1.204e+09   ,-2.4  ,-2.4  ,5
9  ,1.849e+09   ,2.4  ,-2.4  ,5
10  ,3.633e+09   ,2.4  ,2.1331  ,5
11  ,5.314e+09   ,2.1331  ,2.4  ,5
12  ,1.987e+09   ,2.5  ,-2.4  ,4.9
13  ,1.142e+09   ,2.5  ,-2.4  ,0.1
14  ,1.102e+08   ,2.5  ,2.4  ,0.1
15  ,5.793e+09   ,2.5  ,2.4  ,4.6331
16  ,1.272e+08   ,2.4  ,2.5  ,0.1
17  ,2.444e+08   ,-2.4  ,2.5  ,0.1
18  ,7.216e+07   ,-2.4  ,2.5  ,4.9
19  ,5.939e+09   ,2.4  ,2.5  ,4.6331
20  ,1.536e+08   ,-2.5  ,2.4  ,0.1
21  ,6.505e+07   ,-2.5  ,-2.4  ,0.1
22  ,8.163e+08   ,-2.5  ,-2.4  ,4.9
23  ,1.645e+08   ,-2.5  ,2.4  ,4.9
24  ,3.803e+08   ,-2.3  ,-2.5  ,0.2
25  ,7.958e+08   ,-2.3  ,-2.5  ,4.8
26  ,1.741e+09   ,2.3  ,-2.5  ,4.8
27  ,8.718e+08   ,2.3  ,-2.5  ,0.2
28  ,1.067e+09   ,-2.4  ,-2.5  ,4.9
29  ,2.039e+09   ,2.4  ,-2.5  ,4.9
30  ,9.681e+07   ,-2.4  ,-2.5  ,0.1
31  ,1.091e+09   ,2.4  ,-2.5  ,0.1
32  ,8.897e+08   ,2.4  ,-2.4  ,0
33  ,1.541e+08   ,2.4  ,2.4  ,0
34  ,1.205e+08   ,-2.4  ,-2.4  ,0
35  ,1.950e+08   ,-2.4  ,2.4  ,0
36  ,2.237e+10   ,2.4577  ,2.4577  ,4.6908
37  ,3.348e+08   ,-2.3  ,2.3  ,4.8
38  ,6.029e+09   ,2.1599  ,2.3  ,4.8
39  ,5.423e+09   ,2.3  ,2.1599  ,4.8
40  ,5.851e+09   ,2.3  ,2.3  ,4.6599
41  ,3.284e+08   ,2.3  ,2.3  ,0.2
42  ,2.806e+08   ,-2.3  ,2.3  ,0.2
43  ,2.889e+08   ,-2.4  ,2.2  ,5
44  ,4.109e+08   ,-2.4  ,2  ,5
45  ,4.481e+08   ,-2.4  ,1.8  ,5
46  ,4.674e+08   ,-2.4  ,1.6  ,5
47  ,4.758e+08   ,-2.4  ,1.4  ,5
48  ,5.475e+08   ,-2.4  ,1.2  ,5
49  ,6.129e+08   ,-2.4  ,1  ,5
50  ,7.457e+08   ,-2.4  ,0.8  ,5
51  ,4.598e+08   ,-2.4  ,0.6  ,5
52  ,4.022e+08   ,-2.4  ,0.4  ,5
53  ,4.429e+08   ,-2.4  ,0.2  ,5
54  ,4.250e+08   ,-2.4  ,5.8879E-16  ,5
55  ,3.732e+08   ,-2.4  ,-0.2  ,5
56  ,2.773e+08   ,-2.4  ,-0.4  ,5
57  ,2.190e+08   ,-2.4  ,-0.6  ,5
58  ,2.389e+08   ,-2.4  ,-0.8  ,5
59  ,3.277e+08   ,-2.4  ,-1  ,5
60  ,3.588e+08   ,-2.4  ,-1.2  ,5
61  ,6.599e+08   ,-2.4  ,-1.4  ,5
62  ,5.967e+08   ,-2.4  ,-1.6  ,5
63  ,5.741e+08   ,-2.4  ,-1.8  ,5
64  ,7.683e+08   ,-2.4  ,-2  ,5
65  ,7.010e+08   ,-2.4  ,-2.2  ,5
66  ,1.569e+09   ,-2.2  ,-2.4  ,5
67  ,1.122e+09   ,-2  ,-2.4  ,5
68  ,9.061e+08   ,-1.8  ,-2.4  ,5
69  ,6.196e+08   ,-1.6  ,-2.4  ,5
70  ,5.423e+08   ,-1.4  ,-2.4  ,5
71  ,4.965e+08   ,-1.2  ,-2.4  ,5
72  ,3.802e+08   ,-1  ,-2.4  ,5
73  ,3.071e+08   ,-0.8  ,-2.4  ,5
74  ,3.574e+08   ,-0.6  ,-2.4  ,5
75  ,5.782e+08   ,-0.4  ,-2.4  ,5
76  ,7.416e+08   ,-0.2  ,-2.4  ,5
77  ,1.011e+09   ,-5.8879E-16  ,-2.4  ,5
78  ,1.217e+09   ,0.2  ,-2.4  ,5
79  ,1.328e+09   ,0.4  ,-2.4  ,5
80  ,1.637e+09   ,0.6  ,-2.4  ,5
81  ,1.599e+09   ,0.8  ,-2.4  ,5
82  ,1.495e+09   ,1  ,-2.4  ,5
83  ,1.264e+09   ,1.2  ,-2.4  ,5
84  ,9.569e+08   ,1.4  ,-2.4  ,5
85  ,5.408e+08   ,1.6  ,-2.4  ,5
86  ,9.372e+08   ,1.8  ,-2.4  ,5
87  ,1.340e+09   ,2  ,-2.4  ,5
88  ,3.110e+09   ,2.2  ,-2.4  ,5
89  ,1.607e+09   ,2.4  ,-2.2029  ,5
90  ,1.767e+09   ,2.4  ,-2.0058  ,5
91  ,1.357e+09   ,2.4  ,-1.8087  ,5
92  ,1.239e+09   ,2.4  ,-1.6116  ,5
93  ,1.343e+09   ,2.4  ,-1.4145  ,5
94  ,1.139e+09   ,2.4  ,-1.2175  ,5
95  ,1.245e+09   ,2.4  ,-1.0204  ,5
96  ,1.197e+09   ,2.4  ,-0.82327  ,5
97  ,1.165e+09   ,2.4  ,-0.62618  ,5
98  ,9.732e+08   ,2.4  ,-0.42909  ,5
99  ,9.409e+08   ,2.4  ,-0.232  ,5
100  ,8.051e+08   ,2.4  ,-0.034907  ,5
101  ,7.190e+08   ,2.4  ,0.16218  ,5
102  ,6.851e+08   ,2.4  ,0.35927  ,5
103  ,9.123e+08   ,2.4  ,0.55637  ,5
104  ,8.652e+08   ,2.4  ,0.75346  ,5
105  ,7.372e+08   ,2.4  ,0.95055  ,5
106  ,8.604e+08   ,2.4  ,1.1476  ,5
107  ,1.300e+09   ,2.4  ,1.3447  ,5
108  ,1.696e+09   ,2.4  ,1.5418  ,5
109  ,2.173e+09   ,2.4  ,1.7389  ,5
110  ,3.299e+09   ,2.4  ,1.936  ,5
111  ,4.662e+09   ,2.2665  ,2.2665  ,5
112  ,4.186e+09   ,1.936  ,2.4  ,5
113  ,2.441e+09   ,1.7389  ,2.4  ,5
114  ,1.883e+09   ,1.5418  ,2.4  ,5
115  ,1.339e+09   ,1.3447  ,2.4  ,5
116  ,1.066e+09   ,1.1476  ,2.4  ,5
117  ,1.022e+09   ,0.95055  ,2.4  ,5
118  ,1.102e+09   ,0.75346  ,2.4  ,5
119  ,1.055e+09   ,0.55637  ,2.4  ,5
120  ,9.014e+08   ,0.35927  ,2.4  ,5
121  ,8.440e+08   ,0.16218  ,2.4  ,5
122  ,8.731e+08   ,-0.034907  ,2.4  ,5
123  ,9.773e+08   ,-0.232  ,2.4  ,5
124  ,8.818e+08   ,-0.42909  ,2.4  ,5
125  ,7.784e+08   ,-0.62618  ,2.4  ,5
126  ,1.022e+09   ,-0.82327  ,2.4  ,5
127  ,1.057e+09   ,-1.0204  ,2.4  ,5
128  ,1.062e+09   ,-1.2175  ,2.4  ,5
129  ,8.418e+08   ,-1.4145  ,2.4  ,5
130  ,5.768e+08   ,-1.6116  ,2.4  ,5
131  ,3.606e+08   ,-1.8087  ,2.4  ,5
132  ,2.584e+08   ,-2.0058  ,2.4  ,5
133  ,1.798e+08   ,-2.2029  ,2.4  ,5
294  ,1.368e+09   ,2.5  ,-2.2029  ,4.9
295  ,1.696e+09   ,2.5  ,-2.0058  ,4.9
296  ,1.347e+09   ,2.5  ,-1.8087  ,4.9
297  ,1.398e+09   ,2.5  ,-1.6116  ,4.9
298  ,1.151e+09   ,2.5  ,-1.4145  ,4.9
299  ,1.123e+09   ,2.5  ,-1.2175  ,4.9
300  ,1.249e+09   ,2.5  ,-1.0204  ,4.9
301  ,9.498e+08   ,2.5  ,-0.82327  ,4.9
302  ,1.086e+09   ,2.5  ,-0.62618  ,4.9
303  ,1.014e+09   ,2.5  ,-0.42909  ,4.9
304  ,1.148e+09   ,2.5  ,-0.232  ,4.9
305  ,1.234e+09   ,2.5  ,-0.034907  ,4.9
306  ,8.905e+08   ,2.5  ,0.16218  ,4.9
307  ,7.446e+08   ,2.5  ,0.35927  ,4.9
308  ,8.711e+08   ,2.5  ,0.55637  ,4.9
309  ,8.417e+08   ,2.5  ,0.75346  ,4.9
310  ,8.606e+08   ,2.5  ,0.95055  ,4.9
311  ,1.072e+09   ,2.5  ,1.1476  ,4.9
312  ,1.340e+09   ,2.5  ,1.3447  ,4.9
313  ,1.679e+09   ,2.5  ,1.5418  ,4.9
314  ,2.383e+09   ,2.5  ,1.7389  ,4.9
315  ,3.419e+09   ,2.5  ,1.936  ,4.9
316  ,3.134e+09   ,2.5  ,-2.4  ,4.7
317  ,1.313e+09   ,2.5  ,-2.4  ,4.5
318  ,9.424e+08   ,2.5  ,-2.4  ,4.3
319  ,5.915e+08   ,2.5  ,-2.4  ,4.1
320  ,9.356e+08   ,2.5  ,-2.4  ,3.9
321  ,1.349e+09   ,2.5  ,-2.4  ,3.7
322  ,1.617e+09   ,2.5  ,-2.4  ,3.5
323  ,1.639e+09   ,2.5  ,-2.4  ,3.3
324  ,1.618e+09   ,2.5  ,-2.4  ,3.1
325  ,1.394e+09   ,2.5  ,-2.4  ,2.9
326  ,1.219e+09   ,2.5  ,-2.4  ,2.7
327  ,9.723e+08   ,2.5  ,-2.4  ,2.5
328  ,7.082e+08   ,2.5  ,-2.4  ,2.3
329  ,5.606e+08   ,2.5  ,-2.4  ,2.1
330  ,3.743e+08   ,2.5  ,-2.4  ,1.9
331  ,2.629e+08   ,2.5  ,-2.4  ,1.7
332  ,2.638e+08   ,2.5  ,-2.4  ,1.5
333  ,3.857e+08   ,2.5  ,-2.4  ,1.3
334  ,4.955e+08   ,2.5  ,-2.4  ,1.1
335  ,5.733e+08   ,2.5  ,-2.4  ,0.9
336  ,8.142e+08   ,2.5  ,-2.4  ,0.7
337  ,1.051e+09   ,2.5  ,-2.4  ,0.5
338  ,1.444e+09   ,2.5  ,-2.4  ,0.3
339  ,6.861e+08   ,2.5  ,-2.2  ,0.1
340  ,7.440e+08   ,2.5  ,-2  ,0.1
341  ,5.237e+08   ,2.5  ,-1.8  ,0.1
342  ,4.837e+08   ,2.5  ,-1.6  ,0.1
343  ,3.500e+08   ,2.5  ,-1.4  ,0.1
344  ,3.363e+08   ,2.5  ,-1.2  ,0.1
345  ,3.045e+08   ,2.5  ,-1  ,0.1
346  ,2.182e+08   ,2.5  ,-0.8  ,0.1
347  ,2.178e+08   ,2.5  ,-0.6  ,0.1
348  ,1.640e+08   ,2.5  ,-0.4  ,0.1
349  ,2.579e+08   ,2.5  ,-0.2  ,0.1
350  ,2.911e+08   ,2.5  ,-1.7664E-15  ,0.1
351  ,3.077e+08   ,2.5  ,0.2  ,0.1
352  ,3.772e+08   ,2.5  ,0.4  ,0.1
353  ,5.406e+08   ,2.5  ,0.6  ,0.1
354  ,7.775e+08   ,2.5  ,0.8  ,0.1
355  ,6.106e+08   ,2.5  ,1  ,0.1
356  ,5.821e+08   ,2.5  ,1.2  ,0.1
357  ,4.891e+08   ,2.5  ,1.4  ,0.1
358  ,4.446e+08   ,2.5  ,1.6  ,0.1
359  ,3.604e+08   ,2.5  ,1.8  ,0.1
360  ,3.543e+08   ,2.5  ,2  ,0.1
361  ,2.601e+08   ,2.5  ,2.2  ,0.1
362  ,4.151e+09   ,2.5  ,2.4  ,4.436
363  ,2.684e+09   ,2.5  ,2.4  ,4.2389
364  ,1.729e+09   ,2.5  ,2.4  ,4.0418
365  ,1.325e+09   ,2.5  ,2.4  ,3.8447
366  ,1.030e+09   ,2.5  ,2.4  ,3.6476
367  ,9.394e+08   ,2.5  ,2.4  ,3.4505
368  ,1.016e+09   ,2.5  ,2.4  ,3.2535
369  ,9.961e+08   ,2.5  ,2.4  ,3.0564
370  ,9.039e+08   ,2.5  ,2.4  ,2.8593
371  ,8.515e+08   ,2.5  ,2.4  ,2.6622
372  ,9.532e+08   ,2.5  ,2.4  ,2.4651
373  ,9.129e+08   ,2.5  ,2.4  ,2.268
374  ,9.926e+08   ,2.5  ,2.4  ,2.0709
375  ,9.214e+08   ,2.5  ,2.4  ,1.8738
376  ,1.053e+09   ,2.5  ,2.4  ,1.6767
377  ,8.440e+08   ,2.5  ,2.4  ,1.4796
378  ,9.135e+08   ,2.5  ,2.4  ,1.2825
379  ,8.465e+08   ,2.5  ,2.4  ,1.0855
380  ,7.497e+08   ,2.5  ,2.4  ,0.88836
381  ,6.062e+08   ,2.5  ,2.4  ,0.69127
382  ,3.014e+08   ,2.5  ,2.4  ,0.49418
383  ,2.221e+08   ,2.5  ,2.4  ,0.29709
384  ,4.696e+09   ,2.5  ,2.2665  ,4.7665
544  ,3.257e+08   ,2.2  ,2.5  ,0.1
545  ,4.213e+08   ,2  ,2.5  ,0.1
546  ,4.365e+08   ,1.8  ,2.5  ,0.1
547  ,5.098e+08   ,1.6  ,2.5  ,0.1
548  ,4.371e+08   ,1.4  ,2.5  ,0.1
549  ,5.698e+08   ,1.2  ,2.5  ,0.1
550  ,6.682e+08   ,1  ,2.5  ,0.1
551  ,9.384e+08   ,0.8  ,2.5  ,0.1
552  ,7.317e+08   ,0.6  ,2.5  ,0.1
553  ,4.496e+08   ,0.4  ,2.5  ,0.1
554  ,4.066e+08   ,0.2  ,2.5  ,0.1
555  ,3.125e+08   ,5.8879E-16  ,2.5  ,0.1
556  ,5.223e+08   ,-0.2  ,2.5  ,0.1
557  ,5.295e+08   ,-0.4  ,2.5  ,0.1
558  ,5.600e+08   ,-0.6  ,2.5  ,0.1
559  ,7.908e+08   ,-0.8  ,2.5  ,0.1
560  ,8.162e+08   ,-1  ,2.5  ,0.1
561  ,8.660e+08   ,-1.2  ,2.5  ,0.1
562  ,7.733e+08   ,-1.4  ,2.5  ,0.1
563  ,7.706e+08   ,-1.6  ,2.5  ,0.1
564  ,7.397e+08   ,-1.8  ,2.5  ,0.1
565  ,6.823e+08   ,-2  ,2.5  ,0.1
566  ,5.357e+08   ,-2.2  ,2.5  ,0.1
567  ,2.235e+08   ,-2.4  ,2.5  ,4.7
568  ,3.864e+08   ,-2.4  ,2.5  ,4.5
569  ,4.343e+08   ,-2.4  ,2.5  ,4.3
570  ,4.977e+08   ,-2.4  ,2.5  ,4.1
571  ,4.412e+08   ,-2.4  ,2.5  ,3.9
572  ,4.892e+08   ,-2.4  ,2.5  ,3.7
573  ,6.492e+08   ,-2.4  ,2.5  ,3.5
574  ,8.834e+08   ,-2.4  ,2.5  ,3.3
575  ,6.307e+08   ,-2.4  ,2.5  ,3.1
576  ,4.761e+08   ,-2.4  ,2.5  ,2.9
577  ,4.881e+08   ,-2.4  ,2.5  ,2.7
578  ,4.375e+08   ,-2.4  ,2.5  ,2.5
579  ,4.735e+08   ,-2.4  ,2.5  ,2.3
580  ,5.390e+08   ,-2.4  ,2.5  ,2.1
581  ,5.967e+08   ,-2.4  ,2.5  ,1.9
582  ,7.242e+08   ,-2.4  ,2.5  ,1.7
583  ,7.567e+08   ,-2.4  ,2.5  ,1.5
584  ,8.143e+08   ,-2.4  ,2.5  ,1.3
585  ,8.062e+08   ,-2.4  ,2.5  ,1.1
586  ,8.026e+08   ,-2.4  ,2.5  ,0.9
587  ,7.345e+08   ,-2.4  ,2.5  ,0.7
588  ,6.623e+08   ,-2.4  ,2.5  ,0.5
589  ,5.435e+08   ,-2.4  ,2.5  ,0.3
590  ,4.670e+09   ,1.936  ,2.5  ,4.9
591  ,2.311e+09   ,1.7389  ,2.5  ,4.9
592  ,1.743e+09   ,1.5418  ,2.5  ,4.9
593  ,1.344e+09   ,1.3447  ,2.5  ,4.9
594  ,1.055e+09   ,1.1476  ,2.5  ,4.9
595  ,1.052e+09   ,0.95055  ,2.5  ,4.9
596  ,1.096e+09   ,0.75346  ,2.5  ,4.9
597  ,1.041e+09   ,0.55637  ,2.5  ,4.9
598  ,9.978e+08   ,0.35927  ,2.5  ,4.9
599  ,8.265e+08   ,0.16218  ,2.5  ,4.9
600  ,7.688e+08   ,-0.034907  ,2.5  ,4.9
601  ,7.970e+08   ,-0.232  ,2.5  ,4.9
602  ,1.173e+09   ,-0.42909  ,2.5  ,4.9
603  ,1.177e+09   ,-0.62618  ,2.5  ,4.9
604  ,1.096e+09   ,-0.82327  ,2.5  ,4.9
605  ,1.325e+09   ,-1.0204  ,2.5  ,4.9
606  ,1.166e+09   ,-1.2175  ,2.5  ,4.9
607  ,8.931e+08   ,-1.4145  ,2.5  ,4.9
608  ,7.026e+08   ,-1.6116  ,2.5  ,4.9
609  ,4.892e+08   ,-1.8087  ,2.5  ,4.9
610  ,3.350e+08   ,-2.0058  ,2.5  ,4.9
611  ,2.194e+08   ,-2.2029  ,2.5  ,4.9
612  ,5.973e+09   ,2.2665  ,2.5  ,4.7665
613  ,4.120e+09   ,2.4  ,2.5  ,4.436
614  ,2.509e+09   ,2.4  ,2.5  ,4.2389
615  ,1.776e+09   ,2.4  ,2.5  ,4.0418
616  ,1.342e+09   ,2.4  ,2.5  ,3.8447
617  ,1.031e+09   ,2.4  ,2.5  ,3.6476
618  ,9.679e+08   ,2.4  ,2.5  ,3.4505
619  ,9.695e+08   ,2.4  ,2.5  ,3.2535
620  ,9.303e+08   ,2.4  ,2.5  ,3.0564
621  ,8.704e+08   ,2.4  ,2.5  ,2.8593
622  ,8.125e+08   ,2.4  ,2.5  ,2.6622
623  ,7.667e+08   ,2.4  ,2.5  ,2.4651
624  ,7.754e+08   ,2.4  ,2.5  ,2.268
625  ,8.294e+08   ,2.4  ,2.5  ,2.0709
626  ,9.172e+08   ,2.4  ,2.5  ,1.8738
627  ,1.066e+09   ,2.4  ,2.5  ,1.6767
628  ,1.236e+09   ,2.4  ,2.5  ,1.4796
629  ,1.302e+09   ,2.4  ,2.5  ,1.2825
630  ,8.783e+08   ,2.4  ,2.5  ,1.0855
631  ,6.345e+08   ,2.4  ,2.5  ,0.88836
632  ,4.527e+08   ,2.4  ,2.5  ,0.69127
633  ,3.723e+08   ,2.4  ,2.5  ,0.49418
634  ,2.139e+08   ,2.4  ,2.5  ,0.29709
796  ,3.356e+08   ,-2.5  ,2.2  ,0.1
797  ,4.575e+08   ,-2.5  ,2  ,0.1
798  ,5.559e+08   ,-2.5  ,1.8  ,0.1
799  ,5.996e+08   ,-2.5  ,1.6  ,0.1
800  ,6.653e+08   ,-2.5  ,1.4  ,0.1
801  ,7.258e+08   ,-2.5  ,1.2  ,0.1
802  ,7.248e+08   ,-2.5  ,1  ,0.1
803  ,7.061e+08   ,-2.5  ,0.8  ,0.1
804  ,7.058e+08   ,-2.5  ,0.6  ,0.1
805  ,7.242e+08   ,-2.5  ,0.4  ,0.1
806  ,6.504e+08   ,-2.5  ,0.2  ,0.1
807  ,6.127e+08   ,-2.5  ,5.8879E-16  ,0.1
808  ,5.655e+08   ,-2.5  ,-0.2  ,0.1
809  ,5.442e+08   ,-2.5  ,-0.4  ,0.1
810  ,5.611e+08   ,-2.5  ,-0.6  ,0.1
811  ,5.257e+08   ,-2.5  ,-0.8  ,0.1
812  ,6.095e+08   ,-2.5  ,-1  ,0.1
813  ,5.305e+08   ,-2.5  ,-1.2  ,0.1
814  ,5.071e+08   ,-2.5  ,-1.4  ,0.1
815  ,3.904e+08   ,-2.5  ,-1.6  ,0.1
816  ,2.865e+08   ,-2.5  ,-1.8  ,0.1
817  ,2.801e+08   ,-2.5  ,-2  ,0.1
818  ,1.231e+08   ,-2.5  ,-2.2  ,0.1
819  ,1.119e+09   ,-2.5  ,-2.4  ,4.7
820  ,5.235e+08   ,-2.5  ,-2.4  ,4.5
821  ,5.651e+08   ,-2.5  ,-2.4  ,4.3
822  ,1.045e+09   ,-2.5  ,-2.4  ,4.1
823  ,1.295e+09   ,-2.5  ,-2.4  ,3.9
824  ,1.402e+09   ,-2.5  ,-2.4  ,3.7
825  ,1.528e+09   ,-2.5  ,-2.4  ,3.5
826  ,1.364e+09   ,-2.5  ,-2.4  ,3.3
827  ,1.458e+09   ,-2.5  ,-2.4  ,3.1
828  ,1.146e+09   ,-2.5  ,-2.4  ,2.9
829  ,8.473e+08   ,-2.5  ,-2.4  ,2.7
830  ,8.732e+08   ,-2.5  ,-2.4  ,2.5
831  ,7.569e+08   ,-2.5  ,-2.4  ,2.3
832  ,7.550e+08   ,-2.5  ,-2.4  ,2.1
833  ,5.574e+08   ,-2.5  ,-2.4  ,1.9
834  ,3.661e+08   ,-2.5  ,-2.4  ,1.7
835  ,7.730e+07   ,-2.5  ,-2.4  ,1.5
836  ,2.831e+08   ,-2.5  ,-2.4  ,1.3
837  ,5.459e+08   ,-2.5  ,-2.4  ,1.1
838  ,7.566e+08   ,-2.5  ,-2.4  ,0.9
839  ,7.723e+08   ,-2.5  ,-2.4  ,0.7
840  ,6.978e+08   ,-2.5  ,-2.4  ,0.5
841  ,3.466e+08   ,-2.5  ,-2.4  ,0.3
842  ,3.055e+08   ,-2.5  ,2.2  ,4.9
843  ,4.384e+08   ,-2.5  ,2  ,4.9
844  ,4.567e+08   ,-2.5  ,1.8  ,4.9
845  ,4.301e+08   ,-2.5  ,1.6  ,4.9
846  ,4.201e+08   ,-2.5  ,1.4  ,4.9
847  ,4.554e+08   ,-2.5  ,1.2  ,4.9
848  ,4.610e+08   ,-2.5  ,1  ,4.9
849  ,6.605e+08   ,-2.5  ,0.8  ,4.9
850  ,5.279e+08   ,-2.5  ,0.6  ,4.9
851  ,4.790e+08   ,-2.5  ,0.4  ,4.9
852  ,4.607e+08   ,-2.5  ,0.2  ,4.9
853  ,3.661e+08   ,-2.5  ,5.8879E-16  ,4.9
854  ,3.654e+08   ,-2.5  ,-0.2  ,4.9
855  ,2.507e+08   ,-2.5  ,-0.4  ,4.9
856  ,1.909e+08   ,-2.5  ,-0.6  ,4.9
857  ,2.007e+08   ,-2.5  ,-0.8  ,4.9
858  ,2.313e+08   ,-2.5  ,-1  ,4.9
859  ,3.252e+08   ,-2.5  ,-1.2  ,4.9
860  ,4.062e+08   ,-2.5  ,-1.4  ,4.9
861  ,4.209e+08   ,-2.5  ,-1.6  ,4.9
862  ,5.140e+08   ,-2.5  ,-1.8  ,4.9
863  ,6.920e+08   ,-2.5  ,-2  ,4.9
864  ,6.659e+08   ,-2.5  ,-2.2  ,4.9
865  ,2.862e+08   ,-2.5  ,2.4  ,4.7
866  ,4.342e+08   ,-2.5  ,2.4  ,4.5
867  ,5.073e+08   ,-2.5  ,2.4  ,4.3
868  ,3.947e+08   ,-2.5  ,2.4  ,4.1
869  ,4.959e+08   ,-2.5  ,2.4  ,3.9
870  ,4.862e+08   ,-2.5  ,2.4  ,3.7
871  ,5.646e+08   ,-2.5  ,2.4  ,3.5
872  ,7.660e+08   ,-2.5  ,2.4  ,3.3
873  ,6.191e+08   ,-2.5  ,2.4  ,3.1
874  ,3.325e+08   ,-2.5  ,2.4  ,2.9
875  ,3.616e+08   ,-2.5  ,2.4  ,2.7
876  ,3.901e+08   ,-2.5  ,2.4  ,2.5
877  ,4.470e+08   ,-2.5  ,2.4  ,2.3
878  ,5.083e+08   ,-2.5  ,2.4  ,2.1
879  ,4.212e+08   ,-2.5  ,2.4  ,1.9
880  ,5.459e+08   ,-2.5  ,2.4  ,1.7
881  ,7.604e+08   ,-2.5  ,2.4  ,1.5
882  ,8.307e+08   ,-2.5  ,2.4  ,1.3
883  ,7.741e+08   ,-2.5  ,2.4  ,1.1
884  ,7.681e+08   ,-2.5  ,2.4  ,0.9
885  ,6.747e+08   ,-2.5  ,2.4  ,0.7
886  ,6.253e+08   ,-2.5  ,2.4  ,0.5
887  ,4.572e+08   ,-2.5  ,2.4  ,0.3
1044  ,3.036e+08   ,-2.3  ,-2.5  ,0.44697
1045  ,5.195e+08   ,-2.3  ,-2.5  ,0.68705
1046  ,5.532e+08   ,-2.3  ,-2.5  ,0.92554
1047  ,4.130e+08   ,-2.3  ,-2.5  ,1.1682
1048  ,2.017e+08   ,-2.3  ,-2.5  ,1.4148
1049  ,1.277e+08   ,-2.3  ,-2.5  ,1.6581
1050  ,3.078e+08   ,-2.3  ,-2.5  ,1.8967
1051  ,4.803e+08   ,-2.3  ,-2.5  ,2.1357
1052  ,4.815e+08   ,-2.3  ,-2.5  ,2.3794
1053  ,3.987e+08   ,-2.3  ,-2.5  ,2.6206
1054  ,5.759e+08   ,-2.3  ,-2.5  ,2.8643
1055  ,8.159e+08   ,-2.3  ,-2.5  ,3.1033
1056  ,8.619e+08   ,-2.3  ,-2.5  ,3.342
1057  ,9.384e+08   ,-2.3  ,-2.5  ,3.5852
1058  ,8.960e+08   ,-2.3  ,-2.5  ,3.8318
1059  ,5.986e+08   ,-2.3  ,-2.5  ,4.0745
1060  ,3.404e+08   ,-2.3  ,-2.5  ,4.3129
1061  ,8.364e+08   ,-2.3  ,-2.5  ,4.553
1062  ,1.564e+09   ,-2.053  ,-2.5  ,4.8
1063  ,1.013e+09   ,-1.8129  ,-2.5  ,4.8
1064  ,6.323e+08   ,-1.5745  ,-2.5  ,4.8
1065  ,3.734e+08   ,-1.3318  ,-2.5  ,4.8
1066  ,2.965e+08   ,-1.0852  ,-2.5  ,4.8
1067  ,1.706e+08   ,-0.84195  ,-2.5  ,4.8
1068  ,8.096e+07   ,-0.60329  ,-2.5  ,4.8
1069  ,2.082e+08   ,-0.3643  ,-2.5  ,4.8
1070  ,3.716e+08   ,-0.12055  ,-2.5  ,4.8
1071  ,5.329e+08   ,0.12056  ,-2.5  ,4.8
1072  ,6.729e+08   ,0.3643  ,-2.5  ,4.8
1073  ,7.443e+08   ,0.6033  ,-2.5  ,4.8
1074  ,7.830e+08   ,0.84195  ,-2.5  ,4.8
1075  ,5.538e+08   ,1.0852  ,-2.5  ,4.8
1076  ,2.410e+08   ,1.3318  ,-2.5  ,4.8
1077  ,7.049e+08   ,1.5745  ,-2.5  ,4.8
1078  ,1.534e+09   ,1.8129  ,-2.5  ,4.8
1079  ,2.751e+09   ,2.053  ,-2.5  ,4.8
1080  ,2.707e+09   ,2.3  ,-2.5  ,4.553
1081  ,1.499e+09   ,2.3  ,-2.5  ,4.3129
1082  ,8.683e+08   ,2.3  ,-2.5  ,4.0745
1083  ,3.352e+08   ,2.3  ,-2.5  ,3.8318
1084  ,5.311e+08   ,2.3  ,-2.5  ,3.5852
1085  ,7.866e+08   ,2.3  ,-2.5  ,3.3419
1086  ,7.974e+08   ,2.3  ,-2.5  ,3.1033
1087  ,7.200e+08   ,2.3  ,-2.5  ,2.8643
1088  ,5.412e+08   ,2.3  ,-2.5  ,2.6206
1089  ,3.864e+08   ,2.3  ,-2.5  ,2.3794
1090  ,2.266e+08   ,2.3  ,-2.5  ,2.1357
1091  ,2.029e+08   ,2.3  ,-2.5  ,1.8967
1092  ,1.209e+08   ,2.3  ,-2.5  ,1.658
1093  ,2.000e+08   ,2.3  ,-2.5  ,1.4148
1094  ,3.278e+08   ,2.3  ,-2.5  ,1.1682
1095  ,6.347e+08   ,2.3  ,-2.5  ,0.92554
1096  ,1.041e+09   ,2.3  ,-2.5  ,0.68705
1097  ,1.570e+09   ,2.3  ,-2.5  ,0.44697
1098  ,3.935e+08   ,-2.053  ,-2.5  ,0.2
1099  ,5.069e+08   ,-1.8129  ,-2.5  ,0.2
1100  ,5.134e+08   ,-1.5745  ,-2.5  ,0.2
1101  ,3.473e+08   ,-1.3318  ,-2.5  ,0.2
1102  ,1.869e+08   ,-1.0852  ,-2.5  ,0.2
1103  ,1.308e+08   ,-0.84195  ,-2.5  ,0.2
1104  ,3.164e+08   ,-0.60329  ,-2.5  ,0.2
1105  ,4.332e+08   ,-0.3643  ,-2.5  ,0.2
1106  ,4.169e+08   ,-0.12055  ,-2.5  ,0.2
1107  ,3.692e+08   ,0.12056  ,-2.5  ,0.2
1108  ,4.385e+08   ,0.3643  ,-2.5  ,0.2
1109  ,6.365e+08   ,0.6033  ,-2.5  ,0.2
1110  ,8.001e+08   ,0.84195  ,-2.5  ,0.2
1111  ,8.562e+08   ,1.0852  ,-2.5  ,0.2
1112  ,8.930e+08   ,1.3318  ,-2.5  ,0.2
1113  ,6.503e+08   ,1.5745  ,-2.5  ,0.2
1114  ,3.267e+08   ,1.8129  ,-2.5  ,0.2
1115  ,9.007e+08   ,2.053  ,-2.5  ,0.2
1116  ,5.224e+08   ,-2.2  ,-2.5  ,4.9
1117  ,3.122e+08   ,-2  ,-2.5  ,4.9
1118  ,4.338e+08   ,-1.8  ,-2.5  ,4.9
1119  ,4.948e+08   ,-1.6  ,-2.5  ,4.9
1120  ,4.511e+08   ,-1.4  ,-2.5  ,4.9
1121  ,3.859e+08   ,-1.2  ,-2.5  ,4.9
1122  ,2.531e+08   ,-1  ,-2.5  ,4.9
1123  ,1.402e+08   ,-0.8  ,-2.5  ,4.9
1124  ,1.728e+08   ,-0.6  ,-2.5  ,4.9
1125  ,2.837e+08   ,-0.4  ,-2.5  ,4.9
1126  ,4.121e+08   ,-0.2  ,-2.5  ,4.9
1127  ,5.085e+08   ,-1.7664E-15  ,-2.5  ,4.9
1128  ,5.738e+08   ,0.2  ,-2.5  ,4.9
1129  ,6.532e+08   ,0.4  ,-2.5  ,4.9
1130  ,5.134e+08   ,0.6  ,-2.5  ,4.9
1131  ,5.262e+08   ,0.8  ,-2.5  ,4.9
1132  ,5.201e+08   ,1  ,-2.5  ,4.9
1133  ,7.073e+08   ,1.2  ,-2.5  ,4.9
1134  ,7.061e+08   ,1.4  ,-2.5  ,4.9
1135  ,8.341e+08   ,1.6  ,-2.5  ,4.9
1136  ,8.617e+08   ,1.8  ,-2.5  ,4.9
1137  ,7.240e+08   ,2  ,-2.5  ,4.9
1138  ,7.294e+08   ,2.2  ,-2.5  ,4.9
1139  ,5.841e+08   ,-2.4  ,-2.5  ,4.7
1140  ,6.190e+08   ,-2.4  ,-2.5  ,4.5
1141  ,6.018e+08   ,-2.4  ,-2.5  ,4.3
1142  ,5.563e+08   ,-2.4  ,-2.5  ,4.1
1143  ,4.630e+08   ,-2.4  ,-2.5  ,3.9
1144  ,4.914e+08   ,-2.4  ,-2.5  ,3.7
1145  ,2.480e+08   ,-2.4  ,-2.5  ,3.5
1146  ,4.471e+08   ,-2.4  ,-2.5  ,3.3
1147  ,3.566e+08   ,-2.4  ,-2.5  ,3.1
1148  ,4.763e+08   ,-2.4  ,-2.5  ,2.9
1149  ,3.714e+08   ,-2.4  ,-2.5  ,2.7
1150  ,2.337e+08   ,-2.4  ,-2.5  ,2.5
1151  ,2.700e+08   ,-2.4  ,-2.5  ,2.3
1152  ,2.558e+08   ,-2.4  ,-2.5  ,2.1
1153  ,3.094e+08   ,-2.4  ,-2.5  ,1.9
1154  ,2.689e+08   ,-2.4  ,-2.5  ,1.7
1155  ,1.829e+08   ,-2.4  ,-2.5  ,1.5
1156  ,1.285e+08   ,-2.4  ,-2.5  ,1.3
1157  ,1.127e+08   ,-2.4  ,-2.5  ,1.1
1158  ,2.957e+08   ,-2.4  ,-2.5  ,0.9
1159  ,4.208e+08   ,-2.4  ,-2.5  ,0.7
1160  ,3.858e+08   ,-2.4  ,-2.5  ,0.5
1161  ,4.144e+08   ,-2.4  ,-2.5  ,0.3
1162  ,4.989e+08   ,-2.2  ,-2.5  ,0.1
1163  ,4.971e+08   ,-2  ,-2.5  ,0.1
1164  ,4.689e+08   ,-1.8  ,-2.5  ,0.1
1165  ,2.925e+08   ,-1.6  ,-2.5  ,0.1
1166  ,1.667e+08   ,-1.4  ,-2.5  ,0.1
1167  ,1.441e+08   ,-1.2  ,-2.5  ,0.1
1168  ,2.014e+08   ,-1  ,-2.5  ,0.1
1169  ,2.736e+08   ,-0.8  ,-2.5  ,0.1
1170  ,2.546e+08   ,-0.6  ,-2.5  ,0.1
1171  ,2.215e+08   ,-0.4  ,-2.5  ,0.1
1172  ,2.277e+08   ,-0.2  ,-2.5  ,0.1
1173  ,2.940e+08   ,-1.7664E-15  ,-2.5  ,0.1
1174  ,3.658e+08   ,0.2  ,-2.5  ,0.1
1175  ,4.908e+08   ,0.4  ,-2.5  ,0.1
1176  ,6.255e+08   ,0.6  ,-2.5  ,0.1
1177  ,4.421e+08   ,0.8  ,-2.5  ,0.1
1178  ,4.144e+08   ,1  ,-2.5  ,0.1
1179  ,4.265e+08   ,1.2  ,-2.5  ,0.1
1180  ,4.706e+08   ,1.4  ,-2.5  ,0.1
1181  ,6.104e+08   ,1.6  ,-2.5  ,0.1
1182  ,5.887e+08   ,1.8  ,-2.5  ,0.1
1183  ,5.868e+08   ,2  ,-2.5  ,0.1
1184  ,6.113e+08   ,2.2  ,-2.5  ,0.1
1185  ,7.183e+08   ,2.4  ,-2.5  ,4.7
1186  ,7.076e+08   ,2.4  ,-2.5  ,4.5
1187  ,7.698e+08   ,2.4  ,-2.5  ,4.3
1188  ,8.952e+08   ,2.4  ,-2.5  ,4.1
1189  ,7.999e+08   ,2.4  ,-2.5  ,3.9
1190  ,7.449e+08   ,2.4  ,-2.5  ,3.7
1191  ,5.168e+08   ,2.4  ,-2.5  ,3.5
1192  ,5.446e+08   ,2.4  ,-2.5  ,3.3
1193  ,5.954e+08   ,2.4  ,-2.5  ,3.1
1194  ,6.745e+08   ,2.4  ,-2.5  ,2.9
1195  ,5.977e+08   ,2.4  ,-2.5  ,2.7
1196  ,5.204e+08   ,2.4  ,-2.5  ,2.5
1197  ,3.853e+08   ,2.4  ,-2.5  ,2.3
1198  ,2.343e+08   ,2.4  ,-2.5  ,2.1
1199  ,1.436e+08   ,2.4  ,-2.5  ,1.9
1200  ,6.102e+07   ,2.4  ,-2.5  ,1.7
1201  ,1.244e+08   ,2.4  ,-2.5  ,1.5
1202  ,3.113e+08   ,2.4  ,-2.5  ,1.3
1203  ,4.023e+08   ,2.4  ,-2.5  ,1.1
1204  ,4.604e+08   ,2.4  ,-2.5  ,0.9
1205  ,4.927e+08   ,2.4  ,-2.5  ,0.7
1206  ,4.007e+08   ,2.4  ,-2.5  ,0.5
1207  ,4.587e+08   ,2.4  ,-2.5  ,0.3
1208  ,6.497e+08   ,2.4  ,-2.2  ,0
1209  ,6.626e+08   ,2.4  ,-2  ,0
1210  ,4.786e+08   ,2.4  ,-1.8  ,0
1211  ,3.952e+08   ,2.4  ,-1.6  ,0
1212  ,4.291e+08   ,2.4  ,-1.4  ,0
1213  ,3.294e+08   ,2.4  ,-1.2  ,0
1214  ,2.989e+08   ,2.4  ,-1  ,0
1215  ,2.327e+08   ,2.4  ,-0.8  ,0
1216  ,1.264e+08   ,2.4  ,-0.6  ,0
1217  ,1.478e+08   ,2.4  ,-0.4  ,0
1218  ,2.387e+08   ,2.4  ,-0.2  ,0
1219  ,2.657e+08   ,2.4  ,-1.7664E-15  ,0
1220  ,3.194e+08   ,2.4  ,0.2  ,0
1221  ,4.083e+08   ,2.4  ,0.4  ,0
1222  ,5.514e+08   ,2.4  ,0.6  ,0
1223  ,6.645e+08   ,2.4  ,0.8  ,0
1224  ,4.727e+08   ,2.4  ,1  ,0
1225  ,4.421e+08   ,2.4  ,1.2  ,0
1226  ,4.119e+08   ,2.4  ,1.4  ,0
1227  ,4.072e+08   ,2.4  ,1.6  ,0
1228  ,5.318e+08   ,2.4  ,1.8  ,0
1229  ,5.045e+08   ,2.4  ,2  ,0
1230  ,3.391e+08   ,2.4  ,2.2  ,0
1231  ,4.626e+08   ,-2.2  ,-2.4  ,0
1232  ,7.131e+08   ,-2  ,-2.4  ,0
1233  ,8.344e+08   ,-1.8  ,-2.4  ,0
1234  ,7.859e+08   ,-1.6  ,-2.4  ,0
1235  ,5.690e+08   ,-1.4  ,-2.4  ,0
1236  ,3.357e+08   ,-1.2  ,-2.4  ,0
1237  ,9.912e+07   ,-1  ,-2.4  ,0
1238  ,4.024e+08   ,-0.8  ,-2.4  ,0
1239  ,6.155e+08   ,-0.6  ,-2.4  ,0
1240  ,7.044e+08   ,-0.4  ,-2.4  ,0
1241  ,7.626e+08   ,-0.2  ,-2.4  ,0
1242  ,8.630e+08   ,5.8879E-16  ,-2.4  ,0
1243  ,9.765e+08   ,0.2  ,-2.4  ,0
1244  ,1.205e+09   ,0.4  ,-2.4  ,0
1245  ,1.359e+09   ,0.6  ,-2.4  ,0
1246  ,1.601e+09   ,0.8  ,-2.4  ,0
1247  ,1.507e+09   ,1  ,-2.4  ,0
1248  ,1.537e+09   ,1.2  ,-2.4  ,0
1249  ,1.321e+09   ,1.4  ,-2.4  ,0
1250  ,9.815e+08   ,1.6  ,-2.4  ,0
1251  ,5.133e+08   ,1.8  ,-2.4  ,0
1252  ,4.814e+08   ,2  ,-2.4  ,0
1253  ,1.270e+09   ,2.2  ,-2.4  ,0
1254  ,3.462e+08   ,-2.4  ,2.2  ,0
1255  ,4.744e+08   ,-2.4  ,2  ,0
1256  ,5.159e+08   ,-2.4  ,1.8  ,0
1257  ,5.881e+08   ,-2.4  ,1.6  ,0
1258  ,6.904e+08   ,-2.4  ,1.4  ,0
1259  ,7.699e+08   ,-2.4  ,1.2  ,0
1260  ,7.649e+08   ,-2.4  ,1  ,0
1261  ,7.538e+08   ,-2.4  ,0.8  ,0
1262  ,6.997e+08   ,-2.4  ,0.6  ,0
1263  ,7.017e+08   ,-2.4  ,0.4  ,0
1264  ,6.766e+08   ,-2.4  ,0.2  ,0
1265  ,6.626e+08   ,-2.4  ,5.8879E-16  ,0
1266  ,6.747e+08   ,-2.4  ,-0.2  ,0
1267  ,5.251e+08   ,-2.4  ,-0.4  ,0
1268  ,5.959e+08   ,-2.4  ,-0.6  ,0
1269  ,5.459e+08   ,-2.4  ,-0.8  ,0
1270  ,5.913e+08   ,-2.4  ,-1  ,0
1271  ,5.277e+08   ,-2.4  ,-1.2  ,0
1272  ,4.332e+08   ,-2.4  ,-1.4  ,0
1273  ,4.127e+08   ,-2.4  ,-1.6  ,0
1274  ,3.433e+08   ,-2.4  ,-1.8  ,0
1275  ,2.882e+08   ,-2.4  ,-2  ,0
1276  ,1.302e+08   ,-2.4  ,-2.2  ,0
1277  ,2.671e+08   ,2.2  ,2.4  ,0
1278  ,4.251e+08   ,2  ,2.4  ,0
1279  ,4.799e+08   ,1.8  ,2.4  ,0
1280  ,4.077e+08   ,1.6  ,2.4  ,0
1281  ,3.530e+08   ,1.4  ,2.4  ,0
1282  ,4.939e+08   ,1.2  ,2.4  ,0
1283  ,5.779e+08   ,1  ,2.4  ,0
1284  ,7.555e+08   ,0.8  ,2.4  ,0
1285  ,6.372e+08   ,0.6  ,2.4  ,0
1286  ,3.285e+08   ,0.4  ,2.4  ,0
1287  ,2.643e+08   ,0.2  ,2.4  ,0
1288  ,1.492e+08   ,5.8879E-16  ,2.4  ,0
1289  ,3.273e+08   ,-0.2  ,2.4  ,0
1290  ,4.448e+08   ,-0.4  ,2.4  ,0
1291  ,4.291e+08   ,-0.6  ,2.4  ,0
1292  ,6.379e+08   ,-0.8  ,2.4  ,0
1293  ,7.935e+08   ,-1  ,2.4  ,0
1294  ,8.139e+08   ,-1.2  ,2.4  ,0
1295  ,7.447e+08   ,-1.4  ,2.4  ,0
1296  ,7.007e+08   ,-1.6  ,2.4  ,0
1297  ,6.567e+08   ,-1.8  ,2.4  ,0
1298  ,5.617e+08   ,-2  ,2.4  ,0
1299  ,4.966e+08   ,-2.2  ,2.4  ,0
1460  ,6.660e+09   ,2.3243  ,2.3243  ,4.9577
1461  ,6.533e+09   ,2.4577  ,2.3243  ,4.8243
1462  ,7.039e+09   ,2.3243  ,2.4577  ,4.8243
1463  ,6.462e+08   ,-2.3  ,-2.1759  ,4.8
1464  ,4.239e+08   ,-2.3  ,-1.7631  ,4.8
1465  ,5.774e+08   ,-2.3  ,-1.1827  ,4.8
1466  ,9.336e+08   ,-2.3  ,-0.34986  ,4.8
1467  ,1.048e+09   ,-2.3  ,0.80545  ,4.8
1468  ,9.303e+08   ,-0.81337  ,2.3  ,4.8
1469  ,1.465e+09   ,0.67326  ,2.3  ,4.8
1470  ,1.350e+09   ,2.3  ,-2.1824  ,4.8
1471  ,9.229e+08   ,2.3  ,-1.7784  ,4.8
1472  ,8.866e+08   ,2.3  ,-1.2138  ,4.8
1473  ,1.048e+09   ,2.3  ,-0.40752  ,4.8
1474  ,1.200e+09   ,2.3  ,0.70532  ,4.8
1516  ,9.137e+08   ,2.3  ,2.3  ,1.6866
1517  ,1.391e+09   ,2.3  ,2.3  ,3.1733
1518  ,6.620e+08   ,2.3  ,-2.1759  ,0.2
1519  ,4.129e+08   ,2.3  ,-1.7631  ,0.2
1520  ,5.434e+08   ,2.3  ,-1.1827  ,0.2
1521  ,9.070e+08   ,2.3  ,-0.34986  ,0.2
1522  ,1.086e+09   ,2.3  ,0.80545  ,0.2
1564  ,6.164e+08   ,-0.76667  ,2.3  ,0.2
1565  ,1.057e+09   ,0.76667  ,2.3  ,0.2
1566  ,5.870e+08   ,-2.3  ,2.3  ,1.7333
1567  ,1.086e+09   ,-2.3  ,2.3  ,3.2667
1574  ,2.693e+08   ,-2.3  ,-2.1759  ,0.2
1575  ,2.392e+08   ,-2.3  ,-1.7631  ,0.2
1576  ,1.823e+08   ,-2.3  ,-1.1827  ,0.2
1577  ,1.259e+08   ,-2.3  ,-0.34986  ,0.2
1578  ,1.921e+08   ,-2.3  ,0.80545  ,0.2
1777  ,1.214e+09   ,-0.52764  ,2.5  ,4.9
1801  ,6.789e+08   ,-2.3  ,1.5527  ,0.2
1825  ,5.082e+08   ,-1.5333  ,2.3  ,0.2
1841  ,8.238e+08   ,0.063638  ,2.5  ,4.9
1876  ,4.337e+08   ,-0.5  ,2.4  ,0
1894  ,9.602e+08   ,2.3  ,1.5527  ,0.2
1907  ,3.730e+08   ,2.1  ,2.5  ,0.1
1928  ,4.342e+08   ,1.9  ,2.4  ,0
1974  ,4.111e+08   ,2.4  ,1.1  ,0
1981  ,4.241e+08   ,2.4  ,2.5  ,0.59273
1987  ,4.630e+08   ,-2.5  ,2.4  ,4
2004  ,3.035e+08   ,-2.4  ,2.5  ,4.6
2009  ,4.029e+08   ,2.4  ,1.3  ,0
2020  ,5.497e+08   ,2.5  ,1.1  ,0.1
2035  ,5.017e+08   ,-2.3  ,-0.76628  ,0.2
2070  ,2.159e+09   ,1.6404  ,2.4  ,5
2081  ,8.617e+08   ,2.4  ,2.5  ,1.9724
2095  ,5.877e+08   ,2.4  ,2.5  ,0.78982
2138  ,5.902e+08   ,-2.4  ,-0.1  ,0
2146  ,1.035e+09   ,-0.92182  ,2.4  ,5
2174  ,1.015e+09   ,2.4  ,2.5  ,1.184
2190  ,7.740e+08   ,2.5  ,2.4  ,0.98691
2203  ,1.299e+09   ,2.5  ,-0.13345  ,4.9
2232  ,1.699e+09   ,2.3  ,0.1489  ,4.8
2242  ,9.059e+08   ,2.4  ,2.5  ,2.9578
2293  ,7.624e+08   ,-2.5  ,0.5  ,0.1
2311  ,1.927e+09   ,2.3  ,2.3  ,2.4299
2313  ,7.271e+08   ,2.5  ,2.4  ,0.78982
2329  ,7.835e+08   ,2.4  ,2.5  ,2.1695
2355  ,4.034e+08   ,-2.4  ,2.5  ,4.4
2380  ,4.287e+08   ,-2.5  ,-1.5  ,0.1
2383  ,9.690e+08   ,0.45782  ,2.5  ,4.9
2408  ,1.333e+09   ,2.3  ,-1.4961  ,4.8
2445  ,1.214e+09   ,2.5  ,-1.5131  ,4.9
2484  ,2.086e+08   ,-2.5  ,-2.4  ,1.6
2495  ,4.423e+08   ,-2.4  ,1.7  ,5
2508  ,3.381e+08   ,2.4  ,0.3  ,0
2514  ,1.300e+09   ,2.3  ,0.2278  ,0.2
2570  ,4.592e+08   ,-2.4  ,1.5  ,5
2580  ,2.045e+09   ,1.6404  ,2.5  ,4.9
2603  ,1.317e+09   ,-1.1189  ,2.5  ,4.9
2695  ,7.623e+08   ,2.3  ,2.3  ,0.94331
2705  ,1.333e+09   ,2.4  ,2.5  ,1.3811
2714  ,7.900e+08   ,2.5  ,0.45782  ,4.9
2734  ,2.529e+08   ,2.4  ,-0.9  ,0
2775  ,2.425e+08   ,2.5  ,-0.1  ,0.1
2779  ,2.402e+08   ,2.4  ,-0.1  ,0
2801  ,2.628e+09   ,1.4166  ,2.3  ,4.8
2814  ,1.533e+09   ,1.4433  ,2.5  ,4.9
2863  ,6.661e+08   ,-2.4  ,2.5  ,0.6
2884  ,7.746e+08   ,-2.4  ,2.5  ,0.8
2886  ,8.040e+08   ,-2.4  ,2.5  ,1.2
2967  ,4.394e+08   ,2.4  ,1.7  ,0
2973  ,4.490e+08   ,2.5  ,1.5  ,0.1
2987  ,4.751e+08   ,-0.3  ,2.5  ,0.1
3008  ,5.381e+08   ,-2.3  ,2.3  ,0.96667
3012  ,3.702e+08   ,-2.5  ,2.4  ,2.6
3021  ,3.582e+08   ,-2.5  ,2.4  ,2.8
3025  ,4.034e+08   ,-2.5  ,2.4  ,2.4
3030  ,4.397e+08   ,-2.4  ,2.5  ,2.4
3033  ,4.750e+08   ,-2.4  ,2.5  ,2.2
3047  ,7.837e+08   ,2.4  ,2.5  ,2.3665
3052  ,8.665e+08   ,2.5  ,2.4  ,2.5636
3061  ,7.905e+08   ,2.4  ,2.5  ,2.5636
3081  ,5.142e+08   ,-2.4  ,1.3  ,5
3088  ,3.004e+08   ,-1.9073  ,2.4  ,5
3099  ,4.353e+08   ,-2.4  ,1.9  ,5
3107  ,4.466e+08   ,-2.4  ,2.5  ,3.8
3139  ,7.026e+08   ,-1.5131  ,2.4  ,5
3145  ,7.881e+08   ,-1.5131  ,2.5  ,4.9
3148  ,6.023e+08   ,-1.7102  ,2.5  ,4.9
3168  ,6.189e+08   ,-2.4  ,1.5  ,0
3188  ,6.750e+08   ,-2.5  ,-2.4  ,1
3202  ,8.339e+08   ,0.26073  ,2.5  ,4.9
3212  ,1.921e+09   ,2.5  ,1.6404  ,4.9
3247  ,2.773e+09   ,2.5  ,1.8375  ,4.9
3265  ,2.590e+09   ,2.3  ,1.4326  ,4.8
3271  ,5.515e+09   ,2.2299  ,2.2299  ,4.8
3284  ,1.485e+09   ,2.4  ,1.4433  ,5
3291  ,1.454e+09   ,2.5  ,1.4433  ,4.9
3296  ,8.389e+08   ,-2.3  ,-0.76628  ,4.8
3303  ,2.911e+08   ,-2.4  ,-0.9  ,5
3311  ,2.263e+08   ,-2.4  ,-0.7  ,5
3315  ,4.175e+08   ,1.9  ,2.5  ,0.1
3336  ,6.823e+08   ,-2.4  ,0.3  ,0
3340  ,6.126e+08   ,-2.5  ,0.1  ,0.1
3344  ,6.607e+08   ,-2.4  ,0.1  ,0
3356  ,3.793e+08   ,-0.3  ,2.4  ,0
3361  ,8.856e+08   ,-0.33054  ,2.5  ,4.9
3364  ,7.626e+08   ,-0.13345  ,2.5  ,4.9
3383  ,1.006e+09   ,2.4  ,2.5  ,3.5491
3402  ,4.858e+09   ,2.4  ,2.5  ,4.5345
3421  ,1.016e+09   ,-1.316  ,2.5  ,4.9
3439  ,1.412e+09   ,2.5  ,2.4  ,3.9433
3447  ,1.551e+09   ,2.4  ,2.5  ,3.9433
3451  ,1.110e+09   ,2.4  ,2.5  ,3.7462
3468  ,1.493e+09   ,1.4433  ,2.4  ,5
3480  ,1.053e+09   ,1.0491  ,2.4  ,5
3519  ,4.165e+08   ,1.5  ,2.4  ,0
3527  ,5.894e+08   ,2.3  ,-1.4729  ,0.2
3550  ,6.616e+08   ,-1.7  ,2.4  ,0
3554  ,7.277e+08   ,-1.7  ,2.5  ,0.1
3558  ,7.312e+08   ,-1.5  ,2.4  ,0
3562  ,7.559e+08   ,-1.5  ,2.5  ,0.1
3574  ,3.430e+08   ,-2.4  ,2.1  ,5
3581  ,5.703e+08   ,-2.5  ,1.7  ,0.1
3583  ,5.007e+08   ,-2.5  ,1.9  ,0.1
3584  ,3.779e+08   ,-1.9073  ,2.5  ,4.9
3591  ,3.547e+08   ,2.5  ,0.3  ,0.1
3595  ,2.748e+08   ,2.5  ,0.1  ,0.1
3603  ,1.113e+10   ,2.4577  ,2.391  ,4.7576
3663  ,4.545e+08   ,-1.933  ,-2.5  ,0.2
3669  ,3.590e+08   ,-2.1765  ,-2.5  ,0.2
3672  ,2.591e+08   ,-2.3  ,-2.3379  ,0.2
3682  ,7.537e+08   ,-1.9  ,-2.4  ,0
3700  ,6.373e+08   ,2.3  ,-2.5  ,2.7424
3712  ,2.478e+08   ,-2.1  ,-2.5  ,4.9
3715  ,3.002e+08   ,-1.9  ,-2.5  ,4.9
3740  ,4.997e+08   ,-1.3  ,-2.4  ,5
3746  ,3.322e+08   ,-1.2085  ,-2.5  ,4.8
3755  ,5.229e+08   ,-1.5  ,-2.4  ,5
3760  ,4.108e+08   ,-1.7  ,-2.5  ,4.9
3786  ,1.085e+09   ,2.4  ,2.5  ,1.5782
3813  ,9.054e+08   ,0.26073  ,2.4  ,5
3858  ,3.213e+08   ,-0.9  ,-2.4  ,5
3863  ,5.433e+08   ,-2.5  ,0.9  ,4.9
3875  ,9.175e+08   ,-1.9  ,-2.4  ,5
3885  ,1.143e+09   ,2.4  ,-0.72473  ,5
3910  ,3.343e+08   ,-2.4  ,-2.5  ,3.4
3959  ,2.140e+09   ,2.5  ,2.4  ,4.1404
3969  ,9.665e+08   ,2.5  ,1.0491  ,4.9
3992  ,9.475e+09   ,2.391  ,2.2576  ,4.9577
3993  ,8.710e+09   ,2.4577  ,2.2576  ,4.891
4016  ,1.001e+08   ,-2.3015  ,2.5  ,4.9
4018  ,1.391e+08   ,-2.4  ,2.5  ,4.8
4021  ,1.172e+09   ,1.2462  ,2.4  ,5
4042  ,3.174e+08   ,2.4  ,-1.1  ,0
4046  ,7.110e+08   ,-0.9  ,2.4  ,0
4055  ,8.283e+08   ,1.7  ,-2.5  ,4.9
4087  ,4.882e+08   ,1.7  ,2.4  ,0
4114  ,1.067e+09   ,2.5  ,-0.33054  ,4.9
4120  ,9.038e+07   ,2.4  ,-2.5  ,1.8
4125  ,6.154e+08   ,2.4  ,2.5  ,0.98691
4144  ,3.365e+09   ,2.4  ,2.5  ,4.3375
4161  ,4.526e+08   ,-2.4  ,0.3  ,5
4201  ,4.309e+08   ,1.933  ,-2.5  ,0.2
4225  ,2.370e+08   ,-2.3  ,-2.4  ,0
4230  ,4.784e+08   ,-2.3  ,-2.5  ,0.56701
4269  ,1.910e+08   ,-0.9  ,-2.5  ,4.9
4277  ,4.119e+08   ,-1.1  ,-2.4  ,5
4288  ,1.567e+09   ,-0.070055  ,2.3  ,4.8
4328  ,7.524e+08   ,-2.5  ,-2.4  ,4.2
4336  ,4.288e+08   ,-2.5  ,-2.4  ,4.4
4342  ,7.637e+08   ,-2.5  ,-2.4  ,4.6
4348  ,1.125e+09   ,-2.4  ,-2.4707  ,4.9707
4352  ,5.542e+08   ,-2.3  ,-2.5  ,4.9
4354  ,1.711e+09   ,-2.1765  ,-2.5  ,4.8
4355  ,8.809e+08   ,-2.3  ,-2.3379  ,4.8
4362  ,3.938e+08   ,2.5  ,2.4  ,0.59273
4364  ,7.682e+08   ,2.5  ,-2.4  ,2.4
4366  ,5.926e+08   ,2.5  ,-2.4  ,2.2
4372  ,2.756e+08   ,2.4  ,-2.5  ,2.2
4385  ,2.909e+08   ,-2.5  ,-1.9  ,0.1
4399  ,3.919e+08   ,-2.5  ,2.1  ,0.1
4407  ,4.941e+08   ,-0.7  ,-2.4  ,0
4436  ,5.977e+08   ,-2.5  ,-0.1  ,0.1
4462  ,8.139e+08   ,-2.3  ,2.3  ,4.0333
4491  ,9.782e+08   ,2.5  ,-0.52764  ,4.9
4494  ,3.056e+08   ,2.5  ,-2.4  ,1.4
4503  ,1.810e+08   ,2.4  ,-2.5  ,1.4
4508  ,3.606e+08   ,2.4  ,-2.5  ,1.2
4515  ,2.851e+08   ,2.5  ,-2.4  ,1.8
4517  ,6.100e+07   ,2.4  ,-2.5  ,1.6
4522  ,1.452e+09   ,0.7  ,-2.4  ,0
4538  ,1.034e+09   ,-1.1189  ,2.4  ,5
4546  ,2.001e+09   ,2.4  ,2.5  ,4.1404
4559  ,7.176e+08   ,1.7  ,-2.4  ,0
4590  ,1.269e+09   ,0.5  ,-2.4  ,0
4631  ,5.471e+08   ,2.4  ,-2.5  ,2.6
4634  ,1.312e+09   ,2.5  ,-2.4  ,2.8
4657  ,6.304e+08   ,-2.5  ,-2.4  ,2
4660  ,4.555e+08   ,-2.5  ,-2.4  ,1.8
4664  ,7.072e+08   ,-0.3  ,-2.4  ,0
4675  ,6.095e+08   ,-2.4  ,-2.5  ,4.8
4681  ,5.336e+08   ,-2.5  ,-0.3  ,0.1
4684  ,5.201e+08   ,1.7  ,-2.4  ,5
4703  ,6.225e+08   ,-2.4  ,0.7  ,5
4707  ,4.461e+08   ,-2.5  ,0.3  ,4.9
4714  ,9.572e+08   ,2.4  ,-0.33054  ,5
4723  ,1.071e+09   ,-1.5567  ,2.3  ,4.8
4739  ,2.677e+08   ,-2.1044  ,2.5  ,4.9
4763  ,6.299e+08   ,-1.9  ,2.4  ,0
4780  ,2.287e+08   ,-2.3  ,-1.9695  ,0.2
4782  ,8.514e+07   ,-2.4707  ,-2.4  ,0.029289
4784  ,2.983e+08   ,-2.4  ,-1.9  ,0
4791  ,2.755e+08   ,-2.4  ,-2.5  ,1.8
4796  ,1.842e+09   ,2.4707  ,-2.4707  ,4.9
4799  ,2.197e+09   ,2.5  ,-2.4  ,4.8
4806  ,1.274e+09   ,2.3  ,-2.5  ,4.9
4809  ,2.648e+09   ,2.3  ,2.3  ,3.9166
4833  ,5.715e+08   ,-2.4  ,2.5  ,0.4
4841  ,4.275e+08   ,-2.4  ,2.5  ,2.6
4846  ,3.614e+08   ,-2.5  ,2.1  ,4.9
4848  ,2.205e+08   ,-2.5  ,2.3  ,4.9
4849  ,2.101e+08   ,-2.5  ,2.4  ,4.8
4893  ,4.622e+08   ,-2.4  ,2.5  ,4.2
4897  ,3.751e+09   ,2.3333  ,2.1998  ,5
4900  ,1.217e+10   ,2.391  ,2.4577  ,4.7576
4908  ,1.056e+10   ,2.2576  ,2.391  ,4.9577
4911  ,1.211e+10   ,2.2576  ,2.4577  ,4.891
4926  ,7.567e+08   ,-2.5  ,2.4  ,1
4932  ,7.067e+08   ,-2.4  ,2.5  ,1.6
4937  ,8.779e+08   ,-1.1  ,2.5  ,0.1
4939  ,5.378e+09   ,2.3  ,2.2299  ,4.7299
4944  ,1.468e+09   ,2.5  ,-1.9073  ,4.9
4987  ,9.074e+08   ,-2.3  ,1.5527  ,4.8
5010  ,4.351e+09   ,2.4973  ,2.1331  ,4.923
5013  ,3.523e+09   ,2.5  ,2.0345  ,4.9
5017  ,3.766e+09   ,2.4  ,2.0345  ,5
5035  ,1.392e+09   ,1.3  ,-2.4  ,0
5038  ,8.857e+08   ,1.2085  ,-2.5  ,0.2
5092  ,1.131e+08   ,-2.4  ,-2.5  ,1.2
5123  ,8.938e+08   ,2.5  ,-2.4  ,0.6
5151  ,5.326e+08   ,-2.5  ,-0.5  ,0.1
5160  ,5.163e+08   ,-2.5  ,-0.7  ,0.1
5164  ,6.625e+08   ,-2.4  ,0.9  ,5
5168  ,4.346e+08   ,-2.4  ,0.5  ,5
5176  ,2.036e+08   ,2.5  ,-0.7  ,0.1
5179  ,1.087e+08   ,2.4  ,-0.5  ,0
5189  ,4.574e+08   ,2.4  ,-2.5  ,2.4
5194  ,2.918e+08   ,2.3  ,-2.5  ,2.2576
5198  ,3.515e+08   ,-2.3  ,-2.5  ,0.32348
5205  ,2.262e+08   ,-2.4  ,-2.5  ,0.2
5207  ,5.065e+08   ,-2.1  ,-2.5  ,0.1
5246  ,7.035e+08   ,-2.5  ,2.4  ,3.2
5257  ,4.029e+08   ,-2.5  ,1.5  ,4.9
5263  ,5.959e+08   ,-2.3  ,0.2278  ,0.2
5272  ,6.350e+08   ,-2.5  ,0.3  ,0.1
5275  ,4.504e+08   ,-2.5  ,0.5  ,4.9
5281  ,2.811e+09   ,1.8375  ,2.5  ,4.9
5297  ,7.977e+08   ,-0.9  ,2.5  ,0.1
5306  ,4.984e+08   ,-0.7  ,2.4  ,0
5309  ,5.249e+08   ,-0.5  ,2.5  ,0.1
5324  ,8.270e+08   ,2.4  ,2.5  ,2.7607
5332  ,6.020e+08   ,2.5  ,-2.4  ,0.8
5334  ,4.649e+08   ,2.4  ,-2.5  ,1
5360  ,1.291e+09   ,2.4  ,-1.7102  ,5
5362  ,1.302e+09   ,2.4  ,-1.5131  ,5
5368  ,2.627e+09   ,2.4  ,1.8375  ,5
5371  ,2.031e+10   ,2.4325  ,2.4888  ,4.6656
5372  ,5.489e+09   ,2.3333  ,2.5  ,4.6998
5376  ,4.242e+09   ,2.4707  ,2.4707  ,4.6331
5377  ,5.024e+09   ,2.5  ,2.4  ,4.5345
5379  ,4.852e+08   ,-1.5  ,-2.5  ,4.9
5406  ,1.410e+09   ,-2.5  ,-2.4  ,3.4
5420  ,8.484e+08   ,-2.3  ,-2.5  ,3.2226
5423  ,1.134e+09   ,1.5  ,-2.4  ,0
5502  ,7.085e+07   ,-2.5  ,-2.3  ,0.1
5504  ,1.629e+08   ,-2.5  ,-2.4  ,0.2
5506  ,1.176e+08   ,-2.4  ,-2.3  ,0
5511  ,1.752e+08   ,-2.5  ,-2.1  ,0.1
5513  ,6.756e+08   ,-2.4  ,0.5  ,0
5517  ,2.599e+08   ,-0.9  ,-2.5  ,0.1
5532  ,9.172e+07   ,-2.4707  ,2.4707  ,4.9
5534  ,1.699e+08   ,2.4  ,-0.7  ,0
5551  ,1.131e+09   ,2.5  ,-2.4  ,3.8
5566  ,9.070e+08   ,2.5  ,2.4  ,1.3811
5603  ,1.976e+08   ,2.4  ,-0.3  ,0
5617  ,5.980e+08   ,-2.1  ,2.5  ,0.1
5637  ,4.904e+08   ,-2.3  ,-1.9695  ,4.8
5641  ,6.863e+08   ,2.3  ,-2.5  ,3.4636
5645  ,3.038e+08   ,-2.4  ,-2.5  ,2
5649  ,2.255e+08   ,-2.4  ,-2.5  ,2.2
5659  ,1.932e+08   ,-2.3  ,-2.5  ,1.7774
5662  ,3.017e+09   ,2.1765  ,-2.5  ,4.8
5666  ,1.297e+09   ,2.4  ,-2.5  ,4.8
5669  ,1.666e+09   ,2.3  ,-2.3412  ,4.8
5695  ,7.020e+08   ,-2.4  ,0.7  ,0
5701  ,6.480e+08   ,-2.5  ,2.4  ,1.6
5715  ,6.311e+08   ,-2.4  ,2.5  ,1.8
5726  ,6.365e+08   ,-0.7  ,2.5  ,0.1
5727  ,7.867e+08   ,-1.1  ,2.4  ,0
5730  ,1.648e+08   ,2.3  ,-2.5  ,1.7774
5746  ,1.007e+09   ,2.5  ,2.4  ,1.7753
5755  ,1.048e+09   ,2.5  ,-2.4  ,4.4
5763  ,6.581e+08   ,2.4  ,-2.5  ,4.4
5773  ,1.079e+09   ,1.0491  ,2.5  ,4.9
5791  ,8.967e+08   ,-0.72473  ,2.4  ,5
5795  ,3.012e+09   ,1.8375  ,2.4  ,5
5803  ,6.346e+08   ,-0.3  ,-2.4  ,5
5810  ,1.920e+09   ,2.4  ,1.6404  ,5
5836  ,4.120e+08   ,-2.5  ,1.3  ,4.9
5860  ,2.322e+08   ,2.5  ,-2.4  ,1.6
5866  ,6.091e+08   ,1.5  ,-2.5  ,0.1
5884  ,3.250e+08   ,-2.4  ,-0.3  ,5
5888  ,1.902e+08   ,-2.5  ,-0.5  ,4.9
5901  ,4.686e+08   ,2.3  ,-2.5  ,2.5
5908  ,4.389e+08   ,2.5  ,-2.4  ,1.2
5909  ,4.212e+08   ,2.5  ,-2.4  ,2
5934  ,7.335e+08   ,1.9  ,-2.5  ,4.9
5938  ,1.975e+09   ,1.933  ,-2.5  ,4.8
5948  ,6.293e+08   ,-2.4  ,-2.5  ,4.6
5950  ,9.018e+08   ,-2.4707  ,-2.4707  ,4.9
5951  ,9.207e+08   ,-2.5  ,-2.4  ,4.8
5952  ,6.818e+08   ,-2.5  ,-2.3  ,4.9
5986  ,3.901e+08   ,2.3  ,-2.5  ,3.7085
5990  ,1.120e+09   ,-0.92182  ,2.5  ,4.9
6019  ,3.573e+08   ,2.5  ,1.9  ,0.1
6025  ,3.460e+08   ,2.4  ,-1.3  ,0
6035  ,4.411e+08   ,-2.5  ,1.9  ,4.9
6044  ,3.837e+08   ,0.1  ,2.5  ,0.1
6054  ,2.651e+08   ,2.4  ,0.1  ,0
6070  ,2.376e+08   ,-2.4  ,2.3  ,0
6071  ,3.287e+08   ,-2.3  ,2.4  ,0
6076  ,4.085e+08   ,-2.4  ,2.1  ,0
6083  ,8.840e+08   ,2.1  ,-2.4  ,0
6084  ,2.286e+08   ,2.4  ,2.3  ,0
6087  ,1.967e+08   ,2.3  ,2.4  ,0
6092  ,3.785e+08   ,-2.4  ,-2.5  ,0.4
6096  ,2.754e+08   ,-2.3  ,-2.5  ,0.1
6099  ,5.615e+08   ,0.7  ,-2.5  ,0.1
6149  ,5.770e+08   ,-2.4  ,-0.9  ,0
6159  ,8.137e+08   ,-2.5  ,-2.4  ,2.6
6183  ,1.174e+09   ,1.2462  ,2.5  ,4.9
6224  ,7.661e+08   ,2.5  ,-2.4  ,4
6228  ,7.849e+08   ,2.4  ,-2.5  ,3.8
6237  ,6.302e+08   ,2.5  ,0.7  ,0.1
6241  ,4.735e+09   ,2.5  ,2.3333  ,4.6998
6245  ,8.930e+08   ,2.5  ,2.4  ,1.5782
6259  ,1.532e+09   ,2.5  ,-2.1044  ,4.9
6265  ,1.246e+09   ,2.3  ,-1.9804  ,4.8
6267  ,1.641e+09   ,2.5  ,-2.3015  ,4.9
6268  ,1.498e+09   ,2.4707  ,-2.4  ,4.9707
6270  ,1.576e+09   ,2.4  ,-2.1044  ,5
6317  ,1.051e+09   ,-2.3  ,0.2278  ,4.8
6349  ,9.734e+08   ,-0.52764  ,2.4  ,5
6391  ,9.878e+08   ,2.4  ,2.5  ,1.7753
6440  ,4.916e+08   ,-2.5  ,2.4  ,3.8
6471  ,1.105e+09   ,2.5  ,-0.92182  ,4.9
6489  ,1.177e+09   ,2.5  ,1.2462  ,4.9
6523  ,1.760e+08   ,-1.1  ,-2.4  ,0
6528  ,1.788e+08   ,-1.1  ,-2.5  ,0.1
6535  ,2.234e+08   ,-0.9  ,-2.4  ,0
6538  ,6.652e+08   ,1.5  ,-2.4  ,5
6541  ,8.259e+08   ,1.5  ,-2.5  ,4.9
6551  ,1.038e+09   ,2.5  ,-0.72473  ,4.9
6564  ,9.355e+09   ,2.1331  ,2.4973  ,4.923
6565  ,5.143e+09   ,2.0345  ,2.5  ,4.9
6572  ,4.166e+08   ,2.4  ,-1.7  ,0
6581  ,1.240e+09   ,0  ,2.3  ,0.2
6592  ,4.653e+08   ,2.3  ,-1.9695  ,0.2
6594  ,2.711e+08   ,0.3  ,2.4  ,0
6601  ,5.740e+08   ,0.5  ,2.5  ,0.1
6605  ,4.653e+08   ,-2.4  ,-1.3  ,0
6606  ,5.165e+08   ,-2.4  ,-1.1  ,0
6615  ,6.121e+08   ,-2.4  ,-0.3  ,0
6634  ,9.854e+08   ,2.1  ,-2.5  ,4.9
6635  ,1.845e+09   ,2.4  ,-2.4707  ,4.9707
6636  ,2.171e+09   ,2.3  ,-2.4  ,5
6647  ,4.798e+08   ,0.5  ,-2.5  ,0.1
6704  ,1.526e+08   ,-2.4707  ,2.4707  ,0.1
6708  ,3.024e+08   ,-2.5  ,2.4  ,0.2
6712  ,5.596e+08   ,-2.4  ,2.5  ,3.6
6715  ,7.427e+08   ,-2.4  ,2.5  ,3.4
6728  ,5.830e+08   ,-2.5  ,0.7  ,4.9
6753  ,1.997e+08   ,-2.1044  ,2.4  ,5
6788  ,3.247e+09   ,2.5  ,2.4  ,4.3375
6791  ,1.270e+09   ,-1.933  ,-2.5  ,4.8
6795  ,5.043e+09   ,2.1998  ,2.5  ,4.8333
6837  ,5.594e+08   ,-2.3  ,-2.5  ,0.8063
6869  ,1.346e+09   ,2.5  ,-1.7102  ,4.9
6873  ,1.592e+09   ,2.4  ,-1.9073  ,5
6880  ,1.183e+09   ,2.4  ,-0.92182  ,5
6885  ,1.029e+09   ,2.4  ,-0.52764  ,5
6893  ,1.123e+09   ,2.4  ,1.2462  ,5
6914  ,8.123e+08   ,0.7  ,2.5  ,0.1
6920  ,6.564e+08   ,0.9  ,2.4  ,0
6923  ,7.167e+08   ,0.7  ,2.4  ,0
6936  ,5.094e+08   ,2.4  ,-2.5  ,3.4
6939  ,8.209e+08   ,2.3  ,-2.5  ,3.2226
6961  ,4.572e+08   ,-0.1  ,-2.5  ,4.9
6967  ,4.674e+08   ,-2.5  ,-1.5  ,4.9
6975  ,5.562e+08   ,-2.4  ,1.1  ,5
6978  ,3.686e+08   ,-2.4  ,2.5  ,0.2
6987  ,1.194e+09   ,2.4  ,-1.316  ,5
6994  ,4.423e+08   ,2.4  ,-1.5  ,0
7004  ,6.730e+08   ,2.4  ,-2.5  ,3.6
7011  ,9.293e+08   ,2.4  ,0.65491  ,5
7016  ,7.721e+08   ,2.4  ,0.45782  ,5
7019  ,8.845e+08   ,2.5  ,2.4  ,2.1695
7021  ,9.238e+08   ,2.5  ,2.4  ,1.9724
7052  ,7.789e+08   ,-1.3  ,2.5  ,0.1
7054  ,3.059e+08   ,-2.4  ,-2.5  ,0.8
7057  ,3.866e+08   ,0.3  ,-2.5  ,0.1
7065  ,3.942e+08   ,0.24243  ,-2.5  ,0.2
7075  ,2.020e+10   ,2.4888  ,2.4325  ,4.6656
7113  ,2.635e+08   ,-2.4  ,-2.5  ,2.6
7121  ,4.347e+08   ,-2.4  ,-2.5  ,2.8
7126  ,9.802e+08   ,-2.5  ,-2.4  ,2.8
7128  ,3.744e+07   ,-2.4707  ,-2.4707  ,0.1
7129  ,6.915e+07   ,-2.4  ,-2.4707  ,0.029289
7141  ,6.831e+08   ,-1.7  ,-2.4  ,5
7145  ,5.164e+08   ,1.1  ,2.4  ,0
7163  ,4.125e+08   ,-1.7102  ,2.4  ,5
7172  ,1.573e+09   ,2.5  ,-2.4  ,3.2
7174  ,4.956e+08   ,-2.5  ,2.4  ,3.6
7183  ,4.956e+08   ,-1.4531  ,-2.5  ,4.8
7204  ,2.292e+09   ,2.3  ,-0.81068  ,4.8
7220  ,9.490e+08   ,2.5  ,0.063638  ,4.9
7227  ,6.222e+08   ,2.5  ,-1.9  ,0.1
7256  ,8.070e+08   ,-0.1  ,-2.4  ,5
7280  ,9.002e+08   ,-0.33054  ,2.4  ,5
7299  ,1.155e+09   ,2.5  ,-1.1189  ,4.9
7316  ,7.395e+08   ,-2.5  ,-2.4  ,0.8
7323  ,1.739e+08   ,-2.4  ,-2.5  ,1
7396  ,1.400e+09   ,1.1  ,-2.4  ,5
7400  ,6.926e+08   ,-2.5  ,0.7  ,0.1
7409  ,1.109e+09   ,1.3  ,-2.4  ,5
7420  ,3.470e+08   ,2.5  ,2.1  ,0.1
7429  ,5.066e+08   ,2.4  ,1.9  ,0
7436  ,4.941e+08   ,2.5  ,-1.7  ,0.1
7438  ,5.809e+08   ,2.4  ,-2.5  ,2.8
7445  ,1.181e+10   ,2.4325  ,2.1656  ,4.9888
7464  ,3.422e+08   ,2.5  ,-1.5  ,0.1
7480  ,1.132e+09   ,2.5  ,-2.4  ,0.2
7482  ,5.330e+08   ,1.9  ,-2.5  ,0.1
7483  ,5.871e+08   ,1.7  ,-2.5  ,0.1
7486  ,1.069e+09   ,1.9  ,-2.4  ,5
7488  ,1.183e+09   ,1.6937  ,-2.5  ,4.8
7492  ,2.347e+09   ,2.1  ,-2.4  ,5
7495  ,2.869e+08   ,0.1  ,-2.5  ,0.1
7504  ,1.029e+09   ,0.3  ,-2.4  ,0
7507  ,4.132e+08   ,0.9  ,-2.5  ,0.1
7533  ,7.100e+08   ,-2.5  ,0.9  ,0.1
7536  ,3.381e+08   ,-2.4  ,-2.5  ,3.2
7540  ,4.683e+08   ,-2.4  ,-2.5  ,3
7545  ,1.254e+09   ,-2.5  ,-2.4  ,3
7582  ,4.551e+08   ,1.3  ,2.5  ,0.1
7588  ,9.565e+08   ,2.5  ,2.4  ,2.3665
7598  ,4.886e+08   ,-2.5  ,2.4  ,4.2
7607  ,8.250e+08   ,1.5333  ,2.3  ,0.2
7627  ,4.324e+08   ,-2.5  ,1.1  ,4.9
7651  ,5.744e+08   ,2.4  ,-1.9  ,0
7656  ,2.562e+08   ,2.5  ,2.4  ,0.39564
7660  ,5.490e+09   ,2.2299  ,2.3  ,4.7299
7668  ,3.901e+08   ,1.4531  ,-2.5  ,4.8
7676  ,5.293e+08   ,0.1  ,-2.5  ,4.9
7683  ,1.061e+09   ,0.1  ,-2.4  ,5
7686  ,3.213e+08   ,-2.4  ,-1.1  ,5
7702  ,5.146e+08   ,-2.3  ,-2.5  ,4.433
7710  ,1.102e+09   ,-2.3  ,-2.5  ,4.6765
7752  ,1.563e+09   ,0.9  ,-2.4  ,5
7763  ,6.200e+08   ,0.24243  ,-2.5  ,4.8
7767  ,1.394e+09   ,-2.5  ,-2.4  ,3.2
7768  ,1.905e+08   ,-2.4  ,-2.1  ,0
7776  ,7.524e+08   ,-2.4  ,0.9  ,0
7786  ,1.368e+08   ,-0.4838  ,-2.5  ,4.8
7800  ,2.337e+09   ,2.5  ,-2.4  ,4.6
7805  ,3.583e+08   ,-2.5  ,-1.3  ,4.9
7811  ,2.765e+08   ,-2.5  ,-1.1  ,4.9
7820  ,6.985e+08   ,2.5  ,-2.1  ,0.1
7824  ,6.248e+08   ,2.4  ,-2.1  ,0
7828  ,7.947e+08   ,2.4  ,-2.5  ,4.2
7831  ,9.190e+08   ,2.4  ,-2.5  ,4
7838  ,5.737e+08   ,2.5  ,-2.4  ,4.2
7839  ,8.815e+08   ,2.5  ,2.4  ,2.7607
7840  ,9.204e+08   ,2.5  ,2.4  ,2.9578
7863  ,4.279e+08   ,-2.4  ,-1.5  ,0
7890  ,5.297e+08   ,2.4  ,0.9  ,0
7897  ,5.546e+08   ,-2.4  ,-0.7  ,0
7912  ,6.979e+08   ,-1.5  ,-2.4  ,0
7917  ,1.488e+08   ,-1.3  ,-2.5  ,0.1
7931  ,4.248e+08   ,0.5  ,2.4  ,0
7934  ,1.478e+09   ,1.1  ,-2.4  ,0
7937  ,5.242e+08   ,2.4  ,-2.5  ,0.8
7941  ,3.759e+08   ,-2.4  ,-2.5  ,0.6
7969  ,2.283e+08   ,-2.5  ,2.3  ,0.1
7971  ,4.869e+08   ,-2.4  ,1.9  ,0
7972  ,7.129e+08   ,-1.9  ,2.5  ,0.1
7978  ,7.295e+08   ,-2.4  ,1.1  ,0
7996  ,2.221e+08   ,-2.4  ,-0.5  ,5
8000  ,6.779e+08   ,-2.5  ,-2.4  ,0.6
8003  ,4.960e+08   ,-2.5  ,-2.4  ,0.4
8025  ,7.763e+08   ,0.9  ,2.5  ,0.1
8035  ,4.205e+08   ,0.3  ,2.5  ,0.1
8039  ,1.801e+09   ,2.3  ,-2.5  ,0.32348
8041  ,9.549e+08   ,2.3  ,-2.3379  ,0.2
8043  ,1.171e+09   ,2.1765  ,-2.5  ,0.2
8045  ,1.292e+08   ,-0.96359  ,-2.5  ,0.2
8054  ,4.032e+08   ,1.3  ,2.4  ,0
8058  ,5.911e+08   ,1.1  ,2.5  ,0.1
8062  ,7.899e+08   ,-2.5  ,2.4  ,1.4
8067  ,7.032e+08   ,-2.5  ,2.4  ,0.8
8087  ,6.217e+08   ,-2.5  ,1.5  ,0.1
8132  ,9.366e+08   ,-0.13345  ,2.4  ,5
8183  ,2.748e+08   ,2.5  ,-0.9  ,0.1
8184  ,4.798e+08   ,1.6937  ,-2.5  ,0.2
8214  ,7.204e+08   ,-2.4707  ,-2.4  ,4.9707
8217  ,1.380e+09   ,-2.1  ,-2.4  ,5
8219  ,6.033e+08   ,-2.4  ,-2.5  ,4.4
8227  ,1.054e+09   ,2.5  ,2.4  ,3.1549
8242  ,5.145e+08   ,0.7  ,-2.5  ,4.9
8248  ,1.444e+09   ,2.5  ,-2.4  ,3.6
8254  ,2.097e+08   ,2.5  ,-0.3  ,0.1
8256  ,1.534e+08   ,2.5  ,-0.5  ,0.1
8258  ,3.341e+08   ,-0.3  ,-2.5  ,4.9
8263  ,2.133e+08   ,-0.5  ,-2.5  ,4.9
8268  ,9.320e+08   ,-2.3  ,-2.5  ,3.7085
8277  ,2.170e+08   ,-0.1  ,-2.5  ,0.1
8285  ,5.936e+08   ,1.1  ,-2.5  ,4.9
8307  ,1.671e+08   ,0.1  ,2.4  ,0
8308  ,5.709e+08   ,-0.1  ,2.5  ,0.1
8309  ,2.188e+08   ,-0.1  ,2.4  ,0
8313  ,7.253e+08   ,2.5  ,-2.3  ,0.1
8318  ,1.504e+09   ,2.5  ,-2.4  ,3
8338  ,9.187e+08   ,2.5  ,2.4  ,3.352
8339  ,9.542e+08   ,2.4  ,2.5  ,3.1549
8344  ,6.606e+08   ,-2.5  ,2.4  ,3.4
8357  ,1.140e+10   ,2.4888  ,2.1656  ,4.9325
8358  ,3.482e+09   ,2.5  ,2.1998  ,4.8333
8383  ,7.885e+08   ,-1.7  ,-2.4  ,0
8396  ,3.728e+08   ,1.1  ,-2.5  ,0.1
8399  ,3.360e+09   ,2.4526  ,2.1331  ,4.9851
8405  ,5.012e+08   ,2.5  ,-2.4  ,1
8412  ,8.398e+08   ,2.3  ,-2.5  ,0.8063
8417  ,4.374e+08   ,-2.3  ,-2.5  ,2.5
8434  ,7.066e+08   ,0.9636  ,-2.5  ,4.8
8438  ,1.824e+08   ,-0.3  ,-2.5  ,0.1
8452  ,3.782e+08   ,-2.4  ,-0.1  ,5
8468  ,1.196e+09   ,2.5  ,2.4  ,3.7462
8471  ,4.261e+08   ,-1.3  ,-2.5  ,4.9
8493  ,3.276e+08   ,-1.1  ,-2.5  ,4.9
8509  ,3.481e+08   ,-2.5  ,-1.7  ,0.1
8517  ,5.312e+08   ,-2.4  ,2.5  ,3
8531  ,5.423e+08   ,-2.4  ,1.7  ,0
8556  ,1.008e+09   ,2.5  ,2.4  ,3.5491
8573  ,8.820e+08   ,-1.316  ,2.4  ,5
8576  ,6.954e+08   ,-2.4  ,1.3  ,0
8611  ,2.467e+08   ,2.3  ,-2.5  ,1.2915
8618  ,4.296e+08   ,-2.4  ,2.5  ,4
8646  ,7.463e+08   ,-2.5  ,1.1  ,0.1
8656  ,3.889e+08   ,2.5  ,-1.3  ,0.1
8657  ,4.294e+08   ,2.4  ,2.1  ,0
8673  ,7.417e+08   ,-1.3  ,2.4  ,0
8692  ,7.713e+08   ,0.72263  ,-2.5  ,4.8
8696  ,4.826e+08   ,2.3  ,-2.5  ,1.0469
8706  ,8.784e+08   ,2.5  ,0.65491  ,4.9
8721  ,2.416e+08   ,-2.4  ,-2.5  ,1.6
8725  ,1.101e+09   ,0.65491  ,2.4  ,5
8739  ,1.706e+10   ,2.1656  ,2.4325  ,4.9888
8741  ,4.620e+09   ,2.1998  ,2.3333  ,5
8746  ,5.628e+08   ,-2.1  ,-2.4  ,0
8748  ,4.255e+08   ,-2.5  ,-2.4  ,1.2
8752  ,7.265e+09   ,2.1331  ,2.4526  ,4.9851
8759  ,5.026e+08   ,-2.3  ,-2.5  ,1.0469
8787  ,7.810e+08   ,-0.1  ,-2.4  ,0
8793  ,4.968e+08   ,-2.3  ,-2.5  ,2.2576
8795  ,2.450e+08   ,-2.4  ,-2.5  ,2.4
8798  ,4.165e+08   ,-2.3  ,-2.5  ,4.1937
8808  ,7.677e+08   ,-2.3  ,-2.5  ,3.9531
8814  ,6.897e+08   ,-2.4  ,-1.5  ,5
8849  ,7.350e+08   ,0.4838  ,-2.5  ,4.8
8851  ,6.214e+08   ,-2.4  ,-2.5  ,4.2
8868  ,6.088e+08   ,2.4  ,-2.5  ,3
8874  ,1.087e+09   ,0.852  ,2.4  ,5
8883  ,4.055e+08   ,-0.5  ,-2.4  ,5
8886  ,7.986e+07   ,-0.72262  ,-2.5  ,4.8
8893  ,9.319e+07   ,-0.7  ,-2.5  ,4.9
8897  ,1.427e+09   ,-2.5  ,-2.4  ,3.6
8899  ,9.030e+08   ,-2.3  ,-2.5  ,3.4636
8900  ,3.454e+08   ,-2.3  ,-1.4729  ,0.2
8906  ,5.186e+08   ,-2.5  ,-1.3  ,0.1
8910  ,1.076e+09   ,0.852  ,2.5  ,4.9
8925  ,7.617e+08   ,-2.4  ,2.5  ,1.4
8941  ,1.090e+08   ,2.4707  ,2.4  ,0.029289
8942  ,1.926e+08   ,2.5  ,2.3  ,0.1
8945  ,4.634e+08   ,-2.5  ,0.1  ,4.9
8950  ,1.003e+08   ,2.4707  ,2.4707  ,0.1
8951  ,7.585e+07   ,2.4  ,2.4707  ,0.029289
8959  ,6.757e+08   ,2.4  ,0.26073  ,5
8965  ,9.977e+08   ,0.45782  ,2.4  ,5
8978  ,7.946e+08   ,2.4  ,0.852  ,5
8983  ,3.004e+08   ,2.5  ,-1.1  ,0.1
8991  ,6.187e+08   ,-2.5  ,2.4  ,0.6
9008  ,7.994e+08   ,2.5  ,0.852  ,4.9
9011  ,5.548e+08   ,-2.4  ,-0.5  ,0
9025  ,2.085e+08   ,-1.5  ,-2.5  ,0.1
9038  ,1.844e+08   ,2.4  ,-2.5  ,2
9041  ,6.690e+08   ,2.5  ,0.9  ,0.1
9050  ,4.060e+08   ,2.5  ,0.5  ,0.1
9054  ,1.495e+09   ,0.9  ,-2.4  ,0
9060  ,4.704e+08   ,2.4  ,-2.5  ,0.4
9062  ,1.280e+09   ,2.3  ,-2.5  ,0.56701
9064  ,1.214e+09   ,2.5  ,-2.4  ,0.4
9069  ,4.006e+08   ,2.4  ,-2.5  ,0.6
9071  ,8.168e+08   ,1.4531  ,-2.5  ,0.2
9082  ,3.085e+08   ,-2.3  ,-2.5  ,1.2915
9086  ,1.476e+08   ,-2.4  ,-2.5  ,1.4
9091  ,1.444e+08   ,-2.5  ,-2.4  ,1.4
9094  ,6.719e+08   ,1.3  ,-2.5  ,4.9
9097  ,2.369e+08   ,-0.7  ,-2.5  ,0.1
9137  ,1.990e+08   ,-2.5  ,-0.7  ,4.9
9143  ,3.801e+08   ,-2.5  ,-0.1  ,4.9
9146  ,5.200e+08   ,-2.1  ,2.4  ,0
9148  ,4.332e+08   ,-2.5  ,1.7  ,4.9
9173  ,4.399e+08   ,-2.5  ,2.4  ,3
9192  ,2.896e+08   ,-0.7  ,-2.4  ,5
9195  ,7.299e+08   ,0.72263  ,-2.5  ,0.2
9209  ,1.586e+09   ,2.5  ,-2.4  ,3.4
9215  ,8.332e+08   ,0.9636  ,-2.5  ,0.2
9217  ,5.540e+08   ,2.4  ,-2.5  ,3.2
9218  ,2.411e+08   ,-0.96359  ,-2.5  ,4.8
9229  ,5.195e+08   ,-2.4  ,2.5  ,2.8
9248  ,1.891e+09   ,2.3  ,-2.5  ,4.433
9255  ,5.228e+08   ,2.5  ,1.3  ,0.1
9257  ,3.643e+08   ,2.4  ,1.5  ,0
9262  ,1.437e+09   ,0.5  ,-2.4  ,5
9264  ,8.412e+08   ,2.4  ,-0.13345  ,5
9272  ,7.758e+08   ,0.063638  ,2.4  ,5
9277  ,7.906e+08   ,-2.5  ,2.4  ,1.2
9279  ,8.002e+08   ,2.5  ,0.26073  ,4.9
9282  ,3.704e+08   ,1.2085  ,-2.5  ,4.8
9286  ,4.784e+08   ,0.9  ,-2.5  ,4.9
9292  ,8.905e+07   ,-2.4  ,2.4707  ,4.9707
9293  ,1.442e+08   ,-2.3015  ,2.4  ,5
9296  ,6.841e+08   ,-2.4  ,-2.1  ,5
9303  ,7.020e+08   ,-2.4  ,-1.9  ,5
9311  ,2.134e+08   ,-2.4  ,2.3  ,5
9313  ,4.124e+08   ,-2.4  ,0.1  ,5
9319  ,6.394e+08   ,-0.5  ,-2.4  ,0
9328  ,1.458e+08   ,-2.3  ,-2.5  ,1.5364
9334  ,3.998e+08   ,-2.3  ,2.5  ,0.1
9338  ,7.804e+08   ,-2.5  ,-2.4  ,2.4
9339  ,6.709e+08   ,-2.5  ,1.3  ,0.1
9341  ,4.733e+08   ,-2.3  ,-2.5  ,2.7424
9344  ,7.393e+08   ,-2.5  ,-2.4  ,2.2
9358  ,1.796e+09   ,-2.3  ,2.3  ,2.5
9364  ,6.891e+08   ,-2.5  ,-2.1  ,4.9
9367  ,8.123e+08   ,-2.4  ,-2.3  ,5
9374  ,4.651e+08   ,-2.4  ,-1.3  ,5
9378  ,4.443e+08   ,-2.5  ,2.4  ,1.8
9384  ,2.116e+08   ,2.3  ,-2.5  ,2.0162
9385  ,4.532e+08   ,-2.5  ,2.4  ,4.4
9389  ,4.742e+08   ,-2.5  ,2.4  ,2
9395  ,1.538e+09   ,2.4  ,-2.3015  ,5
9396  ,3.617e+08   ,-2.4  ,-1.7  ,0
9407  ,5.371e+08   ,-2.3  ,-1.4729  ,4.8
9411  ,4.570e+08   ,-2.5  ,-1.7  ,4.9
9423  ,3.277e+08   ,-2.4  ,-2.5  ,3.6
9432  ,1.544e+09   ,0.7  ,-2.4  ,5
9438  ,2.091e+08   ,-2.5  ,-0.9  ,4.9
9443  ,3.084e+08   ,-2.5  ,-0.3  ,4.9
9445  ,9.880e+07   ,-2.4707  ,2.4  ,4.9707
9448  ,1.145e+09   ,2.4  ,-1.1189  ,5
9453  ,5.903e+08   ,2.4  ,0.7  ,0
9455  ,1.025e+09   ,2.5  ,-2.4  ,2.6
9457  ,7.939e+08   ,2.3  ,-2.5  ,2.9838
9494  ,7.715e+08   ,-2.4  ,2.5  ,1
9500  ,5.511e+08   ,0.3  ,-2.5  ,4.9
9504  ,1.265e+09   ,0.3  ,-2.4  ,5
9506  ,4.718e+08   ,2.1  ,-2.5  ,0.1
9518  ,4.280e+08   ,-1.9  ,-2.5  ,0.1
9528  ,6.342e+08   ,2.3  ,-2.5  ,0.1
9531  ,1.159e+09   ,2.4707  ,-2.4707  ,0.1
9533  ,7.348e+08   ,2.4707  ,-2.4  ,0.029289
9534  ,9.288e+08   ,2.4  ,-2.4707  ,0.029289
9541  ,5.970e+08   ,0.5  ,-2.5  ,4.9
9544  ,2.021e+08   ,-0.5  ,-2.5  ,0.1
9559  ,5.587e+08   ,-2.5  ,-1.9  ,4.9
9562  ,3.557e+08   ,-2.5  ,2.4  ,4.6
9565  ,6.147e+08   ,-2.4  ,2.5  ,2
9571  ,1.354e+09   ,-2.5  ,-2.4  ,3.8
9574  ,3.714e+08   ,-2.4  ,-2.5  ,3.8
9577  ,4.305e+08   ,1.3  ,-2.5  ,0.1
9582  ,5.600e+08   ,-2.5  ,-0.9  ,0.1
9596  ,3.481e+08   ,2.1  ,2.4  ,0
9598  ,7.623e+08   ,-2.4  ,2.5  ,3.2
9602  ,4.519e+08   ,1.5  ,2.5  ,0.1
9610  ,2.703e+08   ,2.4  ,2.5  ,0.39564
9612  ,1.081e+09   ,-0.72473  ,2.5  ,4.9
9614  ,4.460e+08   ,1.7  ,2.5  ,0.1
9635  ,4.341e+08   ,2.5  ,1.7  ,0.1
9646  ,2.059e+08   ,2.3  ,2.5  ,0.1
9651  ,1.613e+10   ,2.1656  ,2.4888  ,4.9325
9653  ,1.137e+09   ,2.5  ,-1.316  ,4.9
9656  ,5.446e+08   ,-2.4  ,-1.7  ,5
9659  ,3.005e+09   ,2.3  ,-2.5  ,4.6765
9661  ,5.571e+08   ,2.3  ,-2.5  ,3.9531
9664  ,1.130e+09   ,-2.3  ,-2.4  ,5
9666  ,4.015e+08   ,1.9  ,-2.4  ,0
9677  ,4.958e+08   ,2.4  ,0.5  ,0
9678  ,5.679e+08   ,-2.5  ,-1.1  ,0.1
9680  ,8.732e+08   ,2.5  ,2.4  ,1.184
9681  ,1.505e+08   ,2.5  ,2.4  ,0.19855
9696  ,4.172e+08   ,-2.3  ,-2.5  ,2.0162
9698  ,7.650e+08   ,2.4  ,-2.3  ,0
9699  ,4.364e+08   ,-0.24243  ,-2.5  ,0.2
9701  ,8.718e+08   ,0.1  ,-2.4  ,0
9704  ,3.890e+08   ,-0.4838  ,-2.5  ,0.2
9718  ,2.147e+08   ,-0.72262  ,-2.5  ,0.2
9726  ,9.419e+08   ,2.3  ,-0.76628  ,0.2
9727  ,5.510e+08   ,-2.5  ,2.4  ,0.4
9730  ,4.564e+08   ,1.9433E-06  ,-2.5  ,4.8
9731  ,2.817e+08   ,-0.24243  ,-2.5  ,4.8
9732  ,4.890e+08   ,-2.5  ,2.4  ,2.2
9738  ,1.125e+09   ,-2.5  ,-2.4  ,4
9743  ,8.480e+08   ,-1.6937  ,-2.5  ,4.8
9744  ,5.107e+08   ,-2.4  ,-2.5  ,4
9750  ,3.279e+08   ,-1.7  ,-2.5  ,0.1
9752  ,5.206e+08   ,-1.6937  ,-2.5  ,0.2
9754  ,4.644e+08   ,-1.3  ,-2.4  ,0
9759  ,1.393e+08   ,-2.4707  ,2.4  ,0.029289
9760  ,1.434e+08   ,-2.4  ,2.4707  ,0.029289
9768  ,1.251e+09   ,2.3  ,-2.5  ,4.1937
9770  ,3.934e+08   ,1.9433E-06  ,-2.5  ,0.2
9771  ,5.462e+08   ,0.4838  ,-2.5  ,0.2
9772  ,5.008e+08   ,2.4  ,-2.5  ,0.2
9773  ,9.744e+08   ,2.4  ,-2.5  ,4.6
9776  ,7.426e+08   ,2.4  ,0.063638  ,5
9780  ,1.086e+09   ,0.65491  ,2.5  ,4.9
9781  ,1.334e+08   ,2.4  ,2.5  ,0.19855
9782  ,7.278e+08   ,-2.3  ,-2.5  ,2.9838
9786  ,2.613e+08   ,-1.2085  ,-2.5  ,0.2
9787  ,4.437e+08   ,-1.4531  ,-2.5  ,0.2
9790  ,9.335e+08   ,2.3  ,-2.4  ,0
9793  ,4.996e+09   ,2.0345  ,2.4  ,5
9797  ,1.562e+08   ,2.3  ,-2.5  ,1.5364
9798  ,8.609e+08   ,2.4  ,1.0491  ,5
9809  ,8.996e+08   ,2.4  ,2.5  ,3.352
