Date:  11:14, Monday, July 10, 2023
Model name: Hollow_DropBox
Study name: Drop Test_hollow_draft1(-Default-)
Plot type:  Stress1
Plot step: 3   time : 15.7385 Microseconds
Result Type: von Mises 


Node  ,Value (N/m^2)  ,X (in)  ,Y (in)  ,Z (in)
1  ,2.598e+09   ,2.5  ,2.1331  ,4.9
2  ,1.267e+10   ,2.4577  ,2.1908  ,4.9577
3  ,3.852e+09   ,2.4894  ,2.1331  ,4.9447
4  ,2.450e+09   ,2.1331  ,2.5  ,4.9
5  ,3.805e+09   ,2.1331  ,2.4894  ,4.9447
6  ,1.173e+10   ,2.1908  ,2.4577  ,4.9577
7  ,5.848e+06   ,-2.4  ,2.4  ,5
8  ,6.126e+04   ,-2.4  ,-2.4  ,5
9  ,2.203e+06   ,2.4  ,-2.4  ,5
10  ,2.531e+09   ,2.4  ,2.1331  ,5
11  ,2.824e+09   ,2.1331  ,2.4  ,5
12  ,1.957e+06   ,2.5  ,-2.4  ,4.9
13  ,5.483e+04   ,2.5  ,-2.4  ,0.1
14  ,7.941e+06   ,2.5  ,2.4  ,0.1
15  ,2.988e+09   ,2.5  ,2.4  ,4.6331
16  ,6.482e+06   ,2.4  ,2.5  ,0.1
17  ,3.101e+06   ,-2.4  ,2.5  ,0.1
18  ,4.986e+06   ,-2.4  ,2.5  ,4.9
19  ,3.005e+09   ,2.4  ,2.5  ,4.6331
20  ,1.601e+06   ,-2.5  ,2.4  ,0.1
21  ,2.259e+02   ,-2.5  ,-2.4  ,0.1
22  ,5.093e+04   ,-2.5  ,-2.4  ,4.9
23  ,4.001e+06   ,-2.5  ,2.4  ,4.9
24  ,2.920e+02   ,-2.3  ,-2.5  ,0.2
25  ,4.955e+04   ,-2.3  ,-2.5  ,4.8
26  ,9.977e+05   ,2.3  ,-2.5  ,4.8
27  ,3.841e+04   ,2.3  ,-2.5  ,0.2
28  ,6.299e+04   ,-2.4  ,-2.5  ,4.9
29  ,9.569e+05   ,2.4  ,-2.5  ,4.9
30  ,1.625e+02   ,-2.4  ,-2.5  ,0.1
31  ,2.019e+04   ,2.4  ,-2.5  ,0.1
32  ,2.680e+04   ,2.4  ,-2.4  ,0
33  ,5.427e+06   ,2.4  ,2.4  ,0
34  ,2.313e+02   ,-2.4  ,-2.4  ,0
35  ,1.959e+06   ,-2.4  ,2.4  ,0
36  ,1.085e+10   ,2.4577  ,2.4577  ,4.6908
37  ,1.167e+07   ,-2.3  ,2.3  ,4.8
38  ,3.346e+09   ,2.1599  ,2.3  ,4.8
39  ,3.262e+09   ,2.3  ,2.1599  ,4.8
40  ,3.154e+09   ,2.3  ,2.3  ,4.6599
41  ,6.616e+06   ,2.3  ,2.3  ,0.2
42  ,1.138e+06   ,-2.3  ,2.3  ,0.2
43  ,7.322e+06   ,-2.4  ,2.2  ,5
44  ,2.562e+06   ,-2.4  ,2  ,5
45  ,2.358e+06   ,-2.4  ,1.8  ,5
46  ,3.991e+06   ,-2.4  ,1.6  ,5
47  ,3.789e+06   ,-2.4  ,1.4  ,5
48  ,2.847e+06   ,-2.4  ,1.2  ,5
49  ,6.250e+06   ,-2.4  ,1  ,5
50  ,8.850e+06   ,-2.4  ,0.8  ,5
51  ,7.994e+06   ,-2.4  ,0.6  ,5
52  ,8.464e+06   ,-2.4  ,0.4  ,5
53  ,8.467e+06   ,-2.4  ,0.2  ,5
54  ,7.857e+06   ,-2.4  ,5.8879E-16  ,5
55  ,2.140e+06   ,-2.4  ,-0.2  ,5
56  ,3.557e+06   ,-2.4  ,-0.4  ,5
57  ,3.943e+06   ,-2.4  ,-0.6  ,5
58  ,4.296e+06   ,-2.4  ,-0.8  ,5
59  ,1.522e+06   ,-2.4  ,-1  ,5
60  ,4.092e+06   ,-2.4  ,-1.2  ,5
61  ,1.309e+06   ,-2.4  ,-1.4  ,5
62  ,9.906e+05   ,-2.4  ,-1.6  ,5
63  ,1.053e+06   ,-2.4  ,-1.8  ,5
64  ,3.593e+05   ,-2.4  ,-2  ,5
65  ,9.561e+04   ,-2.4  ,-2.2  ,5
66  ,9.590e+04   ,-2.2  ,-2.4  ,5
67  ,1.693e+05   ,-2  ,-2.4  ,5
68  ,2.649e+05   ,-1.8  ,-2.4  ,5
69  ,4.340e+05   ,-1.6  ,-2.4  ,5
70  ,5.731e+05   ,-1.4  ,-2.4  ,5
71  ,4.983e+05   ,-1.2  ,-2.4  ,5
72  ,3.752e+05   ,-1  ,-2.4  ,5
73  ,1.668e+06   ,-0.8  ,-2.4  ,5
74  ,2.340e+06   ,-0.6  ,-2.4  ,5
75  ,1.794e+06   ,-0.4  ,-2.4  ,5
76  ,3.134e+05   ,-0.2  ,-2.4  ,5
77  ,1.070e+06   ,-5.8879E-16  ,-2.4  ,5
78  ,1.275e+06   ,0.2  ,-2.4  ,5
79  ,1.074e+06   ,0.4  ,-2.4  ,5
80  ,2.657e+06   ,0.6  ,-2.4  ,5
81  ,4.602e+06   ,0.8  ,-2.4  ,5
82  ,4.572e+06   ,1  ,-2.4  ,5
83  ,3.829e+06   ,1.2  ,-2.4  ,5
84  ,1.838e+06   ,1.4  ,-2.4  ,5
85  ,1.425e+06   ,1.6  ,-2.4  ,5
86  ,3.316e+06   ,1.8  ,-2.4  ,5
87  ,4.203e+06   ,2  ,-2.4  ,5
88  ,2.612e+06   ,2.2  ,-2.4  ,5
89  ,5.948e+06   ,2.4  ,-2.2029  ,5
90  ,4.623e+06   ,2.4  ,-2.0058  ,5
91  ,8.829e+06   ,2.4  ,-1.8087  ,5
92  ,7.911e+06   ,2.4  ,-1.6116  ,5
93  ,2.195e+07   ,2.4  ,-1.4145  ,5
94  ,4.500e+07   ,2.4  ,-1.2175  ,5
95  ,5.619e+07   ,2.4  ,-1.0204  ,5
96  ,1.095e+08   ,2.4  ,-0.82327  ,5
97  ,2.300e+08   ,2.4  ,-0.62618  ,5
98  ,4.170e+08   ,2.4  ,-0.42909  ,5
99  ,3.153e+08   ,2.4  ,-0.232  ,5
100  ,1.786e+08   ,2.4  ,-0.034907  ,5
101  ,2.556e+08   ,2.4  ,0.16218  ,5
102  ,1.486e+08   ,2.4  ,0.35927  ,5
103  ,1.519e+08   ,2.4  ,0.55637  ,5
104  ,1.205e+08   ,2.4  ,0.75346  ,5
105  ,1.644e+08   ,2.4  ,0.95055  ,5
106  ,2.607e+08   ,2.4  ,1.1476  ,5
107  ,5.862e+08   ,2.4  ,1.3447  ,5
108  ,8.787e+08   ,2.4  ,1.5418  ,5
109  ,1.289e+09   ,2.4  ,1.7389  ,5
110  ,2.017e+09   ,2.4  ,1.936  ,5
111  ,2.801e+09   ,2.2665  ,2.2665  ,5
112  ,2.024e+09   ,1.936  ,2.4  ,5
113  ,1.197e+09   ,1.7389  ,2.4  ,5
114  ,9.669e+08   ,1.5418  ,2.4  ,5
115  ,7.109e+08   ,1.3447  ,2.4  ,5
116  ,3.949e+08   ,1.1476  ,2.4  ,5
117  ,2.159e+08   ,0.95055  ,2.4  ,5
118  ,6.929e+07   ,0.75346  ,2.4  ,5
119  ,8.492e+07   ,0.55637  ,2.4  ,5
120  ,1.759e+08   ,0.35927  ,2.4  ,5
121  ,2.945e+08   ,0.16218  ,2.4  ,5
122  ,3.020e+08   ,-0.034907  ,2.4  ,5
123  ,2.982e+08   ,-0.232  ,2.4  ,5
124  ,3.322e+08   ,-0.42909  ,2.4  ,5
125  ,2.509e+08   ,-0.62618  ,2.4  ,5
126  ,1.317e+08   ,-0.82327  ,2.4  ,5
127  ,5.527e+07   ,-1.0204  ,2.4  ,5
128  ,3.007e+07   ,-1.2175  ,2.4  ,5
129  ,1.795e+07   ,-1.4145  ,2.4  ,5
130  ,7.496e+06   ,-1.6116  ,2.4  ,5
131  ,1.033e+07   ,-1.8087  ,2.4  ,5
132  ,1.459e+07   ,-2.0058  ,2.4  ,5
133  ,1.318e+07   ,-2.2029  ,2.4  ,5
294  ,5.070e+06   ,2.5  ,-2.2029  ,4.9
295  ,4.934e+06   ,2.5  ,-2.0058  ,4.9
296  ,7.128e+06   ,2.5  ,-1.8087  ,4.9
297  ,1.083e+07   ,2.5  ,-1.6116  ,4.9
298  ,2.041e+07   ,2.5  ,-1.4145  ,4.9
299  ,4.914e+07   ,2.5  ,-1.2175  ,4.9
300  ,6.367e+07   ,2.5  ,-1.0204  ,4.9
301  ,9.762e+07   ,2.5  ,-0.82327  ,4.9
302  ,2.300e+08   ,2.5  ,-0.62618  ,4.9
303  ,4.075e+08   ,2.5  ,-0.42909  ,4.9
304  ,3.178e+08   ,2.5  ,-0.232  ,4.9
305  ,2.536e+08   ,2.5  ,-0.034907  ,4.9
306  ,2.272e+08   ,2.5  ,0.16218  ,4.9
307  ,1.530e+08   ,2.5  ,0.35927  ,4.9
308  ,7.173e+07   ,2.5  ,0.55637  ,4.9
309  ,7.257e+07   ,2.5  ,0.75346  ,4.9
310  ,1.106e+08   ,2.5  ,0.95055  ,4.9
311  ,3.314e+08   ,2.5  ,1.1476  ,4.9
312  ,5.937e+08   ,2.5  ,1.3447  ,4.9
313  ,9.574e+08   ,2.5  ,1.5418  ,4.9
314  ,1.516e+09   ,2.5  ,1.7389  ,4.9
315  ,2.188e+09   ,2.5  ,1.936  ,4.9
316  ,1.881e+06   ,2.5  ,-2.4  ,4.7
317  ,1.908e+06   ,2.5  ,-2.4  ,4.5
318  ,1.143e+06   ,2.5  ,-2.4  ,4.3
319  ,3.464e+06   ,2.5  ,-2.4  ,4.1
320  ,6.113e+06   ,2.5  ,-2.4  ,3.9
321  ,6.729e+06   ,2.5  ,-2.4  ,3.7
322  ,6.217e+06   ,2.5  ,-2.4  ,3.5
323  ,5.037e+06   ,2.5  ,-2.4  ,3.3
324  ,2.651e+06   ,2.5  ,-2.4  ,3.1
325  ,1.517e+06   ,2.5  ,-2.4  ,2.9
326  ,1.207e+06   ,2.5  ,-2.4  ,2.7
327  ,5.737e+05   ,2.5  ,-2.4  ,2.5
328  ,8.254e+05   ,2.5  ,-2.4  ,2.3
329  ,2.129e+06   ,2.5  ,-2.4  ,2.1
330  ,1.606e+06   ,2.5  ,-2.4  ,1.9
331  ,2.942e+05   ,2.5  ,-2.4  ,1.7
332  ,6.348e+05   ,2.5  ,-2.4  ,1.5
333  ,8.925e+05   ,2.5  ,-2.4  ,1.3
334  ,7.736e+05   ,2.5  ,-2.4  ,1.1
335  ,5.486e+05   ,2.5  ,-2.4  ,0.9
336  ,3.283e+05   ,2.5  ,-2.4  ,0.7
337  ,9.913e+04   ,2.5  ,-2.4  ,0.5
338  ,6.611e+04   ,2.5  ,-2.4  ,0.3
339  ,1.120e+05   ,2.5  ,-2.2  ,0.1
340  ,2.122e+05   ,2.5  ,-2  ,0.1
341  ,1.082e+06   ,2.5  ,-1.8  ,0.1
342  ,1.433e+06   ,2.5  ,-1.6  ,0.1
343  ,1.780e+06   ,2.5  ,-1.4  ,0.1
344  ,4.648e+06   ,2.5  ,-1.2  ,0.1
345  ,2.716e+06   ,2.5  ,-1  ,0.1
346  ,5.400e+06   ,2.5  ,-0.8  ,0.1
347  ,3.402e+06   ,2.5  ,-0.6  ,0.1
348  ,2.564e+06   ,2.5  ,-0.4  ,0.1
349  ,4.105e+06   ,2.5  ,-0.2  ,0.1
350  ,6.588e+06   ,2.5  ,-1.7664E-15  ,0.1
351  ,6.831e+06   ,2.5  ,0.2  ,0.1
352  ,6.562e+06   ,2.5  ,0.4  ,0.1
353  ,6.963e+06   ,2.5  ,0.6  ,0.1
354  ,1.631e+07   ,2.5  ,0.8  ,0.1
355  ,9.312e+06   ,2.5  ,1  ,0.1
356  ,7.073e+06   ,2.5  ,1.2  ,0.1
357  ,4.366e+06   ,2.5  ,1.4  ,0.1
358  ,5.794e+06   ,2.5  ,1.6  ,0.1
359  ,3.538e+06   ,2.5  ,1.8  ,0.1
360  ,1.768e+06   ,2.5  ,2  ,0.1
361  ,6.407e+06   ,2.5  ,2.2  ,0.1
362  ,2.106e+09   ,2.5  ,2.4  ,4.436
363  ,1.478e+09   ,2.5  ,2.4  ,4.2389
364  ,9.452e+08   ,2.5  ,2.4  ,4.0418
365  ,7.522e+08   ,2.5  ,2.4  ,3.8447
366  ,3.410e+08   ,2.5  ,2.4  ,3.6476
367  ,1.662e+08   ,2.5  ,2.4  ,3.4505
368  ,1.015e+08   ,2.5  ,2.4  ,3.2535
369  ,1.068e+08   ,2.5  ,2.4  ,3.0564
370  ,1.472e+08   ,2.5  ,2.4  ,2.8593
371  ,2.971e+08   ,2.5  ,2.4  ,2.6622
372  ,3.035e+08   ,2.5  ,2.4  ,2.4651
373  ,3.103e+08   ,2.5  ,2.4  ,2.268
374  ,3.265e+08   ,2.5  ,2.4  ,2.0709
375  ,2.634e+08   ,2.5  ,2.4  ,1.8738
376  ,1.569e+08   ,2.5  ,2.4  ,1.6767
377  ,6.074e+07   ,2.5  ,2.4  ,1.4796
378  ,1.954e+07   ,2.5  ,2.4  ,1.2825
379  ,6.367e+06   ,2.5  ,2.4  ,1.0855
380  ,6.790e+06   ,2.5  ,2.4  ,0.88836
381  ,1.138e+07   ,2.5  ,2.4  ,0.69127
382  ,1.108e+07   ,2.5  ,2.4  ,0.49418
383  ,7.818e+06   ,2.5  ,2.4  ,0.29709
384  ,2.626e+09   ,2.5  ,2.2665  ,4.7665
544  ,2.642e+06   ,2.2  ,2.5  ,0.1
545  ,4.802e+06   ,2  ,2.5  ,0.1
546  ,7.028e+06   ,1.8  ,2.5  ,0.1
547  ,8.878e+06   ,1.6  ,2.5  ,0.1
548  ,8.333e+06   ,1.4  ,2.5  ,0.1
549  ,1.001e+07   ,1.2  ,2.5  ,0.1
550  ,8.247e+06   ,1  ,2.5  ,0.1
551  ,2.319e+07   ,0.8  ,2.5  ,0.1
552  ,1.418e+07   ,0.6  ,2.5  ,0.1
553  ,7.405e+06   ,0.4  ,2.5  ,0.1
554  ,6.303e+06   ,0.2  ,2.5  ,0.1
555  ,4.593e+06   ,5.8879E-16  ,2.5  ,0.1
556  ,5.109e+06   ,-0.2  ,2.5  ,0.1
557  ,7.594e+06   ,-0.4  ,2.5  ,0.1
558  ,5.694e+06   ,-0.6  ,2.5  ,0.1
559  ,4.444e+06   ,-0.8  ,2.5  ,0.1
560  ,1.966e+06   ,-1  ,2.5  ,0.1
561  ,2.741e+06   ,-1.2  ,2.5  ,0.1
562  ,2.691e+06   ,-1.4  ,2.5  ,0.1
563  ,2.334e+06   ,-1.6  ,2.5  ,0.1
564  ,8.174e+05   ,-1.8  ,2.5  ,0.1
565  ,1.788e+06   ,-2  ,2.5  ,0.1
566  ,5.411e+06   ,-2.2  ,2.5  ,0.1
567  ,6.148e+06   ,-2.4  ,2.5  ,4.7
568  ,3.826e+06   ,-2.4  ,2.5  ,4.5
569  ,5.471e+06   ,-2.4  ,2.5  ,4.3
570  ,8.266e+06   ,-2.4  ,2.5  ,4.1
571  ,1.020e+07   ,-2.4  ,2.5  ,3.9
572  ,9.294e+06   ,-2.4  ,2.5  ,3.7
573  ,7.593e+06   ,-2.4  ,2.5  ,3.5
574  ,1.268e+07   ,-2.4  ,2.5  ,3.3
575  ,8.378e+06   ,-2.4  ,2.5  ,3.1
576  ,7.194e+06   ,-2.4  ,2.5  ,2.9
577  ,5.759e+06   ,-2.4  ,2.5  ,2.7
578  ,4.527e+06   ,-2.4  ,2.5  ,2.5
579  ,5.686e+06   ,-2.4  ,2.5  ,2.3
580  ,4.993e+06   ,-2.4  ,2.5  ,2.1
581  ,2.256e+06   ,-2.4  ,2.5  ,1.9
582  ,3.201e+06   ,-2.4  ,2.5  ,1.7
583  ,2.493e+06   ,-2.4  ,2.5  ,1.5
584  ,1.749e+06   ,-2.4  ,2.5  ,1.3
585  ,1.503e+06   ,-2.4  ,2.5  ,1.1
586  ,1.200e+06   ,-2.4  ,2.5  ,0.9
587  ,2.018e+06   ,-2.4  ,2.5  ,0.7
588  ,3.293e+06   ,-2.4  ,2.5  ,0.5
589  ,5.224e+06   ,-2.4  ,2.5  ,0.3
590  ,2.098e+09   ,1.936  ,2.5  ,4.9
591  ,1.184e+09   ,1.7389  ,2.5  ,4.9
592  ,9.174e+08   ,1.5418  ,2.5  ,4.9
593  ,6.694e+08   ,1.3447  ,2.5  ,4.9
594  ,3.650e+08   ,1.1476  ,2.5  ,4.9
595  ,2.059e+08   ,0.95055  ,2.5  ,4.9
596  ,1.341e+08   ,0.75346  ,2.5  ,4.9
597  ,1.070e+08   ,0.55637  ,2.5  ,4.9
598  ,1.786e+08   ,0.35927  ,2.5  ,4.9
599  ,3.143e+08   ,0.16218  ,2.5  ,4.9
600  ,2.851e+08   ,-0.034907  ,2.5  ,4.9
601  ,3.076e+08   ,-0.232  ,2.5  ,4.9
602  ,3.367e+08   ,-0.42909  ,2.5  ,4.9
603  ,2.559e+08   ,-0.62618  ,2.5  ,4.9
604  ,1.213e+08   ,-0.82327  ,2.5  ,4.9
605  ,5.867e+07   ,-1.0204  ,2.5  ,4.9
606  ,3.050e+07   ,-1.2175  ,2.5  ,4.9
607  ,1.831e+07   ,-1.4145  ,2.5  ,4.9
608  ,6.940e+06   ,-1.6116  ,2.5  ,4.9
609  ,8.191e+06   ,-1.8087  ,2.5  ,4.9
610  ,1.343e+07   ,-2.0058  ,2.5  ,4.9
611  ,1.205e+07   ,-2.2029  ,2.5  ,4.9
612  ,2.718e+09   ,2.2665  ,2.5  ,4.7665
613  ,1.978e+09   ,2.4  ,2.5  ,4.436
614  ,1.342e+09   ,2.4  ,2.5  ,4.2389
615  ,8.199e+08   ,2.4  ,2.5  ,4.0418
616  ,6.863e+08   ,2.4  ,2.5  ,3.8447
617  ,3.553e+08   ,2.4  ,2.5  ,3.6476
618  ,1.902e+08   ,2.4  ,2.5  ,3.4505
619  ,1.245e+08   ,2.4  ,2.5  ,3.2535
620  ,7.300e+07   ,2.4  ,2.5  ,3.0564
621  ,1.668e+08   ,2.4  ,2.5  ,2.8593
622  ,3.073e+08   ,2.4  ,2.5  ,2.6622
623  ,2.879e+08   ,2.4  ,2.5  ,2.4651
624  ,3.136e+08   ,2.4  ,2.5  ,2.268
625  ,3.211e+08   ,2.4  ,2.5  ,2.0709
626  ,2.569e+08   ,2.4  ,2.5  ,1.8738
627  ,1.615e+08   ,2.4  ,2.5  ,1.6767
628  ,5.769e+07   ,2.4  ,2.5  ,1.4796
629  ,2.111e+07   ,2.4  ,2.5  ,1.2825
630  ,7.754e+06   ,2.4  ,2.5  ,1.0855
631  ,1.286e+07   ,2.4  ,2.5  ,0.88836
632  ,1.358e+07   ,2.4  ,2.5  ,0.69127
633  ,1.279e+07   ,2.4  ,2.5  ,0.49418
634  ,8.534e+06   ,2.4  ,2.5  ,0.29709
796  ,1.805e+06   ,-2.5  ,2.2  ,0.1
797  ,7.054e+05   ,-2.5  ,2  ,0.1
798  ,7.561e+05   ,-2.5  ,1.8  ,0.1
799  ,5.913e+05   ,-2.5  ,1.6  ,0.1
800  ,2.652e+05   ,-2.5  ,1.4  ,0.1
801  ,5.138e+05   ,-2.5  ,1.2  ,0.1
802  ,6.888e+05   ,-2.5  ,1  ,0.1
803  ,3.706e+05   ,-2.5  ,0.8  ,0.1
804  ,2.253e+05   ,-2.5  ,0.6  ,0.1
805  ,1.086e+05   ,-2.5  ,0.4  ,0.1
806  ,1.153e+05   ,-2.5  ,0.2  ,0.1
807  ,8.246e+04   ,-2.5  ,5.8879E-16  ,0.1
808  ,1.826e+05   ,-2.5  ,-0.2  ,0.1
809  ,1.733e+05   ,-2.5  ,-0.4  ,0.1
810  ,6.235e+04   ,-2.5  ,-0.6  ,0.1
811  ,9.074e+04   ,-2.5  ,-0.8  ,0.1
812  ,6.062e+04   ,-2.5  ,-1  ,0.1
813  ,6.694e+04   ,-2.5  ,-1.2  ,0.1
814  ,2.079e+04   ,-2.5  ,-1.4  ,0.1
815  ,1.770e+04   ,-2.5  ,-1.6  ,0.1
816  ,8.593e+03   ,-2.5  ,-1.8  ,0.1
817  ,2.782e+03   ,-2.5  ,-2  ,0.1
818  ,9.917e+02   ,-2.5  ,-2.2  ,0.1
819  ,6.157e+04   ,-2.5  ,-2.4  ,4.7
820  ,5.737e+04   ,-2.5  ,-2.4  ,4.5
821  ,5.360e+04   ,-2.5  ,-2.4  ,4.3
822  ,3.165e+04   ,-2.5  ,-2.4  ,4.1
823  ,8.630e+03   ,-2.5  ,-2.4  ,3.9
824  ,1.836e+04   ,-2.5  ,-2.4  ,3.7
825  ,9.818e+03   ,-2.5  ,-2.4  ,3.5
826  ,4.736e+03   ,-2.5  ,-2.4  ,3.3
827  ,3.938e+03   ,-2.5  ,-2.4  ,3.1
828  ,2.370e+03   ,-2.5  ,-2.4  ,2.9
829  ,2.854e+03   ,-2.5  ,-2.4  ,2.7
830  ,1.896e+03   ,-2.5  ,-2.4  ,2.5
831  ,2.234e+03   ,-2.5  ,-2.4  ,2.3
832  ,2.971e+03   ,-2.5  ,-2.4  ,2.1
833  ,2.589e+03   ,-2.5  ,-2.4  ,1.9
834  ,1.352e+03   ,-2.5  ,-2.4  ,1.7
835  ,1.289e+03   ,-2.5  ,-2.4  ,1.5
836  ,2.571e+03   ,-2.5  ,-2.4  ,1.3
837  ,2.469e+03   ,-2.5  ,-2.4  ,1.1
838  ,1.902e+03   ,-2.5  ,-2.4  ,0.9
839  ,3.623e+02   ,-2.5  ,-2.4  ,0.7
840  ,1.055e+03   ,-2.5  ,-2.4  ,0.5
841  ,2.502e+02   ,-2.5  ,-2.4  ,0.3
842  ,5.928e+06   ,-2.5  ,2.2  ,4.9
843  ,2.241e+06   ,-2.5  ,2  ,4.9
844  ,2.651e+06   ,-2.5  ,1.8  ,4.9
845  ,2.520e+06   ,-2.5  ,1.6  ,4.9
846  ,1.097e+06   ,-2.5  ,1.4  ,4.9
847  ,3.816e+06   ,-2.5  ,1.2  ,4.9
848  ,6.711e+06   ,-2.5  ,1  ,4.9
849  ,6.553e+06   ,-2.5  ,0.8  ,4.9
850  ,7.094e+06   ,-2.5  ,0.6  ,4.9
851  ,5.772e+06   ,-2.5  ,0.4  ,4.9
852  ,5.188e+06   ,-2.5  ,0.2  ,4.9
853  ,5.190e+06   ,-2.5  ,5.8879E-16  ,4.9
854  ,3.987e+06   ,-2.5  ,-0.2  ,4.9
855  ,3.671e+06   ,-2.5  ,-0.4  ,4.9
856  ,3.383e+06   ,-2.5  ,-0.6  ,4.9
857  ,3.108e+06   ,-2.5  ,-0.8  ,4.9
858  ,1.804e+06   ,-2.5  ,-1  ,4.9
859  ,2.479e+06   ,-2.5  ,-1.2  ,4.9
860  ,1.684e+06   ,-2.5  ,-1.4  ,4.9
861  ,6.313e+05   ,-2.5  ,-1.6  ,4.9
862  ,1.211e+06   ,-2.5  ,-1.8  ,4.9
863  ,2.502e+05   ,-2.5  ,-2  ,4.9
864  ,2.419e+05   ,-2.5  ,-2.2  ,4.9
865  ,4.450e+06   ,-2.5  ,2.4  ,4.7
866  ,2.310e+06   ,-2.5  ,2.4  ,4.5
867  ,4.270e+06   ,-2.5  ,2.4  ,4.3
868  ,6.518e+06   ,-2.5  ,2.4  ,4.1
869  ,5.695e+06   ,-2.5  ,2.4  ,3.9
870  ,4.628e+06   ,-2.5  ,2.4  ,3.7
871  ,4.759e+06   ,-2.5  ,2.4  ,3.5
872  ,9.053e+06   ,-2.5  ,2.4  ,3.3
873  ,1.308e+07   ,-2.5  ,2.4  ,3.1
874  ,1.128e+07   ,-2.5  ,2.4  ,2.9
875  ,8.115e+06   ,-2.5  ,2.4  ,2.7
876  ,4.778e+06   ,-2.5  ,2.4  ,2.5
877  ,3.805e+06   ,-2.5  ,2.4  ,2.3
878  ,3.994e+06   ,-2.5  ,2.4  ,2.1
879  ,2.775e+06   ,-2.5  ,2.4  ,1.9
880  ,2.640e+06   ,-2.5  ,2.4  ,1.7
881  ,3.017e+06   ,-2.5  ,2.4  ,1.5
882  ,2.264e+06   ,-2.5  ,2.4  ,1.3
883  ,2.262e+06   ,-2.5  ,2.4  ,1.1
884  ,2.568e+06   ,-2.5  ,2.4  ,0.9
885  ,2.072e+06   ,-2.5  ,2.4  ,0.7
886  ,1.930e+06   ,-2.5  ,2.4  ,0.5
887  ,1.893e+06   ,-2.5  ,2.4  ,0.3
1044  ,6.676e+02   ,-2.3  ,-2.5  ,0.44697
1045  ,5.093e+02   ,-2.3  ,-2.5  ,0.68705
1046  ,1.161e+03   ,-2.3  ,-2.5  ,0.92554
1047  ,1.958e+03   ,-2.3  ,-2.5  ,1.1682
1048  ,2.108e+03   ,-2.3  ,-2.5  ,1.4148
1049  ,1.191e+03   ,-2.3  ,-2.5  ,1.6581
1050  ,5.379e+02   ,-2.3  ,-2.5  ,1.8967
1051  ,1.061e+03   ,-2.3  ,-2.5  ,2.1357
1052  ,6.496e+02   ,-2.3  ,-2.5  ,2.3794
1053  ,9.067e+02   ,-2.3  ,-2.5  ,2.6206
1054  ,1.714e+03   ,-2.3  ,-2.5  ,2.8643
1055  ,3.149e+03   ,-2.3  ,-2.5  ,3.1033
1056  ,4.966e+03   ,-2.3  ,-2.5  ,3.342
1057  ,1.139e+04   ,-2.3  ,-2.5  ,3.5852
1058  ,1.468e+04   ,-2.3  ,-2.5  ,3.8318
1059  ,5.661e+03   ,-2.3  ,-2.5  ,4.0745
1060  ,2.824e+04   ,-2.3  ,-2.5  ,4.3129
1061  ,3.180e+04   ,-2.3  ,-2.5  ,4.553
1062  ,1.199e+05   ,-2.053  ,-2.5  ,4.8
1063  ,2.314e+05   ,-1.8129  ,-2.5  ,4.8
1064  ,2.212e+05   ,-1.5745  ,-2.5  ,4.8
1065  ,3.937e+05   ,-1.3318  ,-2.5  ,4.8
1066  ,3.872e+05   ,-1.0852  ,-2.5  ,4.8
1067  ,3.502e+05   ,-0.84195  ,-2.5  ,4.8
1068  ,1.316e+06   ,-0.60329  ,-2.5  ,4.8
1069  ,1.150e+06   ,-0.3643  ,-2.5  ,4.8
1070  ,6.463e+05   ,-0.12055  ,-2.5  ,4.8
1071  ,8.456e+05   ,0.12056  ,-2.5  ,4.8
1072  ,4.308e+05   ,0.3643  ,-2.5  ,4.8
1073  ,9.815e+05   ,0.6033  ,-2.5  ,4.8
1074  ,2.205e+06   ,0.84195  ,-2.5  ,4.8
1075  ,3.135e+06   ,1.0852  ,-2.5  ,4.8
1076  ,2.783e+06   ,1.3318  ,-2.5  ,4.8
1077  ,1.743e+06   ,1.5745  ,-2.5  ,4.8
1078  ,9.461e+05   ,1.8129  ,-2.5  ,4.8
1079  ,2.457e+06   ,2.053  ,-2.5  ,4.8
1080  ,2.038e+06   ,2.3  ,-2.5  ,4.553
1081  ,2.596e+06   ,2.3  ,-2.5  ,4.3129
1082  ,3.947e+06   ,2.3  ,-2.5  ,4.0745
1083  ,4.675e+06   ,2.3  ,-2.5  ,3.8318
1084  ,3.886e+06   ,2.3  ,-2.5  ,3.5852
1085  ,2.213e+06   ,2.3  ,-2.5  ,3.3419
1086  ,7.754e+05   ,2.3  ,-2.5  ,3.1033
1087  ,2.848e+05   ,2.3  ,-2.5  ,2.8643
1088  ,5.866e+05   ,2.3  ,-2.5  ,2.6206
1089  ,8.188e+05   ,2.3  ,-2.5  ,2.3794
1090  ,1.409e+06   ,2.3  ,-2.5  ,2.1357
1091  ,4.524e+05   ,2.3  ,-2.5  ,1.8967
1092  ,5.041e+05   ,2.3  ,-2.5  ,1.658
1093  ,6.056e+05   ,2.3  ,-2.5  ,1.4148
1094  ,4.408e+05   ,2.3  ,-2.5  ,1.1682
1095  ,2.731e+05   ,2.3  ,-2.5  ,0.92554
1096  ,6.762e+04   ,2.3  ,-2.5  ,0.68705
1097  ,7.317e+04   ,2.3  ,-2.5  ,0.44697
1098  ,4.807e+02   ,-2.053  ,-2.5  ,0.2
1099  ,5.634e+02   ,-1.8129  ,-2.5  ,0.2
1100  ,1.259e+03   ,-1.5745  ,-2.5  ,0.2
1101  ,7.626e+03   ,-1.3318  ,-2.5  ,0.2
1102  ,6.284e+03   ,-1.0852  ,-2.5  ,0.2
1103  ,1.824e+04   ,-0.84195  ,-2.5  ,0.2
1104  ,3.310e+04   ,-0.60329  ,-2.5  ,0.2
1105  ,1.008e+04   ,-0.3643  ,-2.5  ,0.2
1106  ,1.406e+04   ,-0.12055  ,-2.5  ,0.2
1107  ,1.505e+04   ,0.12056  ,-2.5  ,0.2
1108  ,7.590e+03   ,0.3643  ,-2.5  ,0.2
1109  ,1.540e+04   ,0.6033  ,-2.5  ,0.2
1110  ,1.492e+04   ,0.84195  ,-2.5  ,0.2
1111  ,3.092e+04   ,1.0852  ,-2.5  ,0.2
1112  ,1.374e+04   ,1.3318  ,-2.5  ,0.2
1113  ,2.372e+04   ,1.5745  ,-2.5  ,0.2
1114  ,7.356e+04   ,1.8129  ,-2.5  ,0.2
1115  ,3.638e+04   ,2.053  ,-2.5  ,0.2
1116  ,7.204e+04   ,-2.2  ,-2.5  ,4.9
1117  ,2.248e+05   ,-2  ,-2.5  ,4.9
1118  ,1.983e+05   ,-1.8  ,-2.5  ,4.9
1119  ,2.971e+05   ,-1.6  ,-2.5  ,4.9
1120  ,3.965e+05   ,-1.4  ,-2.5  ,4.9
1121  ,3.578e+05   ,-1.2  ,-2.5  ,4.9
1122  ,2.175e+05   ,-1  ,-2.5  ,4.9
1123  ,1.005e+06   ,-0.8  ,-2.5  ,4.9
1124  ,1.416e+06   ,-0.6  ,-2.5  ,4.9
1125  ,8.820e+05   ,-0.4  ,-2.5  ,4.9
1126  ,4.540e+05   ,-0.2  ,-2.5  ,4.9
1127  ,6.345e+05   ,-1.7664E-15  ,-2.5  ,4.9
1128  ,8.745e+05   ,0.2  ,-2.5  ,4.9
1129  ,7.258e+05   ,0.4  ,-2.5  ,4.9
1130  ,1.387e+06   ,0.6  ,-2.5  ,4.9
1131  ,2.532e+06   ,0.8  ,-2.5  ,4.9
1132  ,3.052e+06   ,1  ,-2.5  ,4.9
1133  ,3.054e+06   ,1.2  ,-2.5  ,4.9
1134  ,1.248e+06   ,1.4  ,-2.5  ,4.9
1135  ,1.174e+06   ,1.6  ,-2.5  ,4.9
1136  ,1.510e+06   ,1.8  ,-2.5  ,4.9
1137  ,2.418e+06   ,2  ,-2.5  ,4.9
1138  ,2.117e+06   ,2.2  ,-2.5  ,4.9
1139  ,5.199e+04   ,-2.4  ,-2.5  ,4.7
1140  ,3.069e+04   ,-2.4  ,-2.5  ,4.5
1141  ,3.391e+04   ,-2.4  ,-2.5  ,4.3
1142  ,2.541e+04   ,-2.4  ,-2.5  ,4.1
1143  ,9.108e+03   ,-2.4  ,-2.5  ,3.9
1144  ,9.199e+03   ,-2.4  ,-2.5  ,3.7
1145  ,8.227e+03   ,-2.4  ,-2.5  ,3.5
1146  ,3.261e+03   ,-2.4  ,-2.5  ,3.3
1147  ,3.210e+03   ,-2.4  ,-2.5  ,3.1
1148  ,1.467e+03   ,-2.4  ,-2.5  ,2.9
1149  ,2.067e+03   ,-2.4  ,-2.5  ,2.7
1150  ,1.218e+03   ,-2.4  ,-2.5  ,2.5
1151  ,1.375e+03   ,-2.4  ,-2.5  ,2.3
1152  ,1.568e+03   ,-2.4  ,-2.5  ,2.1
1153  ,1.236e+03   ,-2.4  ,-2.5  ,1.9
1154  ,7.895e+02   ,-2.4  ,-2.5  ,1.7
1155  ,6.438e+02   ,-2.4  ,-2.5  ,1.5
1156  ,1.735e+03   ,-2.4  ,-2.5  ,1.3
1157  ,1.712e+03   ,-2.4  ,-2.5  ,1.1
1158  ,1.007e+03   ,-2.4  ,-2.5  ,0.9
1159  ,4.941e+02   ,-2.4  ,-2.5  ,0.7
1160  ,7.911e+02   ,-2.4  ,-2.5  ,0.5
1161  ,4.093e+02   ,-2.4  ,-2.5  ,0.3
1162  ,2.601e+02   ,-2.2  ,-2.5  ,0.1
1163  ,2.374e+02   ,-2  ,-2.5  ,0.1
1164  ,3.939e+02   ,-1.8  ,-2.5  ,0.1
1165  ,1.334e+03   ,-1.6  ,-2.5  ,0.1
1166  ,4.143e+03   ,-1.4  ,-2.5  ,0.1
1167  ,4.377e+03   ,-1.2  ,-2.5  ,0.1
1168  ,1.068e+04   ,-1  ,-2.5  ,0.1
1169  ,2.357e+04   ,-0.8  ,-2.5  ,0.1
1170  ,1.805e+04   ,-0.6  ,-2.5  ,0.1
1171  ,5.826e+03   ,-0.4  ,-2.5  ,0.1
1172  ,2.780e+04   ,-0.2  ,-2.5  ,0.1
1173  ,2.826e+04   ,-1.7664E-15  ,-2.5  ,0.1
1174  ,2.118e+04   ,0.2  ,-2.5  ,0.1
1175  ,9.464e+03   ,0.4  ,-2.5  ,0.1
1176  ,1.098e+04   ,0.6  ,-2.5  ,0.1
1177  ,1.312e+04   ,0.8  ,-2.5  ,0.1
1178  ,2.014e+04   ,1  ,-2.5  ,0.1
1179  ,1.393e+04   ,1.2  ,-2.5  ,0.1
1180  ,3.814e+04   ,1.4  ,-2.5  ,0.1
1181  ,5.472e+04   ,1.6  ,-2.5  ,0.1
1182  ,5.182e+04   ,1.8  ,-2.5  ,0.1
1183  ,3.587e+04   ,2  ,-2.5  ,0.1
1184  ,3.383e+04   ,2.2  ,-2.5  ,0.1
1185  ,1.237e+06   ,2.4  ,-2.5  ,4.7
1186  ,1.251e+06   ,2.4  ,-2.5  ,4.5
1187  ,1.134e+06   ,2.4  ,-2.5  ,4.3
1188  ,2.851e+06   ,2.4  ,-2.5  ,4.1
1189  ,4.617e+06   ,2.4  ,-2.5  ,3.9
1190  ,5.165e+06   ,2.4  ,-2.5  ,3.7
1191  ,4.278e+06   ,2.4  ,-2.5  ,3.5
1192  ,3.058e+06   ,2.4  ,-2.5  ,3.3
1193  ,1.428e+06   ,2.4  ,-2.5  ,3.1
1194  ,9.848e+05   ,2.4  ,-2.5  ,2.9
1195  ,9.755e+05   ,2.4  ,-2.5  ,2.7
1196  ,3.259e+05   ,2.4  ,-2.5  ,2.5
1197  ,6.678e+05   ,2.4  ,-2.5  ,2.3
1198  ,1.000e+06   ,2.4  ,-2.5  ,2.1
1199  ,1.073e+06   ,2.4  ,-2.5  ,1.9
1200  ,2.636e+05   ,2.4  ,-2.5  ,1.7
1201  ,5.257e+05   ,2.4  ,-2.5  ,1.5
1202  ,5.842e+05   ,2.4  ,-2.5  ,1.3
1203  ,5.079e+05   ,2.4  ,-2.5  ,1.1
1204  ,3.192e+05   ,2.4  ,-2.5  ,0.9
1205  ,1.707e+05   ,2.4  ,-2.5  ,0.7
1206  ,8.810e+04   ,2.4  ,-2.5  ,0.5
1207  ,6.511e+04   ,2.4  ,-2.5  ,0.3
1208  ,1.416e+05   ,2.4  ,-2.2  ,0
1209  ,1.570e+05   ,2.4  ,-2  ,0
1210  ,8.416e+05   ,2.4  ,-1.8  ,0
1211  ,8.574e+05   ,2.4  ,-1.6  ,0
1212  ,2.425e+06   ,2.4  ,-1.4  ,0
1213  ,2.392e+06   ,2.4  ,-1.2  ,0
1214  ,3.739e+06   ,2.4  ,-1  ,0
1215  ,4.652e+06   ,2.4  ,-0.8  ,0
1216  ,2.793e+06   ,2.4  ,-0.6  ,0
1217  ,2.294e+06   ,2.4  ,-0.4  ,0
1218  ,3.585e+06   ,2.4  ,-0.2  ,0
1219  ,4.720e+06   ,2.4  ,-1.7664E-15  ,0
1220  ,6.400e+06   ,2.4  ,0.2  ,0
1221  ,9.476e+06   ,2.4  ,0.4  ,0
1222  ,1.199e+07   ,2.4  ,0.6  ,0
1223  ,1.105e+07   ,2.4  ,0.8  ,0
1224  ,5.744e+06   ,2.4  ,1  ,0
1225  ,6.158e+06   ,2.4  ,1.2  ,0
1226  ,5.802e+06   ,2.4  ,1.4  ,0
1227  ,5.979e+06   ,2.4  ,1.6  ,0
1228  ,4.298e+06   ,2.4  ,1.8  ,0
1229  ,4.012e+06   ,2.4  ,2  ,0
1230  ,7.819e+06   ,2.4  ,2.2  ,0
1231  ,1.027e+02   ,-2.2  ,-2.4  ,0
1232  ,2.240e+02   ,-2  ,-2.4  ,0
1233  ,4.546e+02   ,-1.8  ,-2.4  ,0
1234  ,2.205e+03   ,-1.6  ,-2.4  ,0
1235  ,3.987e+03   ,-1.4  ,-2.4  ,0
1236  ,6.799e+03   ,-1.2  ,-2.4  ,0
1237  ,2.385e+04   ,-1  ,-2.4  ,0
1238  ,3.484e+04   ,-0.8  ,-2.4  ,0
1239  ,2.431e+04   ,-0.6  ,-2.4  ,0
1240  ,1.666e+04   ,-0.4  ,-2.4  ,0
1241  ,3.529e+04   ,-0.2  ,-2.4  ,0
1242  ,4.578e+04   ,5.8879E-16  ,-2.4  ,0
1243  ,3.237e+04   ,0.2  ,-2.4  ,0
1244  ,1.357e+04   ,0.4  ,-2.4  ,0
1245  ,2.209e+04   ,0.6  ,-2.4  ,0
1246  ,1.953e+04   ,0.8  ,-2.4  ,0
1247  ,1.737e+04   ,1  ,-2.4  ,0
1248  ,2.925e+04   ,1.2  ,-2.4  ,0
1249  ,6.672e+04   ,1.4  ,-2.4  ,0
1250  ,8.873e+04   ,1.6  ,-2.4  ,0
1251  ,9.570e+04   ,1.8  ,-2.4  ,0
1252  ,6.803e+04   ,2  ,-2.4  ,0
1253  ,4.871e+04   ,2.2  ,-2.4  ,0
1254  ,1.447e+06   ,-2.4  ,2.2  ,0
1255  ,8.637e+05   ,-2.4  ,2  ,0
1256  ,9.797e+05   ,-2.4  ,1.8  ,0
1257  ,7.873e+05   ,-2.4  ,1.6  ,0
1258  ,4.053e+05   ,-2.4  ,1.4  ,0
1259  ,7.183e+05   ,-2.4  ,1.2  ,0
1260  ,1.070e+06   ,-2.4  ,1  ,0
1261  ,4.926e+05   ,-2.4  ,0.8  ,0
1262  ,3.047e+05   ,-2.4  ,0.6  ,0
1263  ,2.540e+05   ,-2.4  ,0.4  ,0
1264  ,2.104e+05   ,-2.4  ,0.2  ,0
1265  ,2.009e+05   ,-2.4  ,5.8879E-16  ,0
1266  ,2.615e+05   ,-2.4  ,-0.2  ,0
1267  ,1.973e+05   ,-2.4  ,-0.4  ,0
1268  ,1.208e+05   ,-2.4  ,-0.6  ,0
1269  ,9.630e+04   ,-2.4  ,-0.8  ,0
1270  ,4.384e+04   ,-2.4  ,-1  ,0
1271  ,7.290e+04   ,-2.4  ,-1.2  ,0
1272  ,7.363e+03   ,-2.4  ,-1.4  ,0
1273  ,1.513e+04   ,-2.4  ,-1.6  ,0
1274  ,6.577e+03   ,-2.4  ,-1.8  ,0
1275  ,3.263e+03   ,-2.4  ,-2  ,0
1276  ,1.224e+03   ,-2.4  ,-2.2  ,0
1277  ,5.878e+06   ,2.2  ,2.4  ,0
1278  ,4.471e+06   ,2  ,2.4  ,0
1279  ,6.348e+06   ,1.8  ,2.4  ,0
1280  ,7.490e+06   ,1.6  ,2.4  ,0
1281  ,5.903e+06   ,1.4  ,2.4  ,0
1282  ,6.336e+06   ,1.2  ,2.4  ,0
1283  ,6.249e+06   ,1  ,2.4  ,0
1284  ,9.656e+06   ,0.8  ,2.4  ,0
1285  ,1.497e+07   ,0.6  ,2.4  ,0
1286  ,9.491e+06   ,0.4  ,2.4  ,0
1287  ,4.676e+06   ,0.2  ,2.4  ,0
1288  ,1.489e+06   ,5.8879E-16  ,2.4  ,0
1289  ,2.266e+06   ,-0.2  ,2.4  ,0
1290  ,5.553e+06   ,-0.4  ,2.4  ,0
1291  ,4.777e+06   ,-0.6  ,2.4  ,0
1292  ,4.189e+06   ,-0.8  ,2.4  ,0
1293  ,3.485e+06   ,-1  ,2.4  ,0
1294  ,2.618e+06   ,-1.2  ,2.4  ,0
1295  ,2.057e+06   ,-1.4  ,2.4  ,0
1296  ,1.726e+06   ,-1.6  ,2.4  ,0
1297  ,1.665e+06   ,-1.8  ,2.4  ,0
1298  ,1.549e+06   ,-2  ,2.4  ,0
1299  ,1.873e+06   ,-2.2  ,2.4  ,0
1460  ,4.340e+09   ,2.3243  ,2.3243  ,4.9577
1461  ,4.218e+09   ,2.4577  ,2.3243  ,4.8243
1462  ,3.491e+09   ,2.3243  ,2.4577  ,4.8243
1463  ,2.554e+05   ,-2.3  ,-2.1759  ,4.8
1464  ,5.651e+05   ,-2.3  ,-1.7631  ,4.8
1465  ,1.557e+06   ,-2.3  ,-1.1827  ,4.8
1466  ,5.467e+06   ,-2.3  ,-0.34986  ,4.8
1467  ,5.572e+06   ,-2.3  ,0.80545  ,4.8
1468  ,1.506e+08   ,-0.81337  ,2.3  ,4.8
1469  ,4.490e+08   ,0.67326  ,2.3  ,4.8
1470  ,4.845e+06   ,2.3  ,-2.1824  ,4.8
1471  ,4.641e+06   ,2.3  ,-1.7784  ,4.8
1472  ,3.037e+07   ,2.3  ,-1.2138  ,4.8
1473  ,2.717e+08   ,2.3  ,-0.40752  ,4.8
1474  ,4.665e+08   ,2.3  ,0.70532  ,4.8
1516  ,1.454e+08   ,2.3  ,2.3  ,1.6866
1517  ,4.558e+08   ,2.3  ,2.3  ,3.1733
1518  ,1.607e+05   ,2.3  ,-2.1759  ,0.2
1519  ,4.296e+05   ,2.3  ,-1.7631  ,0.2
1520  ,2.246e+06   ,2.3  ,-1.1827  ,0.2
1521  ,6.488e+06   ,2.3  ,-0.34986  ,0.2
1522  ,1.024e+07   ,2.3  ,0.80545  ,0.2
1564  ,5.164e+06   ,-0.76667  ,2.3  ,0.2
1565  ,1.372e+07   ,0.76667  ,2.3  ,0.2
1566  ,2.958e+06   ,-2.3  ,2.3  ,1.7333
1567  ,1.063e+07   ,-2.3  ,2.3  ,3.2667
1574  ,1.222e+03   ,-2.3  ,-2.1759  ,0.2
1575  ,1.276e+04   ,-2.3  ,-1.7631  ,0.2
1576  ,3.457e+04   ,-2.3  ,-1.1827  ,0.2
1577  ,1.096e+05   ,-2.3  ,-0.34986  ,0.2
1578  ,9.704e+05   ,-2.3  ,0.80545  ,0.2
1777  ,3.109e+08   ,-0.52764  ,2.5  ,4.9
1801  ,1.031e+06   ,-2.3  ,1.5527  ,0.2
1825  ,2.058e+06   ,-1.5333  ,2.3  ,0.2
1841  ,3.004e+08   ,0.063638  ,2.5  ,4.9
1876  ,6.244e+06   ,-0.5  ,2.4  ,0
1894  ,1.187e+07   ,2.3  ,1.5527  ,0.2
1907  ,2.612e+06   ,2.1  ,2.5  ,0.1
1928  ,5.246e+06   ,1.9  ,2.4  ,0
1974  ,6.264e+06   ,2.4  ,1.1  ,0
1981  ,1.312e+07   ,2.4  ,2.5  ,0.59273
1987  ,6.355e+06   ,-2.5  ,2.4  ,4
2004  ,4.629e+06   ,-2.4  ,2.5  ,4.6
2009  ,6.273e+06   ,2.4  ,1.3  ,0
2020  ,8.165e+06   ,2.5  ,1.1  ,0.1
2035  ,5.871e+04   ,-2.3  ,-0.76628  ,0.2
2070  ,1.064e+09   ,1.6404  ,2.4  ,5
2081  ,3.035e+08   ,2.4  ,2.5  ,1.9724
2095  ,1.373e+07   ,2.4  ,2.5  ,0.78982
2138  ,2.065e+05   ,-2.4  ,-0.1  ,0
2146  ,8.717e+07   ,-0.92182  ,2.4  ,5
2174  ,1.113e+07   ,2.4  ,2.5  ,1.184
2190  ,5.654e+06   ,2.5  ,2.4  ,0.98691
2203  ,2.670e+08   ,2.5  ,-0.13345  ,4.9
2232  ,3.601e+08   ,2.3  ,0.1489  ,4.8
2242  ,9.140e+07   ,2.4  ,2.5  ,2.9578
2293  ,1.946e+05   ,-2.5  ,0.5  ,0.1
2311  ,3.080e+08   ,2.3  ,2.3  ,2.4299
2313  ,9.632e+06   ,2.5  ,2.4  ,0.78982
2329  ,3.307e+08   ,2.4  ,2.5  ,2.1695
2355  ,4.462e+06   ,-2.4  ,2.5  ,4.4
2380  ,1.920e+04   ,-2.5  ,-1.5  ,0.1
2383  ,8.322e+07   ,0.45782  ,2.5  ,4.9
2408  ,3.153e+07   ,2.3  ,-1.4961  ,4.8
2445  ,5.788e+06   ,2.5  ,-1.5131  ,4.9
2484  ,7.782e+02   ,-2.5  ,-2.4  ,1.6
2495  ,3.043e+06   ,-2.4  ,1.7  ,5
2508  ,7.855e+06   ,2.4  ,0.3  ,0
2514  ,7.388e+06   ,2.3  ,0.2278  ,0.2
2570  ,4.338e+06   ,-2.4  ,1.5  ,5
2580  ,1.074e+09   ,1.6404  ,2.5  ,4.9
2603  ,3.999e+07   ,-1.1189  ,2.5  ,4.9
2695  ,6.035e+06   ,2.3  ,2.3  ,0.94331
2705  ,3.493e+07   ,2.4  ,2.5  ,1.3811
2714  ,9.986e+07   ,2.5  ,0.45782  ,4.9
2734  ,4.369e+06   ,2.4  ,-0.9  ,0
2775  ,3.809e+06   ,2.5  ,-0.1  ,0.1
2779  ,3.655e+06   ,2.4  ,-0.1  ,0
2801  ,1.307e+09   ,1.4166  ,2.3  ,4.8
2814  ,8.232e+08   ,1.4433  ,2.5  ,4.9
2863  ,2.803e+06   ,-2.4  ,2.5  ,0.6
2884  ,1.475e+06   ,-2.4  ,2.5  ,0.8
2886  ,1.692e+06   ,-2.4  ,2.5  ,1.2
2967  ,5.956e+06   ,2.4  ,1.7  ,0
2973  ,4.313e+06   ,2.5  ,1.5  ,0.1
2987  ,6.157e+06   ,-0.3  ,2.5  ,0.1
3008  ,3.716e+06   ,-2.3  ,2.3  ,0.96667
3012  ,6.659e+06   ,-2.5  ,2.4  ,2.6
3021  ,9.579e+06   ,-2.5  ,2.4  ,2.8
3025  ,4.209e+06   ,-2.5  ,2.4  ,2.4
3030  ,5.311e+06   ,-2.4  ,2.5  ,2.4
3033  ,5.019e+06   ,-2.4  ,2.5  ,2.2
3047  ,2.902e+08   ,2.4  ,2.5  ,2.3665
3052  ,3.079e+08   ,2.5  ,2.4  ,2.5636
3061  ,3.001e+08   ,2.4  ,2.5  ,2.5636
3081  ,2.906e+06   ,-2.4  ,1.3  ,5
3088  ,1.327e+07   ,-1.9073  ,2.4  ,5
3099  ,2.227e+06   ,-2.4  ,1.9  ,5
3107  ,9.944e+06   ,-2.4  ,2.5  ,3.8
3139  ,1.298e+07   ,-1.5131  ,2.4  ,5
3145  ,1.337e+07   ,-1.5131  ,2.5  ,4.9
3148  ,3.963e+06   ,-1.7102  ,2.5  ,4.9
3168  ,6.444e+05   ,-2.4  ,1.5  ,0
3188  ,2.212e+03   ,-2.5  ,-2.4  ,1
3202  ,2.807e+08   ,0.26073  ,2.5  ,4.9
3212  ,1.090e+09   ,2.5  ,1.6404  ,4.9
3247  ,1.745e+09   ,2.5  ,1.8375  ,4.9
3265  ,1.388e+09   ,2.3  ,1.4326  ,4.8
3271  ,3.233e+09   ,2.2299  ,2.2299  ,4.8
3284  ,7.193e+08   ,2.4  ,1.4433  ,5
3291  ,7.868e+08   ,2.5  ,1.4433  ,4.9
3296  ,2.185e+06   ,-2.3  ,-0.76628  ,4.8
3303  ,3.368e+06   ,-2.4  ,-0.9  ,5
3311  ,4.176e+06   ,-2.4  ,-0.7  ,5
3315  ,6.313e+06   ,1.9  ,2.5  ,0.1
3336  ,1.985e+05   ,-2.4  ,0.3  ,0
3340  ,8.526e+04   ,-2.5  ,0.1  ,0.1
3344  ,1.893e+05   ,-2.4  ,0.1  ,0
3356  ,4.019e+06   ,-0.3  ,2.4  ,0
3361  ,3.307e+08   ,-0.33054  ,2.5  ,4.9
3364  ,2.862e+08   ,-0.13345  ,2.5  ,4.9
3383  ,2.515e+08   ,2.4  ,2.5  ,3.5491
3402  ,2.397e+09   ,2.4  ,2.5  ,4.5345
3421  ,2.533e+07   ,-1.316  ,2.5  ,4.9
3439  ,8.078e+08   ,2.5  ,2.4  ,3.9433
3447  ,8.026e+08   ,2.4  ,2.5  ,3.9433
3451  ,5.520e+08   ,2.4  ,2.5  ,3.7462
3468  ,8.478e+08   ,1.4433  ,2.4  ,5
3480  ,2.925e+08   ,1.0491  ,2.4  ,5
3519  ,7.233e+06   ,1.5  ,2.4  ,0
3527  ,1.544e+06   ,2.3  ,-1.4729  ,0.2
3550  ,1.713e+06   ,-1.7  ,2.4  ,0
3554  ,1.529e+06   ,-1.7  ,2.5  ,0.1
3558  ,2.123e+06   ,-1.5  ,2.4  ,0
3562  ,2.627e+06   ,-1.5  ,2.5  ,0.1
3574  ,5.731e+06   ,-2.4  ,2.1  ,5
3581  ,7.327e+05   ,-2.5  ,1.7  ,0.1
3583  ,6.434e+05   ,-2.5  ,1.9  ,0.1
3584  ,1.127e+07   ,-1.9073  ,2.5  ,4.9
3591  ,6.864e+06   ,2.5  ,0.3  ,0.1
3595  ,6.439e+06   ,2.5  ,0.1  ,0.1
3603  ,6.116e+09   ,2.4577  ,2.391  ,4.7576
3663  ,1.562e+02   ,-1.933  ,-2.5  ,0.2
3669  ,3.870e+02   ,-2.1765  ,-2.5  ,0.2
3672  ,5.267e+02   ,-2.3  ,-2.3379  ,0.2
3682  ,2.927e+02   ,-1.9  ,-2.4  ,0
3700  ,3.288e+05   ,2.3  ,-2.5  ,2.7424
3712  ,9.538e+04   ,-2.1  ,-2.5  ,4.9
3715  ,2.122e+05   ,-1.9  ,-2.5  ,4.9
3740  ,5.491e+05   ,-1.3  ,-2.4  ,5
3746  ,3.636e+05   ,-1.2085  ,-2.5  ,4.8
3755  ,5.153e+05   ,-1.5  ,-2.4  ,5
3760  ,2.458e+05   ,-1.7  ,-2.5  ,4.9
3786  ,1.081e+08   ,2.4  ,2.5  ,1.5782
3813  ,2.362e+08   ,0.26073  ,2.4  ,5
3858  ,7.885e+05   ,-0.9  ,-2.4  ,5
3863  ,6.174e+06   ,-2.5  ,0.9  ,4.9
3875  ,2.107e+05   ,-1.9  ,-2.4  ,5
3885  ,1.577e+08   ,2.4  ,-0.72473  ,5
3910  ,5.696e+03   ,-2.4  ,-2.5  ,3.4
3959  ,1.144e+09   ,2.5  ,2.4  ,4.1404
3969  ,2.016e+08   ,2.5  ,1.0491  ,4.9
3992  ,6.979e+09   ,2.391  ,2.2576  ,4.9577
3993  ,6.082e+09   ,2.4577  ,2.2576  ,4.891
4016  ,8.738e+06   ,-2.3015  ,2.5  ,4.9
4018  ,4.578e+06   ,-2.4  ,2.5  ,4.8
4021  ,5.198e+08   ,1.2462  ,2.4  ,5
4042  ,2.525e+06   ,2.4  ,-1.1  ,0
4046  ,4.176e+06   ,-0.9  ,2.4  ,0
4055  ,1.260e+06   ,1.7  ,-2.5  ,4.9
4087  ,7.068e+06   ,1.7  ,2.4  ,0
4114  ,3.813e+08   ,2.5  ,-0.33054  ,4.9
4120  ,5.279e+05   ,2.4  ,-2.5  ,1.8
4125  ,8.315e+06   ,2.4  ,2.5  ,0.98691
4144  ,1.684e+09   ,2.4  ,2.5  ,4.3375
4161  ,8.190e+06   ,-2.4  ,0.3  ,5
4201  ,6.565e+04   ,1.933  ,-2.5  ,0.2
4225  ,1.479e+02   ,-2.3  ,-2.4  ,0
4230  ,8.972e+02   ,-2.3  ,-2.5  ,0.56701
4269  ,5.551e+05   ,-0.9  ,-2.5  ,4.9
4277  ,2.502e+05   ,-1.1  ,-2.4  ,5
4288  ,2.993e+08   ,-0.070055  ,2.3  ,4.8
4328  ,4.263e+04   ,-2.5  ,-2.4  ,4.2
4336  ,5.325e+04   ,-2.5  ,-2.4  ,4.4
4342  ,6.254e+04   ,-2.5  ,-2.4  ,4.6
4348  ,4.744e+04   ,-2.4  ,-2.4707  ,4.9707
4352  ,5.413e+04   ,-2.3  ,-2.5  ,4.9
4354  ,1.107e+05   ,-2.1765  ,-2.5  ,4.8
4355  ,9.374e+04   ,-2.3  ,-2.3379  ,4.8
4362  ,1.154e+07   ,2.5  ,2.4  ,0.59273
4364  ,4.883e+05   ,2.5  ,-2.4  ,2.4
4366  ,1.609e+06   ,2.5  ,-2.4  ,2.2
4372  ,1.116e+06   ,2.4  ,-2.5  ,2.2
4385  ,5.877e+03   ,-2.5  ,-1.9  ,0.1
4399  ,1.366e+06   ,-2.5  ,2.1  ,0.1
4407  ,3.068e+04   ,-0.7  ,-2.4  ,0
4436  ,8.161e+04   ,-2.5  ,-0.1  ,0.1
4462  ,1.137e+07   ,-2.3  ,2.3  ,4.0333
4491  ,3.309e+08   ,2.5  ,-0.52764  ,4.9
4494  ,7.249e+05   ,2.5  ,-2.4  ,1.4
4503  ,5.339e+05   ,2.4  ,-2.5  ,1.4
4508  ,5.849e+05   ,2.4  ,-2.5  ,1.2
4515  ,7.267e+05   ,2.5  ,-2.4  ,1.8
4517  ,4.469e+05   ,2.4  ,-2.5  ,1.6
4522  ,2.192e+04   ,0.7  ,-2.4  ,0
4538  ,3.790e+07   ,-1.1189  ,2.4  ,5
4546  ,9.947e+08   ,2.4  ,2.5  ,4.1404
4559  ,9.358e+04   ,1.7  ,-2.4  ,0
4590  ,1.932e+04   ,0.5  ,-2.4  ,0
4631  ,4.824e+05   ,2.4  ,-2.5  ,2.6
4634  ,1.379e+06   ,2.5  ,-2.4  ,2.8
4657  ,2.596e+03   ,-2.5  ,-2.4  ,2
4660  ,1.629e+03   ,-2.5  ,-2.4  ,1.8
4664  ,2.503e+04   ,-0.3  ,-2.4  ,0
4675  ,5.361e+04   ,-2.4  ,-2.5  ,4.8
4681  ,1.642e+05   ,-2.5  ,-0.3  ,0.1
4684  ,2.018e+06   ,1.7  ,-2.4  ,5
4703  ,9.310e+06   ,-2.4  ,0.7  ,5
4707  ,5.135e+06   ,-2.5  ,0.3  ,4.9
4714  ,3.898e+08   ,2.4  ,-0.33054  ,5
4723  ,4.927e+06   ,-1.5567  ,2.3  ,4.8
4739  ,1.376e+07   ,-2.1044  ,2.5  ,4.9
4763  ,1.419e+06   ,-1.9  ,2.4  ,0
4780  ,3.320e+03   ,-2.3  ,-1.9695  ,0.2
4782  ,2.002e+02   ,-2.4707  ,-2.4  ,0.029289
4784  ,6.253e+03   ,-2.4  ,-1.9  ,0
4791  ,1.020e+03   ,-2.4  ,-2.5  ,1.8
4796  ,9.436e+05   ,2.4707  ,-2.4707  ,4.9
4799  ,1.833e+06   ,2.5  ,-2.4  ,4.8
4806  ,1.831e+06   ,2.3  ,-2.5  ,4.9
4809  ,1.374e+09   ,2.3  ,2.3  ,3.9166
4833  ,3.807e+06   ,-2.4  ,2.5  ,0.4
4841  ,5.232e+06   ,-2.4  ,2.5  ,2.6
4846  ,3.023e+06   ,-2.5  ,2.1  ,4.9
4848  ,5.851e+06   ,-2.5  ,2.3  ,4.9
4849  ,5.078e+06   ,-2.5  ,2.4  ,4.8
4893  ,6.189e+06   ,-2.4  ,2.5  ,4.2
4897  ,2.675e+09   ,2.3333  ,2.1998  ,5
4900  ,5.938e+09   ,2.391  ,2.4577  ,4.7576
4908  ,5.864e+09   ,2.2576  ,2.391  ,4.9577
4911  ,5.960e+09   ,2.2576  ,2.4577  ,4.891
4926  ,2.413e+06   ,-2.5  ,2.4  ,1
4932  ,3.199e+06   ,-2.4  ,2.5  ,1.6
4937  ,2.248e+06   ,-1.1  ,2.5  ,0.1
4939  ,3.180e+09   ,2.3  ,2.2299  ,4.7299
4944  ,3.655e+06   ,2.5  ,-1.9073  ,4.9
4987  ,3.371e+06   ,-2.3  ,1.5527  ,4.8
5010  ,3.215e+09   ,2.4973  ,2.1331  ,4.923
5013  ,2.402e+09   ,2.5  ,2.0345  ,4.9
5017  ,2.600e+09   ,2.4  ,2.0345  ,5
5035  ,3.685e+04   ,1.3  ,-2.4  ,0
5038  ,2.097e+04   ,1.2085  ,-2.5  ,0.2
5092  ,1.990e+03   ,-2.4  ,-2.5  ,1.2
5123  ,1.270e+05   ,2.5  ,-2.4  ,0.6
5151  ,6.221e+04   ,-2.5  ,-0.5  ,0.1
5160  ,7.718e+04   ,-2.5  ,-0.7  ,0.1
5164  ,8.210e+06   ,-2.4  ,0.9  ,5
5168  ,8.108e+06   ,-2.4  ,0.5  ,5
5176  ,4.787e+06   ,2.5  ,-0.7  ,0.1
5179  ,2.485e+06   ,2.4  ,-0.5  ,0
5189  ,5.871e+05   ,2.4  ,-2.5  ,2.4
5194  ,1.303e+06   ,2.3  ,-2.5  ,2.2576
5198  ,4.968e+02   ,-2.3  ,-2.5  ,0.32348
5205  ,3.823e+02   ,-2.4  ,-2.5  ,0.2
5207  ,2.738e+02   ,-2.1  ,-2.5  ,0.1
5246  ,1.086e+07   ,-2.5  ,2.4  ,3.2
5257  ,1.366e+06   ,-2.5  ,1.5  ,4.9
5263  ,3.012e+05   ,-2.3  ,0.2278  ,0.2
5272  ,1.230e+05   ,-2.5  ,0.3  ,0.1
5275  ,6.339e+06   ,-2.5  ,0.5  ,4.9
5281  ,1.370e+09   ,1.8375  ,2.5  ,4.9
5297  ,3.011e+06   ,-0.9  ,2.5  ,0.1
5306  ,3.324e+06   ,-0.7  ,2.4  ,0
5309  ,7.370e+06   ,-0.5  ,2.5  ,0.1
5324  ,2.501e+08   ,2.4  ,2.5  ,2.7607
5332  ,4.454e+05   ,2.5  ,-2.4  ,0.8
5334  ,4.566e+05   ,2.4  ,-2.5  ,1
5360  ,1.070e+07   ,2.4  ,-1.7102  ,5
5362  ,9.969e+06   ,2.4  ,-1.5131  ,5
5368  ,1.560e+09   ,2.4  ,1.8375  ,5
5371  ,9.906e+09   ,2.4325  ,2.4888  ,4.6656
5372  ,2.574e+09   ,2.3333  ,2.5  ,4.6998
5376  ,2.131e+09   ,2.4707  ,2.4707  ,4.6331
5377  ,2.570e+09   ,2.5  ,2.4  ,4.5345
5379  ,3.992e+05   ,-1.5  ,-2.5  ,4.9
5406  ,7.507e+03   ,-2.5  ,-2.4  ,3.4
5420  ,4.571e+03   ,-2.3  ,-2.5  ,3.2226
5423  ,7.194e+04   ,1.5  ,-2.4  ,0
5502  ,5.935e+02   ,-2.5  ,-2.3  ,0.1
5504  ,2.286e+02   ,-2.5  ,-2.4  ,0.2
5506  ,6.908e+02   ,-2.4  ,-2.3  ,0
5511  ,1.011e+03   ,-2.5  ,-2.1  ,0.1
5513  ,2.568e+05   ,-2.4  ,0.5  ,0
5517  ,1.606e+04   ,-0.9  ,-2.5  ,0.1
5532  ,2.906e+06   ,-2.4707  ,2.4707  ,4.9
5534  ,3.296e+06   ,2.4  ,-0.7  ,0
5551  ,6.078e+06   ,2.5  ,-2.4  ,3.8
5566  ,3.143e+07   ,2.5  ,2.4  ,1.3811
5603  ,2.422e+06   ,2.4  ,-0.3  ,0
5617  ,3.221e+06   ,-2.1  ,2.5  ,0.1
5637  ,5.393e+05   ,-2.3  ,-1.9695  ,4.8
5641  ,3.258e+06   ,2.3  ,-2.5  ,3.4636
5645  ,1.462e+03   ,-2.4  ,-2.5  ,2
5649  ,1.707e+03   ,-2.4  ,-2.5  ,2.2
5659  ,5.067e+02   ,-2.3  ,-2.5  ,1.7774
5662  ,2.289e+06   ,2.1765  ,-2.5  ,4.8
5666  ,9.853e+05   ,2.4  ,-2.5  ,4.8
5669  ,3.152e+06   ,2.3  ,-2.3412  ,4.8
5695  ,3.253e+05   ,-2.4  ,0.7  ,0
5701  ,3.352e+06   ,-2.5  ,2.4  ,1.6
5715  ,2.203e+06   ,-2.4  ,2.5  ,1.8
5726  ,4.556e+06   ,-0.7  ,2.5  ,0.1
5727  ,3.205e+06   ,-1.1  ,2.4  ,0
5730  ,4.416e+05   ,2.3  ,-2.5  ,1.7774
5746  ,2.053e+08   ,2.5  ,2.4  ,1.7753
5755  ,6.093e+05   ,2.5  ,-2.4  ,4.4
5763  ,6.413e+05   ,2.4  ,-2.5  ,4.4
5773  ,2.846e+08   ,1.0491  ,2.5  ,4.9
5791  ,1.861e+08   ,-0.72473  ,2.4  ,5
5795  ,1.394e+09   ,1.8375  ,2.4  ,5
5803  ,1.036e+06   ,-0.3  ,-2.4  ,5
5810  ,1.091e+09   ,2.4  ,1.6404  ,5
5836  ,2.526e+06   ,-2.5  ,1.3  ,4.9
5860  ,4.626e+05   ,2.5  ,-2.4  ,1.6
5866  ,4.856e+04   ,1.5  ,-2.5  ,0.1
5884  ,2.991e+06   ,-2.4  ,-0.3  ,5
5888  ,3.310e+06   ,-2.5  ,-0.5  ,4.9
5901  ,5.588e+05   ,2.3  ,-2.5  ,2.5
5908  ,8.160e+05   ,2.5  ,-2.4  ,1.2
5909  ,2.033e+06   ,2.5  ,-2.4  ,2
5934  ,2.212e+06   ,1.9  ,-2.5  ,4.9
5938  ,1.873e+06   ,1.933  ,-2.5  ,4.8
5948  ,1.801e+04   ,-2.4  ,-2.5  ,4.6
5950  ,5.880e+04   ,-2.4707  ,-2.4707  ,4.9
5951  ,5.095e+04   ,-2.5  ,-2.4  ,4.8
5952  ,7.914e+04   ,-2.5  ,-2.3  ,4.9
5986  ,3.307e+06   ,2.3  ,-2.5  ,3.7085
5990  ,8.576e+07   ,-0.92182  ,2.5  ,4.9
6019  ,2.640e+06   ,2.5  ,1.9  ,0.1
6025  ,2.792e+06   ,2.4  ,-1.3  ,0
6035  ,1.999e+06   ,-2.5  ,1.9  ,4.9
6044  ,6.923e+06   ,0.1  ,2.5  ,0.1
6054  ,5.415e+06   ,2.4  ,0.1  ,0
6070  ,1.603e+06   ,-2.4  ,2.3  ,0
6071  ,2.133e+06   ,-2.3  ,2.4  ,0
6076  ,9.835e+05   ,-2.4  ,2.1  ,0
6083  ,4.676e+04   ,2.1  ,-2.4  ,0
6084  ,5.973e+06   ,2.4  ,2.3  ,0
6087  ,5.062e+06   ,2.3  ,2.4  ,0
6092  ,2.628e+02   ,-2.4  ,-2.5  ,0.4
6096  ,2.285e+02   ,-2.3  ,-2.5  ,0.1
6099  ,1.211e+04   ,0.7  ,-2.5  ,0.1
6149  ,5.686e+04   ,-2.4  ,-0.9  ,0
6159  ,1.835e+03   ,-2.5  ,-2.4  ,2.6
6183  ,4.997e+08   ,1.2462  ,2.5  ,4.9
6224  ,5.430e+06   ,2.5  ,-2.4  ,4
6228  ,4.870e+06   ,2.4  ,-2.5  ,3.8
6237  ,9.804e+06   ,2.5  ,0.7  ,0.1
6241  ,2.454e+09   ,2.5  ,2.3333  ,4.6998
6245  ,9.915e+07   ,2.5  ,2.4  ,1.5782
6259  ,6.428e+06   ,2.5  ,-2.1044  ,4.9
6265  ,8.225e+06   ,2.3  ,-1.9804  ,4.8
6267  ,3.923e+06   ,2.5  ,-2.3015  ,4.9
6268  ,1.847e+06   ,2.4707  ,-2.4  ,4.9707
6270  ,6.357e+06   ,2.4  ,-2.1044  ,5
6317  ,6.530e+06   ,-2.3  ,0.2278  ,4.8
6349  ,3.005e+08   ,-0.52764  ,2.4  ,5
6391  ,2.012e+08   ,2.4  ,2.5  ,1.7753
6440  ,5.775e+06   ,-2.5  ,2.4  ,3.8
6471  ,7.713e+07   ,2.5  ,-0.92182  ,4.9
6489  ,5.146e+08   ,2.5  ,1.2462  ,4.9
6523  ,1.088e+04   ,-1.1  ,-2.4  ,0
6528  ,5.175e+03   ,-1.1  ,-2.5  ,0.1
6535  ,2.645e+04   ,-0.9  ,-2.4  ,0
6538  ,1.029e+06   ,1.5  ,-2.4  ,5
6541  ,1.364e+06   ,1.5  ,-2.5  ,4.9
6551  ,1.487e+08   ,2.5  ,-0.72473  ,4.9
6564  ,3.077e+09   ,2.1331  ,2.4973  ,4.923
6565  ,2.368e+09   ,2.0345  ,2.5  ,4.9
6572  ,5.332e+05   ,2.4  ,-1.7  ,0
6581  ,7.550e+06   ,0  ,2.3  ,0.2
6592  ,3.584e+05   ,2.3  ,-1.9695  ,0.2
6594  ,6.839e+06   ,0.3  ,2.4  ,0
6601  ,8.571e+06   ,0.5  ,2.5  ,0.1
6605  ,3.350e+04   ,-2.4  ,-1.3  ,0
6606  ,5.400e+04   ,-2.4  ,-1.1  ,0
6615  ,1.889e+05   ,-2.4  ,-0.3  ,0
6634  ,1.910e+06   ,2.1  ,-2.5  ,4.9
6635  ,9.191e+05   ,2.4  ,-2.4707  ,4.9707
6636  ,2.275e+06   ,2.3  ,-2.4  ,5
6647  ,1.225e+04   ,0.5  ,-2.5  ,0.1
6704  ,1.673e+06   ,-2.4707  ,2.4707  ,0.1
6708  ,2.127e+06   ,-2.5  ,2.4  ,0.2
6712  ,8.536e+06   ,-2.4  ,2.5  ,3.6
6715  ,8.269e+06   ,-2.4  ,2.5  ,3.4
6728  ,6.518e+06   ,-2.5  ,0.7  ,4.9
6753  ,1.510e+07   ,-2.1044  ,2.4  ,5
6788  ,1.704e+09   ,2.5  ,2.4  ,4.3375
6791  ,2.187e+05   ,-1.933  ,-2.5  ,4.8
6795  ,2.203e+09   ,2.1998  ,2.5  ,4.8333
6837  ,8.496e+02   ,-2.3  ,-2.5  ,0.8063
6869  ,1.031e+07   ,2.5  ,-1.7102  ,4.9
6873  ,4.633e+06   ,2.4  ,-1.9073  ,5
6880  ,7.883e+07   ,2.4  ,-0.92182  ,5
6885  ,3.351e+08   ,2.4  ,-0.52764  ,5
6893  ,3.925e+08   ,2.4  ,1.2462  ,5
6914  ,1.971e+07   ,0.7  ,2.5  ,0.1
6920  ,6.456e+06   ,0.9  ,2.4  ,0
6923  ,1.276e+07   ,0.7  ,2.4  ,0
6936  ,4.358e+06   ,2.4  ,-2.5  ,3.4
6939  ,9.991e+05   ,2.3  ,-2.5  ,3.2226
6961  ,5.385e+05   ,-0.1  ,-2.5  ,4.9
6967  ,9.362e+05   ,-2.5  ,-1.5  ,4.9
6975  ,3.505e+06   ,-2.4  ,1.1  ,5
6978  ,4.281e+06   ,-2.4  ,2.5  ,0.2
6987  ,3.669e+07   ,2.4  ,-1.316  ,5
6994  ,1.783e+06   ,2.4  ,-1.5  ,0
7004  ,4.673e+06   ,2.4  ,-2.5  ,3.6
7011  ,1.545e+08   ,2.4  ,0.65491  ,5
7016  ,1.159e+08   ,2.4  ,0.45782  ,5
7019  ,3.330e+08   ,2.5  ,2.4  ,2.1695
7021  ,3.094e+08   ,2.5  ,2.4  ,1.9724
7052  ,2.342e+06   ,-1.3  ,2.5  ,0.1
7054  ,6.702e+02   ,-2.4  ,-2.5  ,0.8
7057  ,1.556e+04   ,0.3  ,-2.5  ,0.1
7065  ,1.272e+04   ,0.24243  ,-2.5  ,0.2
7075  ,9.848e+09   ,2.4888  ,2.4325  ,4.6656
7113  ,1.312e+03   ,-2.4  ,-2.5  ,2.6
7121  ,2.206e+03   ,-2.4  ,-2.5  ,2.8
7126  ,2.811e+03   ,-2.5  ,-2.4  ,2.8
7128  ,1.593e+02   ,-2.4707  ,-2.4707  ,0.1
7129  ,1.672e+02   ,-2.4  ,-2.4707  ,0.029289
7141  ,3.508e+05   ,-1.7  ,-2.4  ,5
7145  ,7.028e+06   ,1.1  ,2.4  ,0
7163  ,7.185e+06   ,-1.7102  ,2.4  ,5
7172  ,3.594e+06   ,2.5  ,-2.4  ,3.2
7174  ,5.010e+06   ,-2.5  ,2.4  ,3.6
7183  ,2.441e+05   ,-1.4531  ,-2.5  ,4.8
7204  ,1.577e+08   ,2.3  ,-0.81068  ,4.8
7220  ,2.475e+08   ,2.5  ,0.063638  ,4.9
7227  ,3.097e+05   ,2.5  ,-1.9  ,0.1
7256  ,4.305e+05   ,-0.1  ,-2.4  ,5
7280  ,3.230e+08   ,-0.33054  ,2.4  ,5
7299  ,5.335e+07   ,2.5  ,-1.1189  ,4.9
7316  ,1.035e+03   ,-2.5  ,-2.4  ,0.8
7323  ,1.599e+03   ,-2.4  ,-2.5  ,1
7396  ,3.858e+06   ,1.1  ,-2.4  ,5
7400  ,2.554e+05   ,-2.5  ,0.7  ,0.1
7409  ,2.870e+06   ,1.3  ,-2.4  ,5
7420  ,2.797e+06   ,2.5  ,2.1  ,0.1
7429  ,3.954e+06   ,2.4  ,1.9  ,0
7436  ,1.378e+06   ,2.5  ,-1.7  ,0.1
7438  ,9.877e+05   ,2.4  ,-2.5  ,2.8
7445  ,9.144e+09   ,2.4325  ,2.1656  ,4.9888
7464  ,9.742e+05   ,2.5  ,-1.5  ,0.1
7480  ,5.826e+04   ,2.5  ,-2.4  ,0.2
7482  ,3.089e+04   ,1.9  ,-2.5  ,0.1
7483  ,5.972e+04   ,1.7  ,-2.5  ,0.1
7486  ,3.280e+06   ,1.9  ,-2.4  ,5
7488  ,9.257e+05   ,1.6937  ,-2.5  ,4.8
7492  ,3.401e+06   ,2.1  ,-2.4  ,5
7495  ,2.649e+04   ,0.1  ,-2.5  ,0.1
7504  ,2.255e+04   ,0.3  ,-2.4  ,0
7507  ,1.261e+04   ,0.9  ,-2.5  ,0.1
7533  ,4.182e+05   ,-2.5  ,0.9  ,0.1
7536  ,3.383e+03   ,-2.4  ,-2.5  ,3.2
7540  ,1.491e+03   ,-2.4  ,-2.5  ,3
7545  ,2.031e+03   ,-2.5  ,-2.4  ,3
7582  ,9.108e+06   ,1.3  ,2.5  ,0.1
7588  ,2.972e+08   ,2.5  ,2.4  ,2.3665
7598  ,5.673e+06   ,-2.5  ,2.4  ,4.2
7607  ,1.492e+07   ,1.5333  ,2.3  ,0.2
7627  ,5.625e+06   ,-2.5  ,1.1  ,4.9
7651  ,6.013e+05   ,2.4  ,-1.9  ,0
7656  ,9.364e+06   ,2.5  ,2.4  ,0.39564
7660  ,3.130e+09   ,2.2299  ,2.3  ,4.7299
7668  ,2.582e+06   ,1.4531  ,-2.5  ,4.8
7676  ,7.237e+05   ,0.1  ,-2.5  ,4.9
7683  ,9.814e+05   ,0.1  ,-2.4  ,5
7686  ,1.898e+06   ,-2.4  ,-1.1  ,5
7702  ,4.180e+04   ,-2.3  ,-2.5  ,4.433
7710  ,3.496e+04   ,-2.3  ,-2.5  ,4.6765
7752  ,4.697e+06   ,0.9  ,-2.4  ,5
7763  ,6.601e+05   ,0.24243  ,-2.5  ,4.8
7767  ,4.212e+03   ,-2.5  ,-2.4  ,3.2
7768  ,8.506e+02   ,-2.4  ,-2.1  ,0
7776  ,6.652e+05   ,-2.4  ,0.9  ,0
7786  ,1.322e+06   ,-0.4838  ,-2.5  ,4.8
7800  ,1.157e+06   ,2.5  ,-2.4  ,4.6
7805  ,2.373e+06   ,-2.5  ,-1.3  ,4.9
7811  ,1.179e+06   ,-2.5  ,-1.1  ,4.9
7820  ,2.675e+05   ,2.5  ,-2.1  ,0.1
7824  ,1.218e+05   ,2.4  ,-2.1  ,0
7828  ,2.231e+06   ,2.4  ,-2.5  ,4.2
7831  ,4.632e+06   ,2.4  ,-2.5  ,4
7838  ,2.173e+06   ,2.5  ,-2.4  ,4.2
7839  ,2.411e+08   ,2.5  ,2.4  ,2.7607
7840  ,9.963e+07   ,2.5  ,2.4  ,2.9578
7863  ,2.268e+04   ,-2.4  ,-1.5  ,0
7890  ,7.474e+06   ,2.4  ,0.9  ,0
7897  ,1.144e+05   ,-2.4  ,-0.7  ,0
7912  ,2.944e+03   ,-1.5  ,-2.4  ,0
7917  ,4.619e+03   ,-1.3  ,-2.5  ,0.1
7931  ,1.153e+07   ,0.5  ,2.4  ,0
7934  ,2.371e+04   ,1.1  ,-2.4  ,0
7937  ,2.961e+05   ,2.4  ,-2.5  ,0.8
7941  ,6.289e+02   ,-2.4  ,-2.5  ,0.6
7969  ,1.722e+06   ,-2.5  ,2.3  ,0.1
7971  ,7.535e+05   ,-2.4  ,1.9  ,0
7972  ,1.000e+06   ,-1.9  ,2.5  ,0.1
7978  ,9.825e+05   ,-2.4  ,1.1  ,0
7996  ,3.173e+06   ,-2.4  ,-0.5  ,5
8000  ,5.703e+02   ,-2.5  ,-2.4  ,0.6
8003  ,5.118e+02   ,-2.5  ,-2.4  ,0.4
8025  ,1.338e+07   ,0.9  ,2.5  ,0.1
8035  ,7.691e+06   ,0.3  ,2.5  ,0.1
8039  ,6.721e+04   ,2.3  ,-2.5  ,0.32348
8041  ,8.478e+04   ,2.3  ,-2.3379  ,0.2
8043  ,2.962e+04   ,2.1765  ,-2.5  ,0.2
8045  ,3.980e+03   ,-0.96359  ,-2.5  ,0.2
8054  ,6.679e+06   ,1.3  ,2.4  ,0
8058  ,9.362e+06   ,1.1  ,2.5  ,0.1
8062  ,2.716e+06   ,-2.5  ,2.4  ,1.4
8067  ,2.436e+06   ,-2.5  ,2.4  ,0.8
8087  ,5.118e+05   ,-2.5  ,1.5  ,0.1
8132  ,2.956e+08   ,-0.13345  ,2.4  ,5
8183  ,4.080e+06   ,2.5  ,-0.9  ,0.1
8184  ,4.067e+04   ,1.6937  ,-2.5  ,0.2
8214  ,5.320e+04   ,-2.4707  ,-2.4  ,4.9707
8217  ,1.036e+05   ,-2.1  ,-2.4  ,5
8219  ,4.056e+04   ,-2.4  ,-2.5  ,4.4
8227  ,6.390e+07   ,2.5  ,2.4  ,3.1549
8242  ,2.117e+06   ,0.7  ,-2.5  ,4.9
8248  ,6.301e+06   ,2.5  ,-2.4  ,3.6
8254  ,2.716e+06   ,2.5  ,-0.3  ,0.1
8256  ,2.271e+06   ,2.5  ,-0.5  ,0.1
8258  ,7.921e+05   ,-0.3  ,-2.5  ,4.9
8263  ,1.655e+06   ,-0.5  ,-2.5  ,4.9
8268  ,9.286e+03   ,-2.3  ,-2.5  ,3.7085
8277  ,2.955e+04   ,-0.1  ,-2.5  ,0.1
8285  ,3.012e+06   ,1.1  ,-2.5  ,4.9
8307  ,3.166e+06   ,0.1  ,2.4  ,0
8308  ,4.159e+06   ,-0.1  ,2.5  ,0.1
8309  ,2.571e+06   ,-0.1  ,2.4  ,0
8313  ,4.123e+04   ,2.5  ,-2.3  ,0.1
8318  ,1.812e+06   ,2.5  ,-2.4  ,3
8338  ,5.215e+07   ,2.5  ,2.4  ,3.352
8339  ,5.485e+07   ,2.4  ,2.5  ,3.1549
8344  ,6.407e+06   ,-2.5  ,2.4  ,3.4
8357  ,8.660e+09   ,2.4888  ,2.1656  ,4.9325
8358  ,2.256e+09   ,2.5  ,2.1998  ,4.8333
8383  ,7.062e+02   ,-1.7  ,-2.4  ,0
8396  ,1.876e+04   ,1.1  ,-2.5  ,0.1
8399  ,2.366e+09   ,2.4526  ,2.1331  ,4.9851
8405  ,6.436e+05   ,2.5  ,-2.4  ,1
8412  ,1.599e+05   ,2.3  ,-2.5  ,0.8063
8417  ,7.652e+02   ,-2.3  ,-2.5  ,2.5
8434  ,2.517e+06   ,0.9636  ,-2.5  ,4.8
8438  ,2.454e+04   ,-0.3  ,-2.5  ,0.1
8452  ,4.335e+06   ,-2.4  ,-0.1  ,5
8468  ,5.032e+08   ,2.5  ,2.4  ,3.7462
8471  ,4.329e+05   ,-1.3  ,-2.5  ,4.9
8493  ,2.196e+05   ,-1.1  ,-2.5  ,4.9
8509  ,9.828e+03   ,-2.5  ,-1.7  ,0.1
8517  ,7.868e+06   ,-2.4  ,2.5  ,3
8531  ,9.552e+05   ,-2.4  ,1.7  ,0
8556  ,3.261e+08   ,2.5  ,2.4  ,3.5491
8573  ,2.477e+07   ,-1.316  ,2.4  ,5
8576  ,4.698e+05   ,-2.4  ,1.3  ,0
8611  ,4.153e+05   ,2.3  ,-2.5  ,1.2915
8618  ,9.251e+06   ,-2.4  ,2.5  ,4
8646  ,6.777e+05   ,-2.5  ,1.1  ,0.1
8656  ,3.270e+06   ,2.5  ,-1.3  ,0.1
8657  ,5.524e+06   ,2.4  ,2.1  ,0
8673  ,2.166e+06   ,-1.3  ,2.4  ,0
8692  ,1.075e+06   ,0.72263  ,-2.5  ,4.8
8696  ,3.153e+05   ,2.3  ,-2.5  ,1.0469
8706  ,8.821e+07   ,2.5  ,0.65491  ,4.9
8721  ,9.489e+02   ,-2.4  ,-2.5  ,1.6
8725  ,9.711e+07   ,0.65491  ,2.4  ,5
8739  ,9.377e+09   ,2.1656  ,2.4325  ,4.9888
8741  ,2.475e+09   ,2.1998  ,2.3333  ,5
8746  ,2.061e+02   ,-2.1  ,-2.4  ,0
8748  ,2.594e+03   ,-2.5  ,-2.4  ,1.2
8752  ,2.456e+09   ,2.1331  ,2.4526  ,4.9851
8759  ,1.329e+03   ,-2.3  ,-2.5  ,1.0469
8787  ,3.859e+04   ,-0.1  ,-2.4  ,0
8793  ,7.794e+02   ,-2.3  ,-2.5  ,2.2576
8795  ,1.011e+03   ,-2.4  ,-2.5  ,2.4
8798  ,7.069e+03   ,-2.3  ,-2.5  ,4.1937
8808  ,1.331e+04   ,-2.3  ,-2.5  ,3.9531
8814  ,6.278e+05   ,-2.4  ,-1.5  ,5
8849  ,9.738e+05   ,0.4838  ,-2.5  ,4.8
8851  ,2.793e+04   ,-2.4  ,-2.5  ,4.2
8868  ,1.005e+06   ,2.4  ,-2.5  ,3
8874  ,1.314e+08   ,0.852  ,2.4  ,5
8883  ,2.554e+06   ,-0.5  ,-2.4  ,5
8886  ,4.817e+05   ,-0.72262  ,-2.5  ,4.8
8893  ,1.223e+06   ,-0.7  ,-2.5  ,4.9
8897  ,1.405e+04   ,-2.5  ,-2.4  ,3.6
8899  ,6.814e+03   ,-2.3  ,-2.5  ,3.4636
8900  ,2.061e+04   ,-2.3  ,-1.4729  ,0.2
8906  ,3.720e+04   ,-2.5  ,-1.3  ,0.1
8910  ,1.709e+08   ,0.852  ,2.5  ,4.9
8925  ,1.717e+06   ,-2.4  ,2.5  ,1.4
8941  ,5.915e+06   ,2.4707  ,2.4  ,0.029289
8942  ,7.012e+06   ,2.5  ,2.3  ,0.1
8945  ,5.379e+06   ,-2.5  ,0.1  ,4.9
8950  ,6.555e+06   ,2.4707  ,2.4707  ,0.1
8951  ,5.043e+06   ,2.4  ,2.4707  ,0.029289
8959  ,2.305e+08   ,2.4  ,0.26073  ,5
8965  ,8.287e+07   ,0.45782  ,2.4  ,5
8978  ,1.574e+08   ,2.4  ,0.852  ,5
8983  ,2.953e+06   ,2.5  ,-1.1  ,0.1
8991  ,1.715e+06   ,-2.5  ,2.4  ,0.6
9008  ,7.303e+07   ,2.5  ,0.852  ,4.9
9011  ,1.052e+05   ,-2.4  ,-0.5  ,0
9025  ,2.568e+03   ,-1.5  ,-2.5  ,0.1
9038  ,1.274e+06   ,2.4  ,-2.5  ,2
9041  ,1.040e+07   ,2.5  ,0.9  ,0.1
9050  ,7.045e+06   ,2.5  ,0.5  ,0.1
9054  ,1.597e+04   ,0.9  ,-2.4  ,0
9060  ,6.781e+04   ,2.4  ,-2.5  ,0.4
9062  ,9.090e+04   ,2.3  ,-2.5  ,0.56701
9064  ,1.231e+05   ,2.5  ,-2.4  ,0.4
9069  ,8.061e+04   ,2.4  ,-2.5  ,0.6
9071  ,1.581e+04   ,1.4531  ,-2.5  ,0.2
9082  ,1.752e+03   ,-2.3  ,-2.5  ,1.2915
9086  ,1.170e+03   ,-2.4  ,-2.5  ,1.4
9091  ,1.758e+03   ,-2.5  ,-2.4  ,1.4
9094  ,2.304e+06   ,1.3  ,-2.5  ,4.9
9097  ,2.260e+04   ,-0.7  ,-2.5  ,0.1
9137  ,3.256e+06   ,-2.5  ,-0.7  ,4.9
9143  ,3.520e+06   ,-2.5  ,-0.1  ,4.9
9146  ,1.788e+06   ,-2.1  ,2.4  ,0
9148  ,2.815e+06   ,-2.5  ,1.7  ,4.9
9173  ,1.290e+07   ,-2.5  ,2.4  ,3
9192  ,1.838e+06   ,-0.7  ,-2.4  ,5
9195  ,8.767e+03   ,0.72263  ,-2.5  ,0.2
9209  ,5.682e+06   ,2.5  ,-2.4  ,3.4
9215  ,2.120e+04   ,0.9636  ,-2.5  ,0.2
9217  ,2.114e+06   ,2.4  ,-2.5  ,3.2
9218  ,4.332e+05   ,-0.96359  ,-2.5  ,4.8
9229  ,6.286e+06   ,-2.4  ,2.5  ,2.8
9248  ,3.207e+06   ,2.3  ,-2.5  ,4.433
9255  ,5.395e+06   ,2.5  ,1.3  ,0.1
9257  ,5.481e+06   ,2.4  ,1.5  ,0
9262  ,1.635e+06   ,0.5  ,-2.4  ,5
9264  ,2.327e+08   ,2.4  ,-0.13345  ,5
9272  ,3.070e+08   ,0.063638  ,2.4  ,5
9277  ,1.935e+06   ,-2.5  ,2.4  ,1.2
9279  ,2.050e+08   ,2.5  ,0.26073  ,4.9
9282  ,2.394e+06   ,1.2085  ,-2.5  ,4.8
9286  ,3.369e+06   ,0.9  ,-2.5  ,4.9
9292  ,4.790e+06   ,-2.4  ,2.4707  ,4.9707
9293  ,9.407e+06   ,-2.3015  ,2.4  ,5
9296  ,3.246e+05   ,-2.4  ,-2.1  ,5
9303  ,3.467e+05   ,-2.4  ,-1.9  ,5
9311  ,6.140e+06   ,-2.4  ,2.3  ,5
9313  ,8.191e+06   ,-2.4  ,0.1  ,5
9319  ,2.109e+04   ,-0.5  ,-2.4  ,0
9328  ,2.253e+03   ,-2.3  ,-2.5  ,1.5364
9334  ,4.773e+06   ,-2.3  ,2.5  ,0.1
9338  ,1.759e+03   ,-2.5  ,-2.4  ,2.4
9339  ,2.562e+05   ,-2.5  ,1.3  ,0.1
9341  ,9.357e+02   ,-2.3  ,-2.5  ,2.7424
9344  ,2.486e+03   ,-2.5  ,-2.4  ,2.2
9358  ,8.912e+06   ,-2.3  ,2.3  ,2.5
9364  ,3.319e+05   ,-2.5  ,-2.1  ,4.9
9367  ,5.579e+04   ,-2.4  ,-2.3  ,5
9374  ,3.151e+06   ,-2.4  ,-1.3  ,5
9378  ,2.149e+06   ,-2.5  ,2.4  ,1.8
9384  ,6.581e+05   ,2.3  ,-2.5  ,2.0162
9385  ,2.807e+06   ,-2.5  ,2.4  ,4.4
9389  ,3.349e+06   ,-2.5  ,2.4  ,2
9395  ,4.444e+06   ,2.4  ,-2.3015  ,5
9396  ,4.538e+03   ,-2.4  ,-1.7  ,0
9407  ,1.572e+06   ,-2.3  ,-1.4729  ,4.8
9411  ,9.569e+05   ,-2.5  ,-1.7  ,4.9
9423  ,9.414e+03   ,-2.4  ,-2.5  ,3.6
9432  ,3.439e+06   ,0.7  ,-2.4  ,5
9438  ,2.650e+06   ,-2.5  ,-0.9  ,4.9
9443  ,4.445e+06   ,-2.5  ,-0.3  ,4.9
9445  ,3.188e+06   ,-2.4707  ,2.4  ,4.9707
9448  ,4.820e+07   ,2.4  ,-1.1189  ,5
9453  ,1.133e+07   ,2.4  ,0.7  ,0
9455  ,5.123e+05   ,2.5  ,-2.4  ,2.6
9457  ,7.947e+05   ,2.3  ,-2.5  ,2.9838
9494  ,1.397e+06   ,-2.4  ,2.5  ,1
9500  ,7.748e+05   ,0.3  ,-2.5  ,4.9
9504  ,1.098e+06   ,0.3  ,-2.4  ,5
9506  ,2.930e+04   ,2.1  ,-2.5  ,0.1
9518  ,2.419e+02   ,-1.9  ,-2.5  ,0.1
9528  ,1.137e+04   ,2.3  ,-2.5  ,0.1
9531  ,2.991e+04   ,2.4707  ,-2.4707  ,0.1
9533  ,3.239e+04   ,2.4707  ,-2.4  ,0.029289
9534  ,2.173e+04   ,2.4  ,-2.4707  ,0.029289
9541  ,8.782e+05   ,0.5  ,-2.5  ,4.9
9544  ,1.481e+04   ,-0.5  ,-2.5  ,0.1
9559  ,6.616e+05   ,-2.5  ,-1.9  ,4.9
9562  ,1.947e+06   ,-2.5  ,2.4  ,4.6
9565  ,3.916e+06   ,-2.4  ,2.5  ,2
9571  ,1.281e+04   ,-2.5  ,-2.4  ,3.8
9574  ,7.963e+03   ,-2.4  ,-2.5  ,3.8
9577  ,1.894e+04   ,1.3  ,-2.5  ,0.1
9582  ,7.127e+04   ,-2.5  ,-0.9  ,0.1
9596  ,4.059e+06   ,2.1  ,2.4  ,0
9598  ,9.948e+06   ,-2.4  ,2.5  ,3.2
9602  ,8.275e+06   ,1.5  ,2.5  ,0.1
9610  ,1.111e+07   ,2.4  ,2.5  ,0.39564
9612  ,1.752e+08   ,-0.72473  ,2.5  ,4.9
9614  ,7.357e+06   ,1.7  ,2.5  ,0.1
9635  ,5.589e+06   ,2.5  ,1.7  ,0.1
9646  ,4.938e+06   ,2.3  ,2.5  ,0.1
9651  ,8.570e+09   ,2.1656  ,2.4888  ,4.9325
9653  ,3.878e+07   ,2.5  ,-1.316  ,4.9
9656  ,1.414e+06   ,-2.4  ,-1.7  ,5
9659  ,1.484e+06   ,2.3  ,-2.5  ,4.6765
9661  ,4.291e+06   ,2.3  ,-2.5  ,3.9531
9664  ,4.906e+04   ,-2.3  ,-2.4  ,5
9666  ,8.955e+04   ,1.9  ,-2.4  ,0
9677  ,1.077e+07   ,2.4  ,0.5  ,0
9678  ,4.300e+04   ,-2.5  ,-1.1  ,0.1
9680  ,9.249e+06   ,2.5  ,2.4  ,1.184
9681  ,8.417e+06   ,2.5  ,2.4  ,0.19855
9696  ,6.788e+02   ,-2.3  ,-2.5  ,2.0162
9698  ,7.206e+04   ,2.4  ,-2.3  ,0
9699  ,1.208e+04   ,-0.24243  ,-2.5  ,0.2
9701  ,3.999e+04   ,0.1  ,-2.4  ,0
9704  ,3.017e+04   ,-0.4838  ,-2.5  ,0.2
9718  ,2.625e+04   ,-0.72262  ,-2.5  ,0.2
9726  ,2.926e+06   ,2.3  ,-0.76628  ,0.2
9727  ,1.745e+06   ,-2.5  ,2.4  ,0.4
9730  ,5.472e+05   ,1.9433E-06  ,-2.5  ,4.8
9731  ,1.154e+06   ,-0.24243  ,-2.5  ,4.8
9732  ,4.161e+06   ,-2.5  ,2.4  ,2.2
9738  ,1.163e+04   ,-2.5  ,-2.4  ,4
9743  ,1.553e+05   ,-1.6937  ,-2.5  ,4.8
9744  ,1.403e+04   ,-2.4  ,-2.5  ,4
9750  ,5.556e+02   ,-1.7  ,-2.5  ,0.1
9752  ,1.347e+03   ,-1.6937  ,-2.5  ,0.2
9754  ,4.658e+03   ,-1.3  ,-2.4  ,0
9759  ,1.049e+06   ,-2.4707  ,2.4  ,0.029289
9760  ,1.799e+06   ,-2.4  ,2.4707  ,0.029289
9768  ,2.894e+06   ,2.3  ,-2.5  ,4.1937
9770  ,5.730e+03   ,1.9433E-06  ,-2.5  ,0.2
9771  ,1.661e+04   ,0.4838  ,-2.5  ,0.2
9772  ,3.548e+04   ,2.4  ,-2.5  ,0.2
9773  ,9.694e+05   ,2.4  ,-2.5  ,4.6
9776  ,2.127e+08   ,2.4  ,0.063638  ,5
9780  ,7.120e+07   ,0.65491  ,2.5  ,4.9
9781  ,7.745e+06   ,2.4  ,2.5  ,0.19855
9782  ,5.575e+02   ,-2.3  ,-2.5  ,2.9838
9786  ,6.708e+03   ,-1.2085  ,-2.5  ,0.2
9787  ,2.421e+03   ,-1.4531  ,-2.5  ,0.2
9790  ,3.291e+04   ,2.3  ,-2.4  ,0
9793  ,2.531e+09   ,2.0345  ,2.4  ,5
9797  ,5.534e+05   ,2.3  ,-2.5  ,1.5364
9798  ,2.487e+08   ,2.4  ,1.0491  ,5
9809  ,1.313e+08   ,2.4  ,2.5  ,3.352
