Date:  11:24, Monday, July 10, 2023
Model name: Hollow_DropBox
Study name: Drop Test_hollow_draft1(-Default-)
Plot type:  Stress1
Plot step: 17   time : 89.2147 Microseconds
Result Type: von Mises 


Node  ,Value (N/m^2)  ,X (in)  ,Y (in)  ,Z (in)
1  ,5.562e+09   ,2.5  ,2.1331  ,4.9
2  ,2.196e+10   ,2.4577  ,2.1908  ,4.9577
3  ,1.066e+10   ,2.4894  ,2.1331  ,4.9447
4  ,6.606e+09   ,2.1331  ,2.5  ,4.9
5  ,1.452e+10   ,2.1331  ,2.4894  ,4.9447
6  ,2.065e+10   ,2.1908  ,2.4577  ,4.9577
7  ,1.379e+08   ,-2.4  ,2.4  ,5
8  ,8.675e+08   ,-2.4  ,-2.4  ,5
9  ,1.430e+09   ,2.4  ,-2.4  ,5
10  ,5.167e+09   ,2.4  ,2.1331  ,5
11  ,6.222e+09   ,2.1331  ,2.4  ,5
12  ,1.511e+09   ,2.5  ,-2.4  ,4.9
13  ,7.983e+08   ,2.5  ,-2.4  ,0.1
14  ,1.223e+08   ,2.5  ,2.4  ,0.1
15  ,6.574e+09   ,2.5  ,2.4  ,4.6331
16  ,1.330e+08   ,2.4  ,2.5  ,0.1
17  ,1.567e+08   ,-2.4  ,2.5  ,0.1
18  ,1.321e+08   ,-2.4  ,2.5  ,4.9
19  ,6.602e+09   ,2.4  ,2.5  ,4.6331
20  ,6.946e+07   ,-2.5  ,2.4  ,0.1
21  ,4.415e+08   ,-2.5  ,-2.4  ,0.1
22  ,5.732e+08   ,-2.5  ,-2.4  ,4.9
23  ,1.660e+08   ,-2.5  ,2.4  ,4.9
24  ,6.690e+08   ,-2.3  ,-2.5  ,0.2
25  ,7.728e+08   ,-2.3  ,-2.5  ,4.8
26  ,1.426e+09   ,2.3  ,-2.5  ,4.8
27  ,7.195e+08   ,2.3  ,-2.5  ,0.2
28  ,7.359e+08   ,-2.4  ,-2.5  ,4.9
29  ,1.585e+09   ,2.4  ,-2.5  ,4.9
30  ,4.167e+08   ,-2.4  ,-2.5  ,0.1
31  ,7.354e+08   ,2.4  ,-2.5  ,0.1
32  ,6.095e+08   ,2.4  ,-2.4  ,0
33  ,1.456e+08   ,2.4  ,2.4  ,0
34  ,4.823e+08   ,-2.4  ,-2.4  ,0
35  ,1.064e+08   ,-2.4  ,2.4  ,0
36  ,2.502e+10   ,2.4577  ,2.4577  ,4.6908
37  ,4.052e+08   ,-2.3  ,2.3  ,4.8
38  ,7.171e+09   ,2.1599  ,2.3  ,4.8
39  ,6.864e+09   ,2.3  ,2.1599  ,4.8
40  ,7.013e+09   ,2.3  ,2.3  ,4.6599
41  ,4.344e+08   ,2.3  ,2.3  ,0.2
42  ,4.065e+07   ,-2.3  ,2.3  ,0.2
43  ,1.878e+08   ,-2.4  ,2.2  ,5
44  ,3.052e+08   ,-2.4  ,2  ,5
45  ,3.220e+08   ,-2.4  ,1.8  ,5
46  ,3.513e+08   ,-2.4  ,1.6  ,5
47  ,3.897e+08   ,-2.4  ,1.4  ,5
48  ,4.877e+08   ,-2.4  ,1.2  ,5
49  ,5.067e+08   ,-2.4  ,1  ,5
50  ,6.850e+08   ,-2.4  ,0.8  ,5
51  ,5.581e+08   ,-2.4  ,0.6  ,5
52  ,4.567e+08   ,-2.4  ,0.4  ,5
53  ,4.551e+08   ,-2.4  ,0.2  ,5
54  ,3.859e+08   ,-2.4  ,5.8879E-16  ,5
55  ,2.773e+08   ,-2.4  ,-0.2  ,5
56  ,2.334e+08   ,-2.4  ,-0.4  ,5
57  ,2.982e+08   ,-2.4  ,-0.6  ,5
58  ,2.878e+08   ,-2.4  ,-0.8  ,5
59  ,3.284e+08   ,-2.4  ,-1  ,5
60  ,3.058e+08   ,-2.4  ,-1.2  ,5
61  ,4.677e+08   ,-2.4  ,-1.4  ,5
62  ,3.842e+08   ,-2.4  ,-1.6  ,5
63  ,3.259e+08   ,-2.4  ,-1.8  ,5
64  ,5.023e+08   ,-2.4  ,-2  ,5
65  ,4.753e+08   ,-2.4  ,-2.2  ,5
66  ,1.115e+09   ,-2.2  ,-2.4  ,5
67  ,9.105e+08   ,-2  ,-2.4  ,5
68  ,7.789e+08   ,-1.8  ,-2.4  ,5
69  ,6.276e+08   ,-1.6  ,-2.4  ,5
70  ,5.261e+08   ,-1.4  ,-2.4  ,5
71  ,3.477e+08   ,-1.2  ,-2.4  ,5
72  ,1.974e+08   ,-1  ,-2.4  ,5
73  ,2.009e+08   ,-0.8  ,-2.4  ,5
74  ,1.695e+08   ,-0.6  ,-2.4  ,5
75  ,1.913e+08   ,-0.4  ,-2.4  ,5
76  ,3.390e+08   ,-0.2  ,-2.4  ,5
77  ,5.825e+08   ,-5.8879E-16  ,-2.4  ,5
78  ,8.771e+08   ,0.2  ,-2.4  ,5
79  ,1.095e+09   ,0.4  ,-2.4  ,5
80  ,1.409e+09   ,0.6  ,-2.4  ,5
81  ,1.383e+09   ,0.8  ,-2.4  ,5
82  ,1.320e+09   ,1  ,-2.4  ,5
83  ,1.222e+09   ,1.2  ,-2.4  ,5
84  ,1.115e+09   ,1.4  ,-2.4  ,5
85  ,6.560e+08   ,1.6  ,-2.4  ,5
86  ,3.333e+08   ,1.8  ,-2.4  ,5
87  ,6.982e+08   ,2  ,-2.4  ,5
88  ,2.322e+09   ,2.2  ,-2.4  ,5
89  ,1.232e+09   ,2.4  ,-2.2029  ,5
90  ,1.333e+09   ,2.4  ,-2.0058  ,5
91  ,9.990e+08   ,2.4  ,-1.8087  ,5
92  ,8.938e+08   ,2.4  ,-1.6116  ,5
93  ,9.901e+08   ,2.4  ,-1.4145  ,5
94  ,8.502e+08   ,2.4  ,-1.2175  ,5
95  ,9.113e+08   ,2.4  ,-1.0204  ,5
96  ,9.301e+08   ,2.4  ,-0.82327  ,5
97  ,8.701e+08   ,2.4  ,-0.62618  ,5
98  ,8.074e+08   ,2.4  ,-0.42909  ,5
99  ,7.397e+08   ,2.4  ,-0.232  ,5
100  ,6.972e+08   ,2.4  ,-0.034907  ,5
101  ,7.149e+08   ,2.4  ,0.16218  ,5
102  ,7.422e+08   ,2.4  ,0.35927  ,5
103  ,9.262e+08   ,2.4  ,0.55637  ,5
104  ,9.805e+08   ,2.4  ,0.75346  ,5
105  ,8.322e+08   ,2.4  ,0.95055  ,5
106  ,9.468e+08   ,2.4  ,1.1476  ,5
107  ,1.412e+09   ,2.4  ,1.3447  ,5
108  ,1.985e+09   ,2.4  ,1.5418  ,5
109  ,2.670e+09   ,2.4  ,1.7389  ,5
110  ,4.268e+09   ,2.4  ,1.936  ,5
111  ,5.992e+09   ,2.2665  ,2.2665  ,5
112  ,4.839e+09   ,1.936  ,2.4  ,5
113  ,2.999e+09   ,1.7389  ,2.4  ,5
114  ,2.326e+09   ,1.5418  ,2.4  ,5
115  ,1.599e+09   ,1.3447  ,2.4  ,5
116  ,1.367e+09   ,1.1476  ,2.4  ,5
117  ,1.279e+09   ,0.95055  ,2.4  ,5
118  ,1.373e+09   ,0.75346  ,2.4  ,5
119  ,1.319e+09   ,0.55637  ,2.4  ,5
120  ,1.072e+09   ,0.35927  ,2.4  ,5
121  ,1.064e+09   ,0.16218  ,2.4  ,5
122  ,9.773e+08   ,-0.034907  ,2.4  ,5
123  ,1.011e+09   ,-0.232  ,2.4  ,5
124  ,8.885e+08   ,-0.42909  ,2.4  ,5
125  ,7.979e+08   ,-0.62618  ,2.4  ,5
126  ,9.860e+08   ,-0.82327  ,2.4  ,5
127  ,8.736e+08   ,-1.0204  ,2.4  ,5
128  ,8.222e+08   ,-1.2175  ,2.4  ,5
129  ,6.728e+08   ,-1.4145  ,2.4  ,5
130  ,4.632e+08   ,-1.6116  ,2.4  ,5
131  ,3.433e+08   ,-1.8087  ,2.4  ,5
132  ,2.550e+08   ,-2.0058  ,2.4  ,5
133  ,2.096e+08   ,-2.2029  ,2.4  ,5
294  ,1.052e+09   ,2.5  ,-2.2029  ,4.9
295  ,1.288e+09   ,2.5  ,-2.0058  ,4.9
296  ,1.012e+09   ,2.5  ,-1.8087  ,4.9
297  ,1.048e+09   ,2.5  ,-1.6116  ,4.9
298  ,8.550e+08   ,2.5  ,-1.4145  ,4.9
299  ,8.703e+08   ,2.5  ,-1.2175  ,4.9
300  ,8.990e+08   ,2.5  ,-1.0204  ,4.9
301  ,7.418e+08   ,2.5  ,-0.82327  ,4.9
302  ,7.926e+08   ,2.5  ,-0.62618  ,4.9
303  ,8.044e+08   ,2.5  ,-0.42909  ,4.9
304  ,9.473e+08   ,2.5  ,-0.232  ,4.9
305  ,1.039e+09   ,2.5  ,-0.034907  ,4.9
306  ,8.960e+08   ,2.5  ,0.16218  ,4.9
307  ,7.827e+08   ,2.5  ,0.35927  ,4.9
308  ,8.780e+08   ,2.5  ,0.55637  ,4.9
309  ,9.387e+08   ,2.5  ,0.75346  ,4.9
310  ,8.838e+08   ,2.5  ,0.95055  ,4.9
311  ,1.167e+09   ,2.5  ,1.1476  ,4.9
312  ,1.478e+09   ,2.5  ,1.3447  ,4.9
313  ,2.015e+09   ,2.5  ,1.5418  ,4.9
314  ,3.095e+09   ,2.5  ,1.7389  ,4.9
315  ,4.633e+09   ,2.5  ,1.936  ,4.9
316  ,2.272e+09   ,2.5  ,-2.4  ,4.7
317  ,6.639e+08   ,2.5  ,-2.4  ,4.5
318  ,3.333e+08   ,2.5  ,-2.4  ,4.3
319  ,7.148e+08   ,2.5  ,-2.4  ,4.1
320  ,1.045e+09   ,2.5  ,-2.4  ,3.9
321  ,1.322e+09   ,2.5  ,-2.4  ,3.7
322  ,1.455e+09   ,2.5  ,-2.4  ,3.5
323  ,1.407e+09   ,2.5  ,-2.4  ,3.3
324  ,1.300e+09   ,2.5  ,-2.4  ,3.1
325  ,1.063e+09   ,2.5  ,-2.4  ,2.9
326  ,8.287e+08   ,2.5  ,-2.4  ,2.7
327  ,5.379e+08   ,2.5  ,-2.4  ,2.5
328  ,2.874e+08   ,2.5  ,-2.4  ,2.3
329  ,1.383e+08   ,2.5  ,-2.4  ,2.1
330  ,8.501e+07   ,2.5  ,-2.4  ,1.9
331  ,1.097e+08   ,2.5  ,-2.4  ,1.7
332  ,1.582e+08   ,2.5  ,-2.4  ,1.5
333  ,2.998e+08   ,2.5  ,-2.4  ,1.3
334  ,4.884e+08   ,2.5  ,-2.4  ,1.1
335  ,6.097e+08   ,2.5  ,-2.4  ,0.9
336  ,8.049e+08   ,2.5  ,-2.4  ,0.7
337  ,8.890e+08   ,2.5  ,-2.4  ,0.5
338  ,1.102e+09   ,2.5  ,-2.4  ,0.3
339  ,4.531e+08   ,2.5  ,-2.2  ,0.1
340  ,4.936e+08   ,2.5  ,-2  ,0.1
341  ,3.199e+08   ,2.5  ,-1.8  ,0.1
342  ,3.437e+08   ,2.5  ,-1.6  ,0.1
343  ,2.753e+08   ,2.5  ,-1.4  ,0.1
344  ,3.010e+08   ,2.5  ,-1.2  ,0.1
345  ,3.106e+08   ,2.5  ,-1  ,0.1
346  ,2.850e+08   ,2.5  ,-0.8  ,0.1
347  ,2.851e+08   ,2.5  ,-0.6  ,0.1
348  ,1.650e+08   ,2.5  ,-0.4  ,0.1
349  ,2.395e+08   ,2.5  ,-0.2  ,0.1
350  ,3.227e+08   ,2.5  ,-1.7664E-15  ,0.1
351  ,3.452e+08   ,2.5  ,0.2  ,0.1
352  ,4.520e+08   ,2.5  ,0.4  ,0.1
353  ,5.228e+08   ,2.5  ,0.6  ,0.1
354  ,6.757e+08   ,2.5  ,0.8  ,0.1
355  ,4.627e+08   ,2.5  ,1  ,0.1
356  ,4.436e+08   ,2.5  ,1.2  ,0.1
357  ,3.965e+08   ,2.5  ,1.4  ,0.1
358  ,3.824e+08   ,2.5  ,1.6  ,0.1
359  ,2.487e+08   ,2.5  ,1.8  ,0.1
360  ,2.195e+08   ,2.5  ,2  ,0.1
361  ,1.931e+08   ,2.5  ,2.2  ,0.1
362  ,4.720e+09   ,2.5  ,2.4  ,4.436
363  ,3.248e+09   ,2.5  ,2.4  ,4.2389
364  ,2.224e+09   ,2.5  ,2.4  ,4.0418
365  ,1.766e+09   ,2.5  ,2.4  ,3.8447
366  ,1.440e+09   ,2.5  ,2.4  ,3.6476
367  ,1.334e+09   ,2.5  ,2.4  ,3.4505
368  ,1.367e+09   ,2.5  ,2.4  ,3.2535
369  ,1.325e+09   ,2.5  ,2.4  ,3.0564
370  ,1.149e+09   ,2.5  ,2.4  ,2.8593
371  ,1.060e+09   ,2.5  ,2.4  ,2.6622
372  ,1.117e+09   ,2.5  ,2.4  ,2.4651
373  ,9.504e+08   ,2.5  ,2.4  ,2.268
374  ,9.763e+08   ,2.5  ,2.4  ,2.0709
375  ,9.189e+08   ,2.5  ,2.4  ,1.8738
376  ,9.716e+08   ,2.5  ,2.4  ,1.6767
377  ,6.391e+08   ,2.5  ,2.4  ,1.4796
378  ,6.977e+08   ,2.5  ,2.4  ,1.2825
379  ,6.455e+08   ,2.5  ,2.4  ,1.0855
380  ,5.840e+08   ,2.5  ,2.4  ,0.88836
381  ,4.733e+08   ,2.5  ,2.4  ,0.69127
382  ,2.794e+08   ,2.5  ,2.4  ,0.49418
383  ,1.736e+08   ,2.5  ,2.4  ,0.29709
384  ,6.030e+09   ,2.5  ,2.2665  ,4.7665
544  ,2.537e+08   ,2.2  ,2.5  ,0.1
545  ,3.353e+08   ,2  ,2.5  ,0.1
546  ,3.168e+08   ,1.8  ,2.5  ,0.1
547  ,3.464e+08   ,1.6  ,2.5  ,0.1
548  ,3.072e+08   ,1.4  ,2.5  ,0.1
549  ,4.009e+08   ,1.2  ,2.5  ,0.1
550  ,4.849e+08   ,1  ,2.5  ,0.1
551  ,7.707e+08   ,0.8  ,2.5  ,0.1
552  ,7.415e+08   ,0.6  ,2.5  ,0.1
553  ,7.323e+08   ,0.4  ,2.5  ,0.1
554  ,7.746e+08   ,0.2  ,2.5  ,0.1
555  ,6.836e+08   ,5.8879E-16  ,2.5  ,0.1
556  ,3.681e+08   ,-0.2  ,2.5  ,0.1
557  ,4.807e+08   ,-0.4  ,2.5  ,0.1
558  ,5.652e+08   ,-0.6  ,2.5  ,0.1
559  ,7.011e+08   ,-0.8  ,2.5  ,0.1
560  ,7.630e+08   ,-1  ,2.5  ,0.1
561  ,7.695e+08   ,-1.2  ,2.5  ,0.1
562  ,6.996e+08   ,-1.4  ,2.5  ,0.1
563  ,6.798e+08   ,-1.6  ,2.5  ,0.1
564  ,6.286e+08   ,-1.8  ,2.5  ,0.1
565  ,5.604e+08   ,-2  ,2.5  ,0.1
566  ,4.583e+08   ,-2.2  ,2.5  ,0.1
567  ,2.572e+08   ,-2.4  ,2.5  ,4.7
568  ,3.169e+08   ,-2.4  ,2.5  ,4.5
569  ,2.986e+08   ,-2.4  ,2.5  ,4.3
570  ,3.375e+08   ,-2.4  ,2.5  ,4.1
571  ,3.360e+08   ,-2.4  ,2.5  ,3.9
572  ,3.823e+08   ,-2.4  ,2.5  ,3.7
573  ,4.899e+08   ,-2.4  ,2.5  ,3.5
574  ,7.348e+08   ,-2.4  ,2.5  ,3.3
575  ,6.403e+08   ,-2.4  ,2.5  ,3.1
576  ,5.715e+08   ,-2.4  ,2.5  ,2.9
577  ,5.729e+08   ,-2.4  ,2.5  ,2.7
578  ,5.123e+08   ,-2.4  ,2.5  ,2.5
579  ,5.289e+08   ,-2.4  ,2.5  ,2.3
580  ,5.631e+08   ,-2.4  ,2.5  ,2.1
581  ,5.959e+08   ,-2.4  ,2.5  ,1.9
582  ,6.862e+08   ,-2.4  ,2.5  ,1.7
583  ,7.229e+08   ,-2.4  ,2.5  ,1.5
584  ,7.463e+08   ,-2.4  ,2.5  ,1.3
585  ,7.320e+08   ,-2.4  ,2.5  ,1.1
586  ,6.810e+08   ,-2.4  ,2.5  ,0.9
587  ,6.218e+08   ,-2.4  ,2.5  ,0.7
588  ,5.682e+08   ,-2.4  ,2.5  ,0.5
589  ,4.743e+08   ,-2.4  ,2.5  ,0.3
590  ,5.406e+09   ,1.936  ,2.5  ,4.9
591  ,2.844e+09   ,1.7389  ,2.5  ,4.9
592  ,2.142e+09   ,1.5418  ,2.5  ,4.9
593  ,1.766e+09   ,1.3447  ,2.5  ,4.9
594  ,1.310e+09   ,1.1476  ,2.5  ,4.9
595  ,1.301e+09   ,0.95055  ,2.5  ,4.9
596  ,1.325e+09   ,0.75346  ,2.5  ,4.9
597  ,1.328e+09   ,0.55637  ,2.5  ,4.9
598  ,1.228e+09   ,0.35927  ,2.5  ,4.9
599  ,1.054e+09   ,0.16218  ,2.5  ,4.9
600  ,9.509e+08   ,-0.034907  ,2.5  ,4.9
601  ,9.138e+08   ,-0.232  ,2.5  ,4.9
602  ,1.029e+09   ,-0.42909  ,2.5  ,4.9
603  ,1.057e+09   ,-0.62618  ,2.5  ,4.9
604  ,9.921e+08   ,-0.82327  ,2.5  ,4.9
605  ,1.006e+09   ,-1.0204  ,2.5  ,4.9
606  ,8.778e+08   ,-1.2175  ,2.5  ,4.9
607  ,6.841e+08   ,-1.4145  ,2.5  ,4.9
608  ,5.202e+08   ,-1.6116  ,2.5  ,4.9
609  ,3.280e+08   ,-1.8087  ,2.5  ,4.9
610  ,2.374e+08   ,-2.0058  ,2.5  ,4.9
611  ,1.826e+08   ,-2.2029  ,2.5  ,4.9
612  ,6.605e+09   ,2.2665  ,2.5  ,4.7665
613  ,4.621e+09   ,2.4  ,2.5  ,4.436
614  ,2.986e+09   ,2.4  ,2.5  ,4.2389
615  ,2.261e+09   ,2.4  ,2.5  ,4.0418
616  ,1.730e+09   ,2.4  ,2.5  ,3.8447
617  ,1.435e+09   ,2.4  ,2.5  ,3.6476
618  ,1.287e+09   ,2.4  ,2.5  ,3.4505
619  ,1.371e+09   ,2.4  ,2.5  ,3.2535
620  ,1.311e+09   ,2.4  ,2.5  ,3.0564
621  ,1.160e+09   ,2.4  ,2.5  ,2.8593
622  ,1.035e+09   ,2.4  ,2.5  ,2.6622
623  ,9.334e+08   ,2.4  ,2.5  ,2.4651
624  ,9.541e+08   ,2.4  ,2.5  ,2.268
625  ,8.855e+08   ,2.4  ,2.5  ,2.0709
626  ,9.410e+08   ,2.4  ,2.5  ,1.8738
627  ,9.636e+08   ,2.4  ,2.5  ,1.6767
628  ,1.012e+09   ,2.4  ,2.5  ,1.4796
629  ,9.856e+08   ,2.4  ,2.5  ,1.2825
630  ,6.803e+08   ,2.4  ,2.5  ,1.0855
631  ,5.001e+08   ,2.4  ,2.5  ,0.88836
632  ,3.322e+08   ,2.4  ,2.5  ,0.69127
633  ,2.885e+08   ,2.4  ,2.5  ,0.49418
634  ,2.214e+08   ,2.4  ,2.5  ,0.29709
796  ,2.368e+08   ,-2.5  ,2.2  ,0.1
797  ,4.118e+08   ,-2.5  ,2  ,0.1
798  ,5.193e+08   ,-2.5  ,1.8  ,0.1
799  ,6.151e+08   ,-2.5  ,1.6  ,0.1
800  ,6.993e+08   ,-2.5  ,1.4  ,0.1
801  ,7.428e+08   ,-2.5  ,1.2  ,0.1
802  ,7.476e+08   ,-2.5  ,1  ,0.1
803  ,7.083e+08   ,-2.5  ,0.8  ,0.1
804  ,7.648e+08   ,-2.5  ,0.6  ,0.1
805  ,8.085e+08   ,-2.5  ,0.4  ,0.1
806  ,7.852e+08   ,-2.5  ,0.2  ,0.1
807  ,7.333e+08   ,-2.5  ,5.8879E-16  ,0.1
808  ,6.660e+08   ,-2.5  ,-0.2  ,0.1
809  ,6.081e+08   ,-2.5  ,-0.4  ,0.1
810  ,5.290e+08   ,-2.5  ,-0.6  ,0.1
811  ,4.043e+08   ,-2.5  ,-0.8  ,0.1
812  ,3.322e+08   ,-2.5  ,-1  ,0.1
813  ,2.036e+08   ,-2.5  ,-1.2  ,0.1
814  ,1.531e+08   ,-2.5  ,-1.4  ,0.1
815  ,1.360e+08   ,-2.5  ,-1.6  ,0.1
816  ,1.583e+08   ,-2.5  ,-1.8  ,0.1
817  ,2.790e+08   ,-2.5  ,-2  ,0.1
818  ,3.364e+08   ,-2.5  ,-2.2  ,0.1
819  ,7.389e+08   ,-2.5  ,-2.4  ,4.7
820  ,4.176e+08   ,-2.5  ,-2.4  ,4.5
821  ,6.048e+08   ,-2.5  ,-2.4  ,4.3
822  ,9.969e+08   ,-2.5  ,-2.4  ,4.1
823  ,1.188e+09   ,-2.5  ,-2.4  ,3.9
824  ,1.225e+09   ,-2.5  ,-2.4  ,3.7
825  ,1.293e+09   ,-2.5  ,-2.4  ,3.5
826  ,1.103e+09   ,-2.5  ,-2.4  ,3.3
827  ,1.043e+09   ,-2.5  ,-2.4  ,3.1
828  ,8.174e+08   ,-2.5  ,-2.4  ,2.9
829  ,5.611e+08   ,-2.5  ,-2.4  ,2.7
830  ,3.019e+08   ,-2.5  ,-2.4  ,2.5
831  ,1.909e+08   ,-2.5  ,-2.4  ,2.3
832  ,1.352e+08   ,-2.5  ,-2.4  ,2.1
833  ,1.833e+08   ,-2.5  ,-2.4  ,1.9
834  ,2.858e+08   ,-2.5  ,-2.4  ,1.7
835  ,4.071e+08   ,-2.5  ,-2.4  ,1.5
836  ,4.980e+08   ,-2.5  ,-2.4  ,1.3
837  ,5.849e+08   ,-2.5  ,-2.4  ,1.1
838  ,6.335e+08   ,-2.5  ,-2.4  ,0.9
839  ,5.505e+08   ,-2.5  ,-2.4  ,0.7
840  ,4.450e+08   ,-2.5  ,-2.4  ,0.5
841  ,6.023e+08   ,-2.5  ,-2.4  ,0.3
842  ,2.064e+08   ,-2.5  ,2.2  ,4.9
843  ,3.170e+08   ,-2.5  ,2  ,4.9
844  ,3.522e+08   ,-2.5  ,1.8  ,4.9
845  ,3.612e+08   ,-2.5  ,1.6  ,4.9
846  ,3.642e+08   ,-2.5  ,1.4  ,4.9
847  ,3.991e+08   ,-2.5  ,1.2  ,4.9
848  ,4.214e+08   ,-2.5  ,1  ,4.9
849  ,5.890e+08   ,-2.5  ,0.8  ,4.9
850  ,4.640e+08   ,-2.5  ,0.6  ,4.9
851  ,4.209e+08   ,-2.5  ,0.4  ,4.9
852  ,4.146e+08   ,-2.5  ,0.2  ,4.9
853  ,3.537e+08   ,-2.5  ,5.8879E-16  ,4.9
854  ,2.709e+08   ,-2.5  ,-0.2  ,4.9
855  ,2.161e+08   ,-2.5  ,-0.4  ,4.9
856  ,2.323e+08   ,-2.5  ,-0.6  ,4.9
857  ,2.638e+08   ,-2.5  ,-0.8  ,4.9
858  ,2.729e+08   ,-2.5  ,-1  ,4.9
859  ,2.784e+08   ,-2.5  ,-1.2  ,4.9
860  ,2.476e+08   ,-2.5  ,-1.4  ,4.9
861  ,2.493e+08   ,-2.5  ,-1.6  ,4.9
862  ,3.208e+08   ,-2.5  ,-1.8  ,4.9
863  ,4.468e+08   ,-2.5  ,-2  ,4.9
864  ,4.711e+08   ,-2.5  ,-2.2  ,4.9
865  ,2.476e+08   ,-2.5  ,2.4  ,4.7
866  ,3.249e+08   ,-2.5  ,2.4  ,4.5
867  ,3.494e+08   ,-2.5  ,2.4  ,4.3
868  ,3.088e+08   ,-2.5  ,2.4  ,4.1
869  ,4.326e+08   ,-2.5  ,2.4  ,3.9
870  ,4.600e+08   ,-2.5  ,2.4  ,3.7
871  ,5.239e+08   ,-2.5  ,2.4  ,3.5
872  ,6.717e+08   ,-2.5  ,2.4  ,3.3
873  ,6.239e+08   ,-2.5  ,2.4  ,3.1
874  ,5.625e+08   ,-2.5  ,2.4  ,2.9
875  ,5.457e+08   ,-2.5  ,2.4  ,2.7
876  ,5.295e+08   ,-2.5  ,2.4  ,2.5
877  ,5.196e+08   ,-2.5  ,2.4  ,2.3
878  ,5.570e+08   ,-2.5  ,2.4  ,2.1
879  ,5.813e+08   ,-2.5  ,2.4  ,1.9
880  ,5.799e+08   ,-2.5  ,2.4  ,1.7
881  ,6.228e+08   ,-2.5  ,2.4  ,1.5
882  ,6.776e+08   ,-2.5  ,2.4  ,1.3
883  ,6.284e+08   ,-2.5  ,2.4  ,1.1
884  ,5.780e+08   ,-2.5  ,2.4  ,0.9
885  ,5.106e+08   ,-2.5  ,2.4  ,0.7
886  ,4.433e+08   ,-2.5  ,2.4  ,0.5
887  ,3.169e+08   ,-2.5  ,2.4  ,0.3
1044  ,6.586e+08   ,-2.3  ,-2.5  ,0.44697
1045  ,3.201e+08   ,-2.3  ,-2.5  ,0.68705
1046  ,1.261e+08   ,-2.3  ,-2.5  ,0.92554
1047  ,1.171e+08   ,-2.3  ,-2.5  ,1.1682
1048  ,2.653e+08   ,-2.3  ,-2.5  ,1.4148
1049  ,3.759e+08   ,-2.3  ,-2.5  ,1.6581
1050  ,4.868e+08   ,-2.3  ,-2.5  ,1.8967
1051  ,4.685e+08   ,-2.3  ,-2.5  ,2.1357
1052  ,4.133e+08   ,-2.3  ,-2.5  ,2.3794
1053  ,2.710e+08   ,-2.3  ,-2.5  ,2.6206
1054  ,2.139e+08   ,-2.3  ,-2.5  ,2.8643
1055  ,3.971e+08   ,-2.3  ,-2.5  ,3.1033
1056  ,6.192e+08   ,-2.3  ,-2.5  ,3.342
1057  ,7.406e+08   ,-2.3  ,-2.5  ,3.5852
1058  ,7.353e+08   ,-2.3  ,-2.5  ,3.8318
1059  ,5.450e+08   ,-2.3  ,-2.5  ,4.0745
1060  ,3.193e+08   ,-2.3  ,-2.5  ,4.3129
1061  ,4.734e+08   ,-2.3  ,-2.5  ,4.553
1062  ,1.325e+09   ,-2.053  ,-2.5  ,4.8
1063  ,8.347e+08   ,-1.8129  ,-2.5  ,4.8
1064  ,6.048e+08   ,-1.5745  ,-2.5  ,4.8
1065  ,3.732e+08   ,-1.3318  ,-2.5  ,4.8
1066  ,1.607e+08   ,-1.0852  ,-2.5  ,4.8
1067  ,5.005e+08   ,-0.84195  ,-2.5  ,4.8
1068  ,6.347e+08   ,-0.60329  ,-2.5  ,4.8
1069  ,5.755e+08   ,-0.3643  ,-2.5  ,4.8
1070  ,3.985e+08   ,-0.12055  ,-2.5  ,4.8
1071  ,2.015e+08   ,0.12056  ,-2.5  ,4.8
1072  ,1.835e+08   ,0.3643  ,-2.5  ,4.8
1073  ,3.318e+08   ,0.6033  ,-2.5  ,4.8
1074  ,3.640e+08   ,0.84195  ,-2.5  ,4.8
1075  ,3.103e+08   ,1.0852  ,-2.5  ,4.8
1076  ,2.159e+08   ,1.3318  ,-2.5  ,4.8
1077  ,3.140e+08   ,1.5745  ,-2.5  ,4.8
1078  ,7.839e+08   ,1.8129  ,-2.5  ,4.8
1079  ,1.941e+09   ,2.053  ,-2.5  ,4.8
1080  ,1.946e+09   ,2.3  ,-2.5  ,4.553
1081  ,8.371e+08   ,2.3  ,-2.5  ,4.3129
1082  ,3.306e+08   ,2.3  ,-2.5  ,4.0745
1083  ,1.968e+08   ,2.3  ,-2.5  ,3.8318
1084  ,3.687e+08   ,2.3  ,-2.5  ,3.5852
1085  ,4.217e+08   ,2.3  ,-2.5  ,3.3419
1086  ,2.990e+08   ,2.3  ,-2.5  ,3.1033
1087  ,1.590e+08   ,2.3  ,-2.5  ,2.8643
1088  ,2.209e+08   ,2.3  ,-2.5  ,2.6206
1089  ,3.898e+08   ,2.3  ,-2.5  ,2.3794
1090  ,5.513e+08   ,2.3  ,-2.5  ,2.1357
1091  ,5.959e+08   ,2.3  ,-2.5  ,1.8967
1092  ,5.151e+08   ,2.3  ,-2.5  ,1.658
1093  ,1.655e+08   ,2.3  ,-2.5  ,1.4148
1094  ,3.355e+08   ,2.3  ,-2.5  ,1.1682
1095  ,5.859e+08   ,2.3  ,-2.5  ,0.92554
1096  ,8.633e+08   ,2.3  ,-2.5  ,0.68705
1097  ,1.276e+09   ,2.3  ,-2.5  ,0.44697
1098  ,4.529e+08   ,-2.053  ,-2.5  ,0.2
1099  ,2.513e+08   ,-1.8129  ,-2.5  ,0.2
1100  ,3.078e+07   ,-1.5745  ,-2.5  ,0.2
1101  ,1.531e+08   ,-1.3318  ,-2.5  ,0.2
1102  ,2.522e+08   ,-1.0852  ,-2.5  ,0.2
1103  ,3.390e+08   ,-0.84195  ,-2.5  ,0.2
1104  ,4.487e+08   ,-0.60329  ,-2.5  ,0.2
1105  ,5.098e+08   ,-0.3643  ,-2.5  ,0.2
1106  ,4.418e+08   ,-0.12055  ,-2.5  ,0.2
1107  ,2.689e+08   ,0.12056  ,-2.5  ,0.2
1108  ,2.115e+08   ,0.3643  ,-2.5  ,0.2
1109  ,4.192e+08   ,0.6033  ,-2.5  ,0.2
1110  ,6.783e+08   ,0.84195  ,-2.5  ,0.2
1111  ,8.197e+08   ,1.0852  ,-2.5  ,0.2
1112  ,7.929e+08   ,1.3318  ,-2.5  ,0.2
1113  ,5.960e+08   ,1.5745  ,-2.5  ,0.2
1114  ,3.646e+08   ,1.8129  ,-2.5  ,0.2
1115  ,5.664e+08   ,2.053  ,-2.5  ,0.2
1116  ,2.592e+08   ,-2.2  ,-2.5  ,4.9
1117  ,2.186e+08   ,-2  ,-2.5  ,4.9
1118  ,1.966e+08   ,-1.8  ,-2.5  ,4.9
1119  ,1.246e+08   ,-1.6  ,-2.5  ,4.9
1120  ,2.072e+08   ,-1.4  ,-2.5  ,4.9
1121  ,3.209e+08   ,-1.2  ,-2.5  ,4.9
1122  ,2.561e+08   ,-1  ,-2.5  ,4.9
1123  ,1.634e+08   ,-0.8  ,-2.5  ,4.9
1124  ,1.904e+08   ,-0.6  ,-2.5  ,4.9
1125  ,3.774e+08   ,-0.4  ,-2.5  ,4.9
1126  ,4.443e+08   ,-0.2  ,-2.5  ,4.9
1127  ,5.178e+08   ,-1.7664E-15  ,-2.5  ,4.9
1128  ,5.346e+08   ,0.2  ,-2.5  ,4.9
1129  ,6.324e+08   ,0.4  ,-2.5  ,4.9
1130  ,5.449e+08   ,0.6  ,-2.5  ,4.9
1131  ,5.952e+08   ,0.8  ,-2.5  ,4.9
1132  ,5.496e+08   ,1  ,-2.5  ,4.9
1133  ,6.462e+08   ,1.2  ,-2.5  ,4.9
1134  ,5.590e+08   ,1.4  ,-2.5  ,4.9
1135  ,6.347e+08   ,1.6  ,-2.5  ,4.9
1136  ,6.285e+08   ,1.8  ,-2.5  ,4.9
1137  ,6.482e+08   ,2  ,-2.5  ,4.9
1138  ,6.382e+08   ,2.2  ,-2.5  ,4.9
1139  ,6.775e+08   ,-2.4  ,-2.5  ,4.7
1140  ,5.748e+08   ,-2.4  ,-2.5  ,4.5
1141  ,4.734e+08   ,-2.4  ,-2.5  ,4.3
1142  ,4.333e+08   ,-2.4  ,-2.5  ,4.1
1143  ,4.033e+08   ,-2.4  ,-2.5  ,3.9
1144  ,4.256e+08   ,-2.4  ,-2.5  ,3.7
1145  ,2.370e+08   ,-2.4  ,-2.5  ,3.5
1146  ,4.266e+08   ,-2.4  ,-2.5  ,3.3
1147  ,3.931e+08   ,-2.4  ,-2.5  ,3.1
1148  ,4.664e+08   ,-2.4  ,-2.5  ,2.9
1149  ,4.434e+08   ,-2.4  ,-2.5  ,2.7
1150  ,3.417e+08   ,-2.4  ,-2.5  ,2.5
1151  ,2.878e+08   ,-2.4  ,-2.5  ,2.3
1152  ,2.940e+08   ,-2.4  ,-2.5  ,2.1
1153  ,2.675e+08   ,-2.4  ,-2.5  ,1.9
1154  ,3.443e+08   ,-2.4  ,-2.5  ,1.7
1155  ,3.706e+08   ,-2.4  ,-2.5  ,1.5
1156  ,4.239e+08   ,-2.4  ,-2.5  ,1.3
1157  ,3.678e+08   ,-2.4  ,-2.5  ,1.1
1158  ,3.755e+08   ,-2.4  ,-2.5  ,0.9
1159  ,4.611e+08   ,-2.4  ,-2.5  ,0.7
1160  ,4.694e+08   ,-2.4  ,-2.5  ,0.5
1161  ,4.372e+08   ,-2.4  ,-2.5  ,0.3
1162  ,4.912e+08   ,-2.2  ,-2.5  ,0.1
1163  ,4.989e+08   ,-2  ,-2.5  ,0.1
1164  ,4.196e+08   ,-1.8  ,-2.5  ,0.1
1165  ,3.140e+08   ,-1.6  ,-2.5  ,0.1
1166  ,3.413e+08   ,-1.4  ,-2.5  ,0.1
1167  ,3.547e+08   ,-1.2  ,-2.5  ,0.1
1168  ,3.143e+08   ,-1  ,-2.5  ,0.1
1169  ,2.883e+08   ,-0.8  ,-2.5  ,0.1
1170  ,2.677e+08   ,-0.6  ,-2.5  ,0.1
1171  ,2.650e+08   ,-0.4  ,-2.5  ,0.1
1172  ,3.011e+08   ,-0.2  ,-2.5  ,0.1
1173  ,3.971e+08   ,-1.7664E-15  ,-2.5  ,0.1
1174  ,4.623e+08   ,0.2  ,-2.5  ,0.1
1175  ,4.707e+08   ,0.4  ,-2.5  ,0.1
1176  ,4.827e+08   ,0.6  ,-2.5  ,0.1
1177  ,2.895e+08   ,0.8  ,-2.5  ,0.1
1178  ,2.438e+08   ,1  ,-2.5  ,0.1
1179  ,3.035e+08   ,1.2  ,-2.5  ,0.1
1180  ,3.539e+08   ,1.4  ,-2.5  ,0.1
1181  ,4.285e+08   ,1.6  ,-2.5  ,0.1
1182  ,4.926e+08   ,1.8  ,-2.5  ,0.1
1183  ,5.642e+08   ,2  ,-2.5  ,0.1
1184  ,6.293e+08   ,2.2  ,-2.5  ,0.1
1185  ,6.325e+08   ,2.4  ,-2.5  ,4.7
1186  ,6.618e+08   ,2.4  ,-2.5  ,4.5
1187  ,6.952e+08   ,2.4  ,-2.5  ,4.3
1188  ,6.477e+08   ,2.4  ,-2.5  ,4.1
1189  ,6.660e+08   ,2.4  ,-2.5  ,3.9
1190  ,6.497e+08   ,2.4  ,-2.5  ,3.7
1191  ,5.201e+08   ,2.4  ,-2.5  ,3.5
1192  ,5.863e+08   ,2.4  ,-2.5  ,3.3
1193  ,6.133e+08   ,2.4  ,-2.5  ,3.1
1194  ,6.280e+08   ,2.4  ,-2.5  ,2.9
1195  ,5.380e+08   ,2.4  ,-2.5  ,2.7
1196  ,4.802e+08   ,2.4  ,-2.5  ,2.5
1197  ,3.910e+08   ,2.4  ,-2.5  ,2.3
1198  ,3.337e+08   ,2.4  ,-2.5  ,2.1
1199  ,2.565e+08   ,2.4  ,-2.5  ,1.9
1200  ,2.081e+08   ,2.4  ,-2.5  ,1.7
1201  ,2.141e+08   ,2.4  ,-2.5  ,1.5
1202  ,2.798e+08   ,2.4  ,-2.5  ,1.3
1203  ,1.742e+08   ,2.4  ,-2.5  ,1.1
1204  ,9.077e+07   ,2.4  ,-2.5  ,0.9
1205  ,2.143e+08   ,2.4  ,-2.5  ,0.7
1206  ,2.012e+08   ,2.4  ,-2.5  ,0.5
1207  ,2.964e+08   ,2.4  ,-2.5  ,0.3
1208  ,4.545e+08   ,2.4  ,-2.2  ,0
1209  ,4.383e+08   ,2.4  ,-2  ,0
1210  ,3.232e+08   ,2.4  ,-1.8  ,0
1211  ,2.745e+08   ,2.4  ,-1.6  ,0
1212  ,2.669e+08   ,2.4  ,-1.4  ,0
1213  ,2.548e+08   ,2.4  ,-1.2  ,0
1214  ,2.915e+08   ,2.4  ,-1  ,0
1215  ,3.094e+08   ,2.4  ,-0.8  ,0
1216  ,2.494e+08   ,2.4  ,-0.6  ,0
1217  ,1.831e+08   ,2.4  ,-0.4  ,0
1218  ,1.913e+08   ,2.4  ,-0.2  ,0
1219  ,2.614e+08   ,2.4  ,-1.7664E-15  ,0
1220  ,3.150e+08   ,2.4  ,0.2  ,0
1221  ,3.499e+08   ,2.4  ,0.4  ,0
1222  ,4.557e+08   ,2.4  ,0.6  ,0
1223  ,5.342e+08   ,2.4  ,0.8  ,0
1224  ,3.906e+08   ,2.4  ,1  ,0
1225  ,3.422e+08   ,2.4  ,1.2  ,0
1226  ,3.175e+08   ,2.4  ,1.4  ,0
1227  ,2.792e+08   ,2.4  ,1.6  ,0
1228  ,3.484e+08   ,2.4  ,1.8  ,0
1229  ,3.122e+08   ,2.4  ,2  ,0
1230  ,2.217e+08   ,2.4  ,2.2  ,0
1231  ,4.863e+08   ,-2.2  ,-2.4  ,0
1232  ,3.025e+08   ,-2  ,-2.4  ,0
1233  ,4.843e+08   ,-1.8  ,-2.4  ,0
1234  ,5.591e+08   ,-1.6  ,-2.4  ,0
1235  ,5.054e+08   ,-1.4  ,-2.4  ,0
1236  ,4.192e+08   ,-1.2  ,-2.4  ,0
1237  ,3.107e+08   ,-1  ,-2.4  ,0
1238  ,2.090e+08   ,-0.8  ,-2.4  ,0
1239  ,1.384e+08   ,-0.6  ,-2.4  ,0
1240  ,9.221e+07   ,-0.4  ,-2.4  ,0
1241  ,1.662e+08   ,-0.2  ,-2.4  ,0
1242  ,3.673e+08   ,5.8879E-16  ,-2.4  ,0
1243  ,6.456e+08   ,0.2  ,-2.4  ,0
1244  ,9.032e+08   ,0.4  ,-2.4  ,0
1245  ,1.015e+09   ,0.6  ,-2.4  ,0
1246  ,1.208e+09   ,0.8  ,-2.4  ,0
1247  ,1.195e+09   ,1  ,-2.4  ,0
1248  ,1.228e+09   ,1.2  ,-2.4  ,0
1249  ,1.115e+09   ,1.4  ,-2.4  ,0
1250  ,9.089e+08   ,1.6  ,-2.4  ,0
1251  ,5.593e+08   ,1.8  ,-2.4  ,0
1252  ,4.751e+08   ,2  ,-2.4  ,0
1253  ,8.881e+08   ,2.2  ,-2.4  ,0
1254  ,2.791e+08   ,-2.4  ,2.2  ,0
1255  ,4.019e+08   ,-2.4  ,2  ,0
1256  ,5.135e+08   ,-2.4  ,1.8  ,0
1257  ,5.885e+08   ,-2.4  ,1.6  ,0
1258  ,6.986e+08   ,-2.4  ,1.4  ,0
1259  ,7.667e+08   ,-2.4  ,1.2  ,0
1260  ,7.793e+08   ,-2.4  ,1  ,0
1261  ,7.386e+08   ,-2.4  ,0.8  ,0
1262  ,7.438e+08   ,-2.4  ,0.6  ,0
1263  ,7.668e+08   ,-2.4  ,0.4  ,0
1264  ,7.642e+08   ,-2.4  ,0.2  ,0
1265  ,7.786e+08   ,-2.4  ,5.8879E-16  ,0
1266  ,7.245e+08   ,-2.4  ,-0.2  ,0
1267  ,5.880e+08   ,-2.4  ,-0.4  ,0
1268  ,5.177e+08   ,-2.4  ,-0.6  ,0
1269  ,3.949e+08   ,-2.4  ,-0.8  ,0
1270  ,3.352e+08   ,-2.4  ,-1  ,0
1271  ,2.250e+08   ,-2.4  ,-1.2  ,0
1272  ,1.449e+08   ,-2.4  ,-1.4  ,0
1273  ,1.389e+08   ,-2.4  ,-1.6  ,0
1274  ,1.603e+08   ,-2.4  ,-1.8  ,0
1275  ,2.681e+08   ,-2.4  ,-2  ,0
1276  ,3.028e+08   ,-2.4  ,-2.2  ,0
1277  ,1.740e+08   ,2.2  ,2.4  ,0
1278  ,3.119e+08   ,2  ,2.4  ,0
1279  ,3.576e+08   ,1.8  ,2.4  ,0
1280  ,3.186e+08   ,1.6  ,2.4  ,0
1281  ,3.236e+08   ,1.4  ,2.4  ,0
1282  ,4.548e+08   ,1.2  ,2.4  ,0
1283  ,5.254e+08   ,1  ,2.4  ,0
1284  ,6.301e+08   ,0.8  ,2.4  ,0
1285  ,6.715e+08   ,0.6  ,2.4  ,0
1286  ,5.891e+08   ,0.4  ,2.4  ,0
1287  ,6.386e+08   ,0.2  ,2.4  ,0
1288  ,5.968e+08   ,5.8879E-16  ,2.4  ,0
1289  ,6.543e+08   ,-0.2  ,2.4  ,0
1290  ,5.532e+08   ,-0.4  ,2.4  ,0
1291  ,5.604e+08   ,-0.6  ,2.4  ,0
1292  ,6.254e+08   ,-0.8  ,2.4  ,0
1293  ,6.642e+08   ,-1  ,2.4  ,0
1294  ,6.383e+08   ,-1.2  ,2.4  ,0
1295  ,6.143e+08   ,-1.4  ,2.4  ,0
1296  ,5.561e+08   ,-1.6  ,2.4  ,0
1297  ,5.035e+08   ,-1.8  ,2.4  ,0
1298  ,4.246e+08   ,-2  ,2.4  ,0
1299  ,3.411e+08   ,-2.2  ,2.4  ,0
1460  ,8.683e+09   ,2.3243  ,2.3243  ,4.9577
1461  ,8.416e+09   ,2.4577  ,2.3243  ,4.8243
1462  ,7.260e+09   ,2.3243  ,2.4577  ,4.8243
1463  ,4.746e+08   ,-2.3  ,-2.1759  ,4.8
1464  ,4.733e+08   ,-2.3  ,-1.7631  ,4.8
1465  ,6.155e+08   ,-2.3  ,-1.1827  ,4.8
1466  ,8.710e+08   ,-2.3  ,-0.34986  ,4.8
1467  ,1.119e+09   ,-2.3  ,0.80545  ,4.8
1468  ,9.639e+08   ,-0.81337  ,2.3  ,4.8
1469  ,1.714e+09   ,0.67326  ,2.3  ,4.8
1470  ,1.018e+09   ,2.3  ,-2.1824  ,4.8
1471  ,6.927e+08   ,2.3  ,-1.7784  ,4.8
1472  ,6.955e+08   ,2.3  ,-1.2138  ,4.8
1473  ,8.934e+08   ,2.3  ,-0.40752  ,4.8
1474  ,1.423e+09   ,2.3  ,0.70532  ,4.8
1516  ,9.526e+08   ,2.3  ,2.3  ,1.6866
1517  ,1.721e+09   ,2.3  ,2.3  ,3.1733
1518  ,4.588e+08   ,2.3  ,-2.1759  ,0.2
1519  ,5.219e+08   ,2.3  ,-1.7631  ,0.2
1520  ,5.838e+08   ,2.3  ,-1.1827  ,0.2
1521  ,8.564e+08   ,2.3  ,-0.34986  ,0.2
1522  ,1.102e+09   ,2.3  ,0.80545  ,0.2
1564  ,9.647e+08   ,-0.76667  ,2.3  ,0.2
1565  ,1.120e+09   ,0.76667  ,2.3  ,0.2
1566  ,9.629e+08   ,-2.3  ,2.3  ,1.7333
1567  ,1.125e+09   ,-2.3  ,2.3  ,3.2667
1574  ,3.453e+08   ,-2.3  ,-2.1759  ,0.2
1575  ,5.717e+07   ,-2.3  ,-1.7631  ,0.2
1576  ,6.410e+07   ,-2.3  ,-1.1827  ,0.2
1577  ,2.558e+08   ,-2.3  ,-0.34986  ,0.2
1578  ,2.837e+08   ,-2.3  ,0.80545  ,0.2
1777  ,1.055e+09   ,-0.52764  ,2.5  ,4.9
1801  ,4.873e+08   ,-2.3  ,1.5527  ,0.2
1825  ,6.003e+08   ,-1.5333  ,2.3  ,0.2
1841  ,1.011e+09   ,0.063638  ,2.5  ,4.9
1876  ,5.422e+08   ,-0.5  ,2.4  ,0
1894  ,1.072e+09   ,2.3  ,1.5527  ,0.2
1907  ,3.010e+08   ,2.1  ,2.5  ,0.1
1928  ,3.161e+08   ,1.9  ,2.4  ,0
1974  ,3.485e+08   ,2.4  ,1.1  ,0
1981  ,3.168e+08   ,2.4  ,2.5  ,0.59273
1987  ,3.925e+08   ,-2.5  ,2.4  ,4
2004  ,2.898e+08   ,-2.4  ,2.5  ,4.6
2009  ,3.026e+08   ,2.4  ,1.3  ,0
2020  ,4.188e+08   ,2.5  ,1.1  ,0.1
2035  ,3.553e+08   ,-2.3  ,-0.76628  ,0.2
2070  ,2.693e+09   ,1.6404  ,2.4  ,5
2081  ,9.095e+08   ,2.4  ,2.5  ,1.9724
2095  ,4.553e+08   ,2.4  ,2.5  ,0.78982
2138  ,7.125e+08   ,-2.4  ,-0.1  ,0
2146  ,9.087e+08   ,-0.92182  ,2.4  ,5
2174  ,7.800e+08   ,2.4  ,2.5  ,1.184
2190  ,6.033e+08   ,2.5  ,2.4  ,0.98691
2203  ,1.074e+09   ,2.5  ,-0.13345  ,4.9
2232  ,1.719e+09   ,2.3  ,0.1489  ,4.8
2242  ,1.245e+09   ,2.4  ,2.5  ,2.9578
2293  ,8.153e+08   ,-2.5  ,0.5  ,0.1
2311  ,1.800e+09   ,2.3  ,2.3  ,2.4299
2313  ,5.676e+08   ,2.5  ,2.4  ,0.78982
2329  ,9.038e+08   ,2.4  ,2.5  ,2.1695
2355  ,3.024e+08   ,-2.4  ,2.5  ,4.4
2380  ,1.358e+08   ,-2.5  ,-1.5  ,0.1
2383  ,1.274e+09   ,0.45782  ,2.5  ,4.9
2408  ,1.017e+09   ,2.3  ,-1.4961  ,4.8
2445  ,9.089e+08   ,2.5  ,-1.5131  ,4.9
2484  ,3.203e+08   ,-2.5  ,-2.4  ,1.6
2495  ,3.249e+08   ,-2.4  ,1.7  ,5
2508  ,3.310e+08   ,2.4  ,0.3  ,0
2514  ,1.183e+09   ,2.3  ,0.2278  ,0.2
2570  ,3.741e+08   ,-2.4  ,1.5  ,5
2580  ,2.559e+09   ,1.6404  ,2.5  ,4.9
2603  ,9.869e+08   ,-1.1189  ,2.5  ,4.9
2695  ,7.209e+08   ,2.3  ,2.3  ,0.94331
2705  ,1.032e+09   ,2.4  ,2.5  ,1.3811
2714  ,7.989e+08   ,2.5  ,0.45782  ,4.9
2734  ,2.897e+08   ,2.4  ,-0.9  ,0
2775  ,2.654e+08   ,2.5  ,-0.1  ,0.1
2779  ,2.327e+08   ,2.4  ,-0.1  ,0
2801  ,3.186e+09   ,1.4166  ,2.3  ,4.8
2814  ,1.946e+09   ,1.4433  ,2.5  ,4.9
2863  ,5.809e+08   ,-2.4  ,2.5  ,0.6
2884  ,6.502e+08   ,-2.4  ,2.5  ,0.8
2886  ,7.391e+08   ,-2.4  ,2.5  ,1.2
2967  ,2.909e+08   ,2.4  ,1.7  ,0
2973  ,3.698e+08   ,2.5  ,1.5  ,0.1
2987  ,4.042e+08   ,-0.3  ,2.5  ,0.1
3008  ,5.877e+08   ,-2.3  ,2.3  ,0.96667
3012  ,5.303e+08   ,-2.5  ,2.4  ,2.6
3021  ,5.316e+08   ,-2.5  ,2.4  ,2.8
3025  ,5.178e+08   ,-2.5  ,2.4  ,2.4
3030  ,5.143e+08   ,-2.4  ,2.5  ,2.4
3033  ,5.266e+08   ,-2.4  ,2.5  ,2.2
3047  ,9.819e+08   ,2.4  ,2.5  ,2.3665
3052  ,1.065e+09   ,2.5  ,2.4  ,2.5636
3061  ,9.918e+08   ,2.4  ,2.5  ,2.5636
3081  ,4.468e+08   ,-2.4  ,1.3  ,5
3088  ,2.942e+08   ,-1.9073  ,2.4  ,5
3099  ,3.032e+08   ,-2.4  ,1.9  ,5
3107  ,3.371e+08   ,-2.4  ,2.5  ,3.8
3139  ,5.631e+08   ,-1.5131  ,2.4  ,5
3145  ,6.022e+08   ,-1.5131  ,2.5  ,4.9
3148  ,4.282e+08   ,-1.7102  ,2.5  ,4.9
3168  ,6.345e+08   ,-2.4  ,1.5  ,0
3188  ,6.298e+08   ,-2.5  ,-2.4  ,1
3202  ,1.103e+09   ,0.26073  ,2.5  ,4.9
3212  ,2.356e+09   ,2.5  ,1.6404  ,4.9
3247  ,3.663e+09   ,2.5  ,1.8375  ,4.9
3265  ,3.064e+09   ,2.3  ,1.4326  ,4.8
3271  ,6.927e+09   ,2.2299  ,2.2299  ,4.8
3284  ,1.668e+09   ,2.4  ,1.4433  ,5
3291  ,1.679e+09   ,2.5  ,1.4433  ,4.9
3296  ,8.817e+08   ,-2.3  ,-0.76628  ,4.8
3303  ,3.169e+08   ,-2.4  ,-0.9  ,5
3311  ,2.762e+08   ,-2.4  ,-0.7  ,5
3315  ,3.205e+08   ,1.9  ,2.5  ,0.1
3336  ,7.563e+08   ,-2.4  ,0.3  ,0
3340  ,7.471e+08   ,-2.5  ,0.1  ,0.1
3344  ,7.625e+08   ,-2.4  ,0.1  ,0
3356  ,5.770e+08   ,-0.3  ,2.4  ,0
3361  ,9.056e+08   ,-0.33054  ,2.5  ,4.9
3364  ,9.217e+08   ,-0.13345  ,2.5  ,4.9
3383  ,1.362e+09   ,2.4  ,2.5  ,3.5491
3402  ,5.410e+09   ,2.4  ,2.5  ,4.5345
3421  ,7.600e+08   ,-1.316  ,2.5  ,4.9
3439  ,1.856e+09   ,2.5  ,2.4  ,3.9433
3447  ,2.031e+09   ,2.4  ,2.5  ,3.9433
3451  ,1.558e+09   ,2.4  ,2.5  ,3.7462
3468  ,1.870e+09   ,1.4433  ,2.4  ,5
3480  ,1.338e+09   ,1.0491  ,2.4  ,5
3519  ,3.494e+08   ,1.5  ,2.4  ,0
3527  ,6.805e+08   ,2.3  ,-1.4729  ,0.2
3550  ,5.150e+08   ,-1.7  ,2.4  ,0
3554  ,6.365e+08   ,-1.7  ,2.5  ,0.1
3558  ,5.866e+08   ,-1.5  ,2.4  ,0
3562  ,6.778e+08   ,-1.5  ,2.5  ,0.1
3574  ,2.245e+08   ,-2.4  ,2.1  ,5
3581  ,5.571e+08   ,-2.5  ,1.7  ,0.1
3583  ,4.673e+08   ,-2.5  ,1.9  ,0.1
3584  ,2.593e+08   ,-1.9073  ,2.5  ,4.9
3591  ,4.011e+08   ,2.5  ,0.3  ,0.1
3595  ,3.319e+08   ,2.5  ,0.1  ,0.1
3603  ,1.305e+10   ,2.4577  ,2.391  ,4.7576
3663  ,3.222e+08   ,-1.933  ,-2.5  ,0.2
3669  ,8.077e+08   ,-2.1765  ,-2.5  ,0.2
3672  ,5.919e+08   ,-2.3  ,-2.3379  ,0.2
3682  ,3.998e+08   ,-1.9  ,-2.4  ,0
3700  ,1.557e+08   ,2.3  ,-2.5  ,2.7424
3712  ,1.974e+08   ,-2.1  ,-2.5  ,4.9
3715  ,1.939e+08   ,-1.9  ,-2.5  ,4.9
3740  ,4.165e+08   ,-1.3  ,-2.4  ,5
3746  ,2.046e+08   ,-1.2085  ,-2.5  ,4.8
3755  ,5.594e+08   ,-1.5  ,-2.4  ,5
3760  ,1.214e+08   ,-1.7  ,-2.5  ,4.9
3786  ,9.465e+08   ,2.4  ,2.5  ,1.5782
3813  ,1.103e+09   ,0.26073  ,2.4  ,5
3858  ,1.789e+08   ,-0.9  ,-2.4  ,5
3863  ,4.988e+08   ,-2.5  ,0.9  ,4.9
3875  ,7.641e+08   ,-1.9  ,-2.4  ,5
3885  ,8.637e+08   ,2.4  ,-0.72473  ,5
3910  ,3.408e+08   ,-2.4  ,-2.5  ,3.4
3959  ,2.688e+09   ,2.5  ,2.4  ,4.1404
3969  ,1.015e+09   ,2.5  ,1.0491  ,4.9
3992  ,1.374e+10   ,2.391  ,2.2576  ,4.9577
3993  ,1.235e+10   ,2.4577  ,2.2576  ,4.891
4016  ,1.356e+08   ,-2.3015  ,2.5  ,4.9
4018  ,2.010e+08   ,-2.4  ,2.5  ,4.8
4021  ,1.452e+09   ,1.2462  ,2.4  ,5
4042  ,2.725e+08   ,2.4  ,-1.1  ,0
4046  ,6.282e+08   ,-0.9  ,2.4  ,0
4055  ,6.119e+08   ,1.7  ,-2.5  ,4.9
4087  ,3.674e+08   ,1.7  ,2.4  ,0
4114  ,8.756e+08   ,2.5  ,-0.33054  ,4.9
4120  ,2.426e+08   ,2.4  ,-2.5  ,1.8
4125  ,4.608e+08   ,2.4  ,2.5  ,0.98691
4144  ,3.827e+09   ,2.4  ,2.5  ,4.3375
4161  ,4.866e+08   ,-2.4  ,0.3  ,5
4201  ,3.258e+08   ,1.933  ,-2.5  ,0.2
4225  ,4.265e+08   ,-2.3  ,-2.4  ,0
4230  ,4.195e+08   ,-2.3  ,-2.5  ,0.56701
4269  ,1.880e+08   ,-0.9  ,-2.5  ,4.9
4277  ,2.339e+08   ,-1.1  ,-2.4  ,5
4288  ,1.515e+09   ,-0.070055  ,2.3  ,4.8
4328  ,7.554e+08   ,-2.5  ,-2.4  ,4.2
4336  ,4.810e+08   ,-2.5  ,-2.4  ,4.4
4342  ,4.679e+08   ,-2.5  ,-2.4  ,4.6
4348  ,7.919e+08   ,-2.4  ,-2.4707  ,4.9707
4352  ,3.186e+08   ,-2.3  ,-2.5  ,4.9
4354  ,1.525e+09   ,-2.1765  ,-2.5  ,4.8
4355  ,7.484e+08   ,-2.3  ,-2.3379  ,4.8
4362  ,3.123e+08   ,2.5  ,2.4  ,0.59273
4364  ,3.711e+08   ,2.5  ,-2.4  ,2.4
4366  ,2.066e+08   ,2.5  ,-2.4  ,2.2
4372  ,3.796e+08   ,2.4  ,-2.5  ,2.2
4385  ,2.343e+08   ,-2.5  ,-1.9  ,0.1
4399  ,3.137e+08   ,-2.5  ,2.1  ,0.1
4407  ,1.517e+08   ,-0.7  ,-2.4  ,0
4436  ,6.832e+08   ,-2.5  ,-0.1  ,0.1
4462  ,8.886e+08   ,-2.3  ,2.3  ,4.0333
4491  ,7.469e+08   ,2.5  ,-0.52764  ,4.9
4494  ,1.993e+08   ,2.5  ,-2.4  ,1.4
4503  ,2.596e+08   ,2.4  ,-2.5  ,1.4
4508  ,2.561e+08   ,2.4  ,-2.5  ,1.2
4515  ,8.795e+07   ,2.5  ,-2.4  ,1.8
4517  ,2.141e+08   ,2.4  ,-2.5  ,1.6
4522  ,1.081e+09   ,0.7  ,-2.4  ,0
4538  ,8.203e+08   ,-1.1189  ,2.4  ,5
4546  ,2.487e+09   ,2.4  ,2.5  ,4.1404
4559  ,7.162e+08   ,1.7  ,-2.4  ,0
4590  ,9.556e+08   ,0.5  ,-2.4  ,0
4631  ,5.067e+08   ,2.4  ,-2.5  ,2.6
4634  ,9.637e+08   ,2.5  ,-2.4  ,2.8
4657  ,1.642e+08   ,-2.5  ,-2.4  ,2
4660  ,2.139e+08   ,-2.5  ,-2.4  ,1.8
4664  ,9.380e+07   ,-0.3  ,-2.4  ,0
4675  ,4.389e+08   ,-2.4  ,-2.5  ,4.8
4681  ,6.263e+08   ,-2.5  ,-0.3  ,0.1
4684  ,4.072e+08   ,1.7  ,-2.4  ,5
4703  ,6.293e+08   ,-2.4  ,0.7  ,5
4707  ,4.162e+08   ,-2.5  ,0.3  ,4.9
4714  ,7.744e+08   ,2.4  ,-0.33054  ,5
4723  ,9.574e+08   ,-1.5567  ,2.3  ,4.8
4739  ,1.884e+08   ,-2.1044  ,2.5  ,4.9
4763  ,4.612e+08   ,-1.9  ,2.4  ,0
4780  ,1.626e+08   ,-2.3  ,-1.9695  ,0.2
4782  ,3.644e+08   ,-2.4707  ,-2.4  ,0.029289
4784  ,2.002e+08   ,-2.4  ,-1.9  ,0
4791  ,2.976e+08   ,-2.4  ,-2.5  ,1.8
4796  ,1.413e+09   ,2.4707  ,-2.4707  ,4.9
4799  ,1.608e+09   ,2.5  ,-2.4  ,4.8
4806  ,9.685e+08   ,2.3  ,-2.5  ,4.9
4809  ,3.208e+09   ,2.3  ,2.3  ,3.9166
4833  ,5.028e+08   ,-2.4  ,2.5  ,0.4
4841  ,5.259e+08   ,-2.4  ,2.5  ,2.6
4846  ,2.357e+08   ,-2.5  ,2.1  ,4.9
4848  ,1.705e+08   ,-2.5  ,2.3  ,4.9
4849  ,1.917e+08   ,-2.5  ,2.4  ,4.8
4893  ,3.293e+08   ,-2.4  ,2.5  ,4.2
4897  ,5.117e+09   ,2.3333  ,2.1998  ,5
4900  ,1.317e+10   ,2.391  ,2.4577  ,4.7576
4908  ,1.249e+10   ,2.2576  ,2.391  ,4.9577
4911  ,1.318e+10   ,2.2576  ,2.4577  ,4.891
4926  ,5.902e+08   ,-2.5  ,2.4  ,1
4932  ,6.967e+08   ,-2.4  ,2.5  ,1.6
4937  ,7.817e+08   ,-1.1  ,2.5  ,0.1
4939  ,6.817e+09   ,2.3  ,2.2299  ,4.7299
4944  ,1.110e+09   ,2.5  ,-1.9073  ,4.9
4987  ,1.006e+09   ,-2.3  ,1.5527  ,4.8
5010  ,8.393e+09   ,2.4973  ,2.1331  ,4.923
5013  ,4.949e+09   ,2.5  ,2.0345  ,4.9
5017  ,5.201e+09   ,2.4  ,2.0345  ,5
5035  ,1.132e+09   ,1.3  ,-2.4  ,0
5038  ,8.311e+08   ,1.2085  ,-2.5  ,0.2
5092  ,3.966e+08   ,-2.4  ,-2.5  ,1.2
5123  ,8.146e+08   ,2.5  ,-2.4  ,0.6
5151  ,5.531e+08   ,-2.5  ,-0.5  ,0.1
5160  ,4.554e+08   ,-2.5  ,-0.7  ,0.1
5164  ,5.749e+08   ,-2.4  ,0.9  ,5
5168  ,4.940e+08   ,-2.4  ,0.5  ,5
5176  ,2.655e+08   ,2.5  ,-0.7  ,0.1
5179  ,2.133e+08   ,2.4  ,-0.5  ,0
5189  ,4.470e+08   ,2.4  ,-2.5  ,2.4
5194  ,4.781e+08   ,2.3  ,-2.5  ,2.2576
5198  ,9.273e+08   ,-2.3  ,-2.5  ,0.32348
5205  ,2.070e+08   ,-2.4  ,-2.5  ,0.2
5207  ,4.688e+08   ,-2.1  ,-2.5  ,0.1
5246  ,6.531e+08   ,-2.5  ,2.4  ,3.2
5257  ,3.656e+08   ,-2.5  ,1.5  ,4.9
5263  ,5.708e+08   ,-2.3  ,0.2278  ,0.2
5272  ,7.696e+08   ,-2.5  ,0.3  ,0.1
5275  ,4.146e+08   ,-2.5  ,0.5  ,4.9
5281  ,3.330e+09   ,1.8375  ,2.5  ,4.9
5297  ,7.134e+08   ,-0.9  ,2.5  ,0.1
5306  ,5.827e+08   ,-0.7  ,2.4  ,0
5309  ,5.085e+08   ,-0.5  ,2.5  ,0.1
5324  ,1.100e+09   ,2.4  ,2.5  ,2.7607
5332  ,6.089e+08   ,2.5  ,-2.4  ,0.8
5334  ,1.249e+08   ,2.4  ,-2.5  ,1
5360  ,9.308e+08   ,2.4  ,-1.7102  ,5
5362  ,9.441e+08   ,2.4  ,-1.5131  ,5
5368  ,3.230e+09   ,2.4  ,1.8375  ,5
5371  ,2.261e+10   ,2.4325  ,2.4888  ,4.6656
5372  ,6.040e+09   ,2.3333  ,2.5  ,4.6998
5376  ,4.701e+09   ,2.4707  ,2.4707  ,4.6331
5377  ,5.697e+09   ,2.5  ,2.4  ,4.5345
5379  ,1.031e+08   ,-1.5  ,-2.5  ,4.9
5406  ,1.165e+09   ,-2.5  ,-2.4  ,3.4
5420  ,5.187e+08   ,-2.3  ,-2.5  ,3.2226
5423  ,9.903e+08   ,1.5  ,-2.4  ,0
5502  ,3.634e+08   ,-2.5  ,-2.3  ,0.1
5504  ,4.178e+08   ,-2.5  ,-2.4  ,0.2
5506  ,3.995e+08   ,-2.4  ,-2.3  ,0
5511  ,2.892e+08   ,-2.5  ,-2.1  ,0.1
5513  ,7.425e+08   ,-2.4  ,0.5  ,0
5517  ,2.899e+08   ,-0.9  ,-2.5  ,0.1
5532  ,1.176e+08   ,-2.4707  ,2.4707  ,4.9
5534  ,2.747e+08   ,2.4  ,-0.7  ,0
5551  ,1.178e+09   ,2.5  ,-2.4  ,3.8
5566  ,7.225e+08   ,2.5  ,2.4  ,1.3811
5603  ,1.674e+08   ,2.4  ,-0.3  ,0
5617  ,5.038e+08   ,-2.1  ,2.5  ,0.1
5637  ,4.448e+08   ,-2.3  ,-1.9695  ,4.8
5641  ,4.120e+08   ,2.3  ,-2.5  ,3.4636
5645  ,2.920e+08   ,-2.4  ,-2.5  ,2
5649  ,2.837e+08   ,-2.4  ,-2.5  ,2.2
5659  ,4.435e+08   ,-2.3  ,-2.5  ,1.7774
5662  ,2.321e+09   ,2.1765  ,-2.5  ,4.8
5666  ,9.329e+08   ,2.4  ,-2.5  ,4.8
5669  ,1.331e+09   ,2.3  ,-2.3412  ,4.8
5695  ,7.179e+08   ,-2.4  ,0.7  ,0
5701  ,5.992e+08   ,-2.5  ,2.4  ,1.6
5715  ,6.245e+08   ,-2.4  ,2.5  ,1.8
5726  ,6.107e+08   ,-0.7  ,2.5  ,0.1
5727  ,6.513e+08   ,-1.1  ,2.4  ,0
5730  ,5.654e+08   ,2.3  ,-2.5  ,1.7774
5746  ,9.472e+08   ,2.5  ,2.4  ,1.7753
5755  ,3.991e+08   ,2.5  ,-2.4  ,4.4
5763  ,6.217e+08   ,2.4  ,-2.5  ,4.4
5773  ,1.380e+09   ,1.0491  ,2.5  ,4.9
5791  ,8.817e+08   ,-0.72473  ,2.4  ,5
5795  ,3.548e+09   ,1.8375  ,2.4  ,5
5803  ,2.518e+08   ,-0.3  ,-2.4  ,5
5810  ,2.298e+09   ,2.4  ,1.6404  ,5
5836  ,3.580e+08   ,-2.5  ,1.3  ,4.9
5860  ,1.421e+08   ,2.5  ,-2.4  ,1.6
5866  ,4.234e+08   ,1.5  ,-2.5  ,0.1
5884  ,2.384e+08   ,-2.4  ,-0.3  ,5
5888  ,2.247e+08   ,-2.5  ,-0.5  ,4.9
5901  ,3.111e+08   ,2.3  ,-2.5  ,2.5
5908  ,4.067e+08   ,2.5  ,-2.4  ,1.2
5909  ,7.491e+07   ,2.5  ,-2.4  ,2
5934  ,5.710e+08   ,1.9  ,-2.5  ,4.9
5938  ,1.163e+09   ,1.933  ,-2.5  ,4.8
5948  ,6.280e+08   ,-2.4  ,-2.5  ,4.6
5950  ,6.181e+08   ,-2.4707  ,-2.4707  ,4.9
5951  ,6.091e+08   ,-2.5  ,-2.4  ,4.8
5952  ,5.012e+08   ,-2.5  ,-2.3  ,4.9
5986  ,2.902e+08   ,2.3  ,-2.5  ,3.7085
5990  ,9.248e+08   ,-0.92182  ,2.5  ,4.9
6019  ,2.412e+08   ,2.5  ,1.9  ,0.1
6025  ,2.377e+08   ,2.4  ,-1.3  ,0
6035  ,3.478e+08   ,-2.5  ,1.9  ,4.9
6044  ,8.394e+08   ,0.1  ,2.5  ,0.1
6054  ,2.813e+08   ,2.4  ,0.1  ,0
6070  ,1.754e+08   ,-2.4  ,2.3  ,0
6071  ,2.100e+08   ,-2.3  ,2.4  ,0
6076  ,3.473e+08   ,-2.4  ,2.1  ,0
6083  ,6.229e+08   ,2.1  ,-2.4  ,0
6084  ,1.708e+08   ,2.4  ,2.3  ,0
6087  ,1.436e+08   ,2.3  ,2.4  ,0
6092  ,5.027e+08   ,-2.4  ,-2.5  ,0.4
6096  ,2.286e+08   ,-2.3  ,-2.5  ,0.1
6099  ,4.022e+08   ,0.7  ,-2.5  ,0.1
6149  ,3.648e+08   ,-2.4  ,-0.9  ,0
6159  ,4.420e+08   ,-2.5  ,-2.4  ,2.6
6183  ,1.472e+09   ,1.2462  ,2.5  ,4.9
6224  ,8.899e+08   ,2.5  ,-2.4  ,4
6228  ,6.400e+08   ,2.4  ,-2.5  ,3.8
6237  ,5.870e+08   ,2.5  ,0.7  ,0.1
6241  ,5.707e+09   ,2.5  ,2.3333  ,4.6998
6245  ,7.484e+08   ,2.5  ,2.4  ,1.5782
6259  ,1.174e+09   ,2.5  ,-2.1044  ,4.9
6265  ,9.307e+08   ,2.3  ,-1.9804  ,4.8
6267  ,1.259e+09   ,2.5  ,-2.3015  ,4.9
6268  ,1.142e+09   ,2.4707  ,-2.4  ,4.9707
6270  ,1.200e+09   ,2.4  ,-2.1044  ,5
6317  ,1.035e+09   ,-2.3  ,0.2278  ,4.8
6349  ,9.622e+08   ,-0.52764  ,2.4  ,5
6391  ,9.554e+08   ,2.4  ,2.5  ,1.7753
6440  ,4.648e+08   ,-2.5  ,2.4  ,3.8
6471  ,8.257e+08   ,2.5  ,-0.92182  ,4.9
6489  ,1.318e+09   ,2.5  ,1.2462  ,4.9
6523  ,3.544e+08   ,-1.1  ,-2.4  ,0
6528  ,3.315e+08   ,-1.1  ,-2.5  ,0.1
6535  ,2.440e+08   ,-0.9  ,-2.4  ,0
6538  ,8.617e+08   ,1.5  ,-2.4  ,5
6541  ,6.568e+08   ,1.5  ,-2.5  ,4.9
6551  ,7.873e+08   ,2.5  ,-0.72473  ,4.9
6564  ,1.119e+10   ,2.1331  ,2.4973  ,4.923
6565  ,5.744e+09   ,2.0345  ,2.5  ,4.9
6572  ,2.844e+08   ,2.4  ,-1.7  ,0
6581  ,1.270e+09   ,0  ,2.3  ,0.2
6592  ,4.528e+08   ,2.3  ,-1.9695  ,0.2
6594  ,6.126e+08   ,0.3  ,2.4  ,0
6601  ,7.319e+08   ,0.5  ,2.5  ,0.1
6605  ,1.770e+08   ,-2.4  ,-1.3  ,0
6606  ,2.586e+08   ,-2.4  ,-1.1  ,0
6615  ,6.837e+08   ,-2.4  ,-0.3  ,0
6634  ,8.537e+08   ,2.1  ,-2.5  ,4.9
6635  ,1.439e+09   ,2.4  ,-2.4707  ,4.9707
6636  ,1.642e+09   ,2.3  ,-2.4  ,5
6647  ,4.202e+08   ,0.5  ,-2.5  ,0.1
6704  ,8.119e+07   ,-2.4707  ,2.4707  ,0.1
6708  ,1.965e+08   ,-2.5  ,2.4  ,0.2
6712  ,4.403e+08   ,-2.4  ,2.5  ,3.6
6715  ,5.933e+08   ,-2.4  ,2.5  ,3.4
6728  ,5.217e+08   ,-2.5  ,0.7  ,4.9
6753  ,2.227e+08   ,-2.1044  ,2.4  ,5
6788  ,3.780e+09   ,2.5  ,2.4  ,4.3375
6791  ,1.032e+09   ,-1.933  ,-2.5  ,4.8
6795  ,5.630e+09   ,2.1998  ,2.5  ,4.8333
6837  ,2.227e+08   ,-2.3  ,-2.5  ,0.8063
6869  ,1.003e+09   ,2.5  ,-1.7102  ,4.9
6873  ,1.192e+09   ,2.4  ,-1.9073  ,5
6880  ,8.802e+08   ,2.4  ,-0.92182  ,5
6885  ,8.134e+08   ,2.4  ,-0.52764  ,5
6893  ,1.231e+09   ,2.4  ,1.2462  ,5
6914  ,7.449e+08   ,0.7  ,2.5  ,0.1
6920  ,5.703e+08   ,0.9  ,2.4  ,0
6923  ,6.659e+08   ,0.7  ,2.4  ,0
6936  ,5.465e+08   ,2.4  ,-2.5  ,3.4
6939  ,3.829e+08   ,2.3  ,-2.5  ,3.2226
6961  ,4.885e+08   ,-0.1  ,-2.5  ,4.9
6967  ,2.870e+08   ,-2.5  ,-1.5  ,4.9
6975  ,4.521e+08   ,-2.4  ,1.1  ,5
6978  ,3.044e+08   ,-2.4  ,2.5  ,0.2
6987  ,8.986e+08   ,2.4  ,-1.316  ,5
6994  ,3.034e+08   ,2.4  ,-1.5  ,0
7004  ,5.908e+08   ,2.4  ,-2.5  ,3.6
7011  ,9.808e+08   ,2.4  ,0.65491  ,5
7016  ,8.096e+08   ,2.4  ,0.45782  ,5
7019  ,9.340e+08   ,2.5  ,2.4  ,2.1695
7021  ,9.266e+08   ,2.5  ,2.4  ,1.9724
7052  ,7.040e+08   ,-1.3  ,2.5  ,0.1
7054  ,3.988e+08   ,-2.4  ,-2.5  ,0.8
7057  ,4.636e+08   ,0.3  ,-2.5  ,0.1
7065  ,1.912e+08   ,0.24243  ,-2.5  ,0.2
7075  ,2.242e+10   ,2.4888  ,2.4325  ,4.6656
7113  ,3.919e+08   ,-2.4  ,-2.5  ,2.6
7121  ,4.588e+08   ,-2.4  ,-2.5  ,2.8
7126  ,7.015e+08   ,-2.5  ,-2.4  ,2.8
7128  ,4.095e+08   ,-2.4707  ,-2.4707  ,0.1
7129  ,4.216e+08   ,-2.4  ,-2.4707  ,0.029289
7141  ,6.509e+08   ,-1.7  ,-2.4  ,5
7145  ,4.886e+08   ,1.1  ,2.4  ,0
7163  ,3.516e+08   ,-1.7102  ,2.4  ,5
7172  ,1.317e+09   ,2.5  ,-2.4  ,3.2
7174  ,4.937e+08   ,-2.5  ,2.4  ,3.6
7183  ,5.107e+08   ,-1.4531  ,-2.5  ,4.8
7204  ,1.815e+09   ,2.3  ,-0.81068  ,4.8
7220  ,8.744e+08   ,2.5  ,0.063638  ,4.9
7227  ,3.913e+08   ,2.5  ,-1.9  ,0.1
7256  ,4.159e+08   ,-0.1  ,-2.4  ,5
7280  ,9.219e+08   ,-0.33054  ,2.4  ,5
7299  ,8.632e+08   ,2.5  ,-1.1189  ,4.9
7316  ,5.881e+08   ,-2.5  ,-2.4  ,0.8
7323  ,3.706e+08   ,-2.4  ,-2.5  ,1
7396  ,1.269e+09   ,1.1  ,-2.4  ,5
7400  ,7.257e+08   ,-2.5  ,0.7  ,0.1
7409  ,1.177e+09   ,1.3  ,-2.4  ,5
7420  ,2.102e+08   ,2.5  ,2.1  ,0.1
7429  ,3.192e+08   ,2.4  ,1.9  ,0
7436  ,3.217e+08   ,2.5  ,-1.7  ,0.1
7438  ,5.482e+08   ,2.4  ,-2.5  ,2.8
7445  ,1.684e+10   ,2.4325  ,2.1656  ,4.9888
7464  ,2.529e+08   ,2.5  ,-1.5  ,0.1
7480  ,8.046e+08   ,2.5  ,-2.4  ,0.2
7482  ,4.815e+08   ,1.9  ,-2.5  ,0.1
7483  ,4.324e+08   ,1.7  ,-2.5  ,0.1
7486  ,4.126e+08   ,1.9  ,-2.4  ,5
7488  ,5.779e+08   ,1.6937  ,-2.5  ,4.8
7492  ,1.587e+09   ,2.1  ,-2.4  ,5
7495  ,4.418e+08   ,0.1  ,-2.5  ,0.1
7504  ,7.535e+08   ,0.3  ,-2.4  ,0
7507  ,2.502e+08   ,0.9  ,-2.5  ,0.1
7533  ,7.142e+08   ,-2.5  ,0.9  ,0.1
7536  ,3.724e+08   ,-2.4  ,-2.5  ,3.2
7540  ,4.452e+08   ,-2.4  ,-2.5  ,3
7545  ,8.827e+08   ,-2.5  ,-2.4  ,3
7582  ,3.202e+08   ,1.3  ,2.5  ,0.1
7588  ,1.024e+09   ,2.5  ,2.4  ,2.3665
7598  ,3.568e+08   ,-2.5  ,2.4  ,4.2
7607  ,9.198e+08   ,1.5333  ,2.3  ,0.2
7627  ,3.868e+08   ,-2.5  ,1.1  ,4.9
7651  ,3.758e+08   ,2.4  ,-1.9  ,0
7656  ,2.364e+08   ,2.5  ,2.4  ,0.39564
7660  ,6.743e+09   ,2.2299  ,2.3  ,4.7299
7668  ,1.905e+08   ,1.4531  ,-2.5  ,4.8
7676  ,5.337e+08   ,0.1  ,-2.5  ,4.9
7683  ,7.164e+08   ,0.1  ,-2.4  ,5
7686  ,3.008e+08   ,-2.4  ,-1.1  ,5
7702  ,3.122e+08   ,-2.3  ,-2.5  ,4.433
7710  ,8.220e+08   ,-2.3  ,-2.5  ,4.6765
7752  ,1.318e+09   ,0.9  ,-2.4  ,5
7763  ,1.500e+08   ,0.24243  ,-2.5  ,4.8
7767  ,1.058e+09   ,-2.5  ,-2.4  ,3.2
7768  ,2.936e+08   ,-2.4  ,-2.1  ,0
7776  ,7.501e+08   ,-2.4  ,0.9  ,0
7786  ,6.262e+08   ,-0.4838  ,-2.5  ,4.8
7800  ,1.545e+09   ,2.5  ,-2.4  ,4.6
7805  ,2.523e+08   ,-2.5  ,-1.3  ,4.9
7811  ,2.828e+08   ,-2.5  ,-1.1  ,4.9
7820  ,4.506e+08   ,2.5  ,-2.1  ,0.1
7824  ,4.168e+08   ,2.4  ,-2.1  ,0
7828  ,6.681e+08   ,2.4  ,-2.5  ,4.2
7831  ,6.483e+08   ,2.4  ,-2.5  ,4
7838  ,4.120e+08   ,2.5  ,-2.4  ,4.2
7839  ,1.097e+09   ,2.5  ,2.4  ,2.7607
7840  ,1.240e+09   ,2.5  ,2.4  ,2.9578
7863  ,1.414e+08   ,-2.4  ,-1.5  ,0
7890  ,4.266e+08   ,2.4  ,0.9  ,0
7897  ,4.420e+08   ,-2.4  ,-0.7  ,0
7912  ,5.482e+08   ,-1.5  ,-2.4  ,0
7917  ,3.472e+08   ,-1.3  ,-2.5  ,0.1
7931  ,6.045e+08   ,0.5  ,2.4  ,0
7934  ,1.182e+09   ,1.1  ,-2.4  ,0
7937  ,1.622e+08   ,2.4  ,-2.5  ,0.8
7941  ,4.498e+08   ,-2.4  ,-2.5  ,0.6
7969  ,1.428e+08   ,-2.5  ,2.3  ,0.1
7971  ,4.481e+08   ,-2.4  ,1.9  ,0
7972  ,5.933e+08   ,-1.9  ,2.5  ,0.1
7978  ,7.566e+08   ,-2.4  ,1.1  ,0
7996  ,2.802e+08   ,-2.4  ,-0.5  ,5
8000  ,4.515e+08   ,-2.5  ,-2.4  ,0.6
8003  ,4.108e+08   ,-2.5  ,-2.4  ,0.4
8025  ,5.979e+08   ,0.9  ,2.5  ,0.1
8035  ,7.513e+08   ,0.3  ,2.5  ,0.1
8039  ,1.434e+09   ,2.3  ,-2.5  ,0.32348
8041  ,6.977e+08   ,2.3  ,-2.3379  ,0.2
8043  ,8.568e+08   ,2.1765  ,-2.5  ,0.2
8045  ,2.956e+08   ,-0.96359  ,-2.5  ,0.2
8054  ,3.868e+08   ,1.3  ,2.4  ,0
8058  ,4.322e+08   ,1.1  ,2.5  ,0.1
8062  ,6.417e+08   ,-2.5  ,2.4  ,1.4
8067  ,5.275e+08   ,-2.5  ,2.4  ,0.8
8087  ,6.451e+08   ,-2.5  ,1.5  ,0.1
8132  ,9.952e+08   ,-0.13345  ,2.4  ,5
8183  ,3.139e+08   ,2.5  ,-0.9  ,0.1
8184  ,4.878e+08   ,1.6937  ,-2.5  ,0.2
8214  ,5.012e+08   ,-2.4707  ,-2.4  ,4.9707
8217  ,1.020e+09   ,-2.1  ,-2.4  ,5
8219  ,4.925e+08   ,-2.4  ,-2.5  ,4.4
8227  ,1.385e+09   ,2.5  ,2.4  ,3.1549
8242  ,5.713e+08   ,0.7  ,-2.5  ,4.9
8248  ,1.349e+09   ,2.5  ,-2.4  ,3.6
8254  ,2.015e+08   ,2.5  ,-0.3  ,0.1
8256  ,2.380e+08   ,2.5  ,-0.5  ,0.1
8258  ,4.507e+08   ,-0.3  ,-2.5  ,4.9
8263  ,2.887e+08   ,-0.5  ,-2.5  ,4.9
8268  ,7.498e+08   ,-2.3  ,-2.5  ,3.7085
8277  ,3.595e+08   ,-0.1  ,-2.5  ,0.1
8285  ,5.404e+08   ,1.1  ,-2.5  ,4.9
8307  ,6.033e+08   ,0.1  ,2.4  ,0
8308  ,3.466e+08   ,-0.1  ,2.5  ,0.1
8309  ,5.981e+08   ,-0.1  ,2.4  ,0
8313  ,4.964e+08   ,2.5  ,-2.3  ,0.1
8318  ,1.177e+09   ,2.5  ,-2.4  ,3
8338  ,1.279e+09   ,2.5  ,2.4  ,3.352
8339  ,1.318e+09   ,2.4  ,2.5  ,3.1549
8344  ,5.854e+08   ,-2.5  ,2.4  ,3.4
8357  ,1.619e+10   ,2.4888  ,2.1656  ,4.9325
8358  ,4.943e+09   ,2.5  ,2.1998  ,4.8333
8383  ,5.247e+08   ,-1.7  ,-2.4  ,0
8396  ,2.593e+08   ,1.1  ,-2.5  ,0.1
8399  ,5.695e+09   ,2.4526  ,2.1331  ,4.9851
8405  ,5.674e+08   ,2.5  ,-2.4  ,1
8412  ,6.991e+08   ,2.3  ,-2.5  ,0.8063
8417  ,3.552e+08   ,-2.3  ,-2.5  ,2.5
8434  ,3.365e+08   ,0.9636  ,-2.5  ,4.8
8438  ,2.787e+08   ,-0.3  ,-2.5  ,0.1
8452  ,3.300e+08   ,-2.4  ,-0.1  ,5
8468  ,1.615e+09   ,2.5  ,2.4  ,3.7462
8471  ,2.665e+08   ,-1.3  ,-2.5  ,4.9
8493  ,3.019e+08   ,-1.1  ,-2.5  ,4.9
8509  ,1.454e+08   ,-2.5  ,-1.7  ,0.1
8517  ,5.965e+08   ,-2.4  ,2.5  ,3
8531  ,5.469e+08   ,-2.4  ,1.7  ,0
8556  ,1.416e+09   ,2.5  ,2.4  ,3.5491
8573  ,7.027e+08   ,-1.316  ,2.4  ,5
8576  ,7.097e+08   ,-2.4  ,1.3  ,0
8611  ,1.487e+08   ,2.3  ,-2.5  ,1.2915
8618  ,3.170e+08   ,-2.4  ,2.5  ,4
8646  ,7.623e+08   ,-2.5  ,1.1  ,0.1
8656  ,3.293e+08   ,2.5  ,-1.3  ,0.1
8657  ,2.555e+08   ,2.4  ,2.1  ,0
8673  ,5.992e+08   ,-1.3  ,2.4  ,0
8692  ,3.637e+08   ,0.72263  ,-2.5  ,4.8
8696  ,4.850e+08   ,2.3  ,-2.5  ,1.0469
8706  ,9.669e+08   ,2.5  ,0.65491  ,4.9
8721  ,3.680e+08   ,-2.4  ,-2.5  ,1.6
8725  ,1.383e+09   ,0.65491  ,2.4  ,5
8739  ,1.883e+10   ,2.1656  ,2.4325  ,4.9888
8741  ,5.749e+09   ,2.1998  ,2.3333  ,5
8746  ,2.623e+08   ,-2.1  ,-2.4  ,0
8748  ,5.475e+08   ,-2.5  ,-2.4  ,1.2
8752  ,8.697e+09   ,2.1331  ,2.4526  ,4.9851
8759  ,3.509e+07   ,-2.3  ,-2.5  ,1.0469
8787  ,2.332e+08   ,-0.1  ,-2.4  ,0
8793  ,4.463e+08   ,-2.3  ,-2.5  ,2.2576
8795  ,3.037e+08   ,-2.4  ,-2.5  ,2.4
8798  ,4.238e+08   ,-2.3  ,-2.5  ,4.1937
8808  ,6.509e+08   ,-2.3  ,-2.5  ,3.9531
8814  ,4.648e+08   ,-2.4  ,-1.5  ,5
8849  ,2.627e+08   ,0.4838  ,-2.5  ,4.8
8851  ,4.762e+08   ,-2.4  ,-2.5  ,4.2
8868  ,5.764e+08   ,2.4  ,-2.5  ,3
8874  ,1.375e+09   ,0.852  ,2.4  ,5
8883  ,1.729e+08   ,-0.5  ,-2.4  ,5
8886  ,5.896e+08   ,-0.72262  ,-2.5  ,4.8
8893  ,1.790e+08   ,-0.7  ,-2.5  ,4.9
8897  ,1.233e+09   ,-2.5  ,-2.4  ,3.6
8899  ,6.989e+08   ,-2.3  ,-2.5  ,3.4636
8900  ,7.316e+07   ,-2.3  ,-1.4729  ,0.2
8906  ,1.663e+08   ,-2.5  ,-1.3  ,0.1
8910  ,1.273e+09   ,0.852  ,2.5  ,4.9
8925  ,7.056e+08   ,-2.4  ,2.5  ,1.4
8941  ,1.118e+08   ,2.4707  ,2.4  ,0.029289
8942  ,1.621e+08   ,2.5  ,2.3  ,0.1
8945  ,4.264e+08   ,-2.5  ,0.1  ,4.9
8950  ,1.037e+08   ,2.4707  ,2.4707  ,0.1
8951  ,9.534e+07   ,2.4  ,2.4707  ,0.029289
8959  ,7.396e+08   ,2.4  ,0.26073  ,5
8965  ,1.206e+09   ,0.45782  ,2.4  ,5
8978  ,8.697e+08   ,2.4  ,0.852  ,5
8983  ,2.936e+08   ,2.5  ,-1.1  ,0.1
8991  ,4.551e+08   ,-2.5  ,2.4  ,0.6
9008  ,8.519e+08   ,2.5  ,0.852  ,4.9
9011  ,5.418e+08   ,-2.4  ,-0.5  ,0
9025  ,3.332e+08   ,-1.5  ,-2.5  ,0.1
9038  ,2.837e+08   ,2.4  ,-2.5  ,2
9041  ,5.343e+08   ,2.5  ,0.9  ,0.1
9050  ,4.571e+08   ,2.5  ,0.5  ,0.1
9054  ,1.147e+09   ,0.9  ,-2.4  ,0
9060  ,2.951e+08   ,2.4  ,-2.5  ,0.4
9062  ,1.054e+09   ,2.3  ,-2.5  ,0.56701
9064  ,9.673e+08   ,2.5  ,-2.4  ,0.4
9069  ,2.040e+08   ,2.4  ,-2.5  ,0.6
9071  ,7.053e+08   ,1.4531  ,-2.5  ,0.2
9082  ,2.046e+08   ,-2.3  ,-2.5  ,1.2915
9086  ,4.082e+08   ,-2.4  ,-2.5  ,1.4
9091  ,4.543e+08   ,-2.5  ,-2.4  ,1.4
9094  ,5.612e+08   ,1.3  ,-2.5  ,4.9
9097  ,2.706e+08   ,-0.7  ,-2.5  ,0.1
9137  ,2.432e+08   ,-2.5  ,-0.7  ,4.9
9143  ,2.878e+08   ,-2.5  ,-0.1  ,4.9
9146  ,3.660e+08   ,-2.1  ,2.4  ,0
9148  ,3.544e+08   ,-2.5  ,1.7  ,4.9
9173  ,5.824e+08   ,-2.5  ,2.4  ,3
9192  ,1.985e+08   ,-0.7  ,-2.4  ,5
9195  ,5.595e+08   ,0.72263  ,-2.5  ,0.2
9209  ,1.377e+09   ,2.5  ,-2.4  ,3.4
9215  ,7.652e+08   ,0.9636  ,-2.5  ,0.2
9217  ,5.717e+08   ,2.4  ,-2.5  ,3.2
9218  ,3.361e+08   ,-0.96359  ,-2.5  ,4.8
9229  ,6.145e+08   ,-2.4  ,2.5  ,2.8
9248  ,1.214e+09   ,2.3  ,-2.5  ,4.433
9255  ,4.152e+08   ,2.5  ,1.3  ,0.1
9257  ,2.794e+08   ,2.4  ,1.5  ,0
9262  ,1.213e+09   ,0.5  ,-2.4  ,5
9264  ,6.783e+08   ,2.4  ,-0.13345  ,5
9272  ,9.791e+08   ,0.063638  ,2.4  ,5
9277  ,6.512e+08   ,-2.5  ,2.4  ,1.2
9279  ,8.125e+08   ,2.5  ,0.26073  ,4.9
9282  ,2.672e+08   ,1.2085  ,-2.5  ,4.8
9286  ,5.321e+08   ,0.9  ,-2.5  ,4.9
9292  ,1.222e+08   ,-2.4  ,2.4707  ,4.9707
9293  ,1.523e+08   ,-2.3015  ,2.4  ,5
9296  ,4.505e+08   ,-2.4  ,-2.1  ,5
9303  ,4.418e+08   ,-2.4  ,-1.9  ,5
9311  ,1.437e+08   ,-2.4  ,2.3  ,5
9313  ,3.850e+08   ,-2.4  ,0.1  ,5
9319  ,9.547e+07   ,-0.5  ,-2.4  ,0
9328  ,3.178e+08   ,-2.3  ,-2.5  ,1.5364
9334  ,3.123e+08   ,-2.3  ,2.5  ,0.1
9338  ,2.057e+08   ,-2.5  ,-2.4  ,2.4
9339  ,7.073e+08   ,-2.5  ,1.3  ,0.1
9341  ,2.050e+08   ,-2.3  ,-2.5  ,2.7424
9344  ,1.410e+08   ,-2.5  ,-2.4  ,2.2
9358  ,1.746e+09   ,-2.3  ,2.3  ,2.5
9364  ,4.691e+08   ,-2.5  ,-2.1  ,4.9
9367  ,5.742e+08   ,-2.4  ,-2.3  ,5
9374  ,3.538e+08   ,-2.4  ,-1.3  ,5
9378  ,5.775e+08   ,-2.5  ,2.4  ,1.8
9384  ,5.903e+08   ,2.3  ,-2.5  ,2.0162
9385  ,3.142e+08   ,-2.5  ,2.4  ,4.4
9389  ,5.697e+08   ,-2.5  ,2.4  ,2
9395  ,1.191e+09   ,2.4  ,-2.3015  ,5
9396  ,1.422e+08   ,-2.4  ,-1.7  ,0
9407  ,5.863e+08   ,-2.3  ,-1.4729  ,4.8
9411  ,2.902e+08   ,-2.5  ,-1.7  ,4.9
9423  ,2.890e+08   ,-2.4  ,-2.5  ,3.6
9432  ,1.360e+09   ,0.7  ,-2.4  ,5
9438  ,2.618e+08   ,-2.5  ,-0.9  ,4.9
9443  ,2.415e+08   ,-2.5  ,-0.3  ,4.9
9445  ,1.096e+08   ,-2.4707  ,2.4  ,4.9707
9448  ,8.359e+08   ,2.4  ,-1.1189  ,5
9453  ,4.945e+08   ,2.4  ,0.7  ,0
9455  ,6.635e+08   ,2.5  ,-2.4  ,2.6
9457  ,2.325e+08   ,2.3  ,-2.5  ,2.9838
9494  ,6.860e+08   ,-2.4  ,2.5  ,1
9500  ,5.365e+08   ,0.3  ,-2.5  ,4.9
9504  ,9.988e+08   ,0.3  ,-2.4  ,5
9506  ,5.462e+08   ,2.1  ,-2.5  ,0.1
9518  ,4.303e+08   ,-1.9  ,-2.5  ,0.1
9528  ,4.682e+08   ,2.3  ,-2.5  ,0.1
9531  ,7.871e+08   ,2.4707  ,-2.4707  ,0.1
9533  ,5.004e+08   ,2.4707  ,-2.4  ,0.029289
9534  ,6.255e+08   ,2.4  ,-2.4707  ,0.029289
9541  ,5.803e+08   ,0.5  ,-2.5  ,4.9
9544  ,2.596e+08   ,-0.5  ,-2.5  ,0.1
9559  ,3.646e+08   ,-2.5  ,-1.9  ,4.9
9562  ,2.826e+08   ,-2.5  ,2.4  ,4.6
9565  ,5.908e+08   ,-2.4  ,2.5  ,2
9571  ,1.211e+09   ,-2.5  ,-2.4  ,3.8
9574  ,3.349e+08   ,-2.4  ,-2.5  ,3.8
9577  ,3.411e+08   ,1.3  ,-2.5  ,0.1
9582  ,3.640e+08   ,-2.5  ,-0.9  ,0.1
9596  ,2.360e+08   ,2.1  ,2.4  ,0
9598  ,6.921e+08   ,-2.4  ,2.5  ,3.2
9602  ,3.098e+08   ,1.5  ,2.5  ,0.1
9610  ,2.365e+08   ,2.4  ,2.5  ,0.39564
9612  ,9.989e+08   ,-0.72473  ,2.5  ,4.9
9614  ,3.192e+08   ,1.7  ,2.5  ,0.1
9635  ,3.551e+08   ,2.5  ,1.7  ,0.1
9646  ,1.739e+08   ,2.3  ,2.5  ,0.1
9651  ,1.768e+10   ,2.1656  ,2.4888  ,4.9325
9653  ,8.653e+08   ,2.5  ,-1.316  ,4.9
9656  ,3.279e+08   ,-2.4  ,-1.7  ,5
9659  ,2.327e+09   ,2.3  ,-2.5  ,4.6765
9661  ,1.925e+08   ,2.3  ,-2.5  ,3.9531
9664  ,7.833e+08   ,-2.3  ,-2.4  ,5
9666  ,4.581e+08   ,1.9  ,-2.4  ,0
9677  ,4.394e+08   ,2.4  ,0.5  ,0
9678  ,2.699e+08   ,-2.5  ,-1.1  ,0.1
9680  ,6.581e+08   ,2.5  ,2.4  ,1.184
9681  ,1.275e+08   ,2.5  ,2.4  ,0.19855
9696  ,4.888e+08   ,-2.3  ,-2.5  ,2.0162
9698  ,5.393e+08   ,2.4  ,-2.3  ,0
9699  ,4.864e+08   ,-0.24243  ,-2.5  ,0.2
9701  ,4.873e+08   ,0.1  ,-2.4  ,0
9704  ,4.849e+08   ,-0.4838  ,-2.5  ,0.2
9718  ,3.944e+08   ,-0.72262  ,-2.5  ,0.2
9726  ,9.414e+08   ,2.3  ,-0.76628  ,0.2
9727  ,3.830e+08   ,-2.5  ,2.4  ,0.4
9730  ,3.148e+08   ,1.9433E-06  ,-2.5  ,4.8
9731  ,4.995e+08   ,-0.24243  ,-2.5  ,4.8
9732  ,5.077e+08   ,-2.5  ,2.4  ,2.2
9738  ,1.054e+09   ,-2.5  ,-2.4  ,4
9743  ,7.107e+08   ,-1.6937  ,-2.5  ,4.8
9744  ,4.208e+08   ,-2.4  ,-2.5  ,4
9750  ,3.401e+08   ,-1.7  ,-2.5  ,0.1
9752  ,1.123e+08   ,-1.6937  ,-2.5  ,0.2
9754  ,4.637e+08   ,-1.3  ,-2.4  ,0
9759  ,7.144e+07   ,-2.4707  ,2.4  ,0.029289
9760  ,6.384e+07   ,-2.4  ,2.4707  ,0.029289
9768  ,6.075e+08   ,2.3  ,-2.5  ,4.1937
9770  ,3.774e+08   ,1.9433E-06  ,-2.5  ,0.2
9771  ,3.157e+08   ,0.4838  ,-2.5  ,0.2
9772  ,3.149e+08   ,2.4  ,-2.5  ,0.2
9773  ,8.621e+08   ,2.4  ,-2.5  ,4.6
9776  ,6.878e+08   ,2.4  ,0.063638  ,5
9780  ,1.326e+09   ,0.65491  ,2.5  ,4.9
9781  ,1.600e+08   ,2.4  ,2.5  ,0.19855
9782  ,2.961e+08   ,-2.3  ,-2.5  ,2.9838
9786  ,2.089e+08   ,-1.2085  ,-2.5  ,0.2
9787  ,7.370e+07   ,-1.4531  ,-2.5  ,0.2
9790  ,6.471e+08   ,2.3  ,-2.4  ,0
9793  ,5.719e+09   ,2.0345  ,2.4  ,5
9797  ,3.675e+08   ,2.3  ,-2.5  ,1.5364
9798  ,1.011e+09   ,2.4  ,1.0491  ,5
9809  ,1.296e+09   ,2.4  ,2.5  ,3.352
