Date:  11:28, Monday, July 10, 2023
Model name: Hollow_DropBox
Study name: Drop Test_hollow_draft1(-Default-)
Plot type:  Stress1
Plot step: 22   time : 115.434 Microseconds
Result Type: von Mises 


Node  ,Value (N/m^2)  ,X (in)  ,Y (in)  ,Z (in)
1  ,3.116e+09   ,2.5  ,2.1331  ,4.9
2  ,1.420e+10   ,2.4577  ,2.1908  ,4.9577
3  ,4.288e+09   ,2.4894  ,2.1331  ,4.9447
4  ,5.611e+09   ,2.1331  ,2.5  ,4.9
5  ,1.165e+10   ,2.1331  ,2.4894  ,4.9447
6  ,1.937e+10   ,2.1908  ,2.4577  ,4.9577
7  ,1.049e+08   ,-2.4  ,2.4  ,5
8  ,1.206e+09   ,-2.4  ,-2.4  ,5
9  ,1.909e+09   ,2.4  ,-2.4  ,5
10  ,3.033e+09   ,2.4  ,2.1331  ,5
11  ,5.085e+09   ,2.1331  ,2.4  ,5
12  ,2.068e+09   ,2.5  ,-2.4  ,4.9
13  ,1.108e+09   ,2.5  ,-2.4  ,0.1
14  ,1.239e+08   ,2.5  ,2.4  ,0.1
15  ,5.403e+09   ,2.5  ,2.4  ,4.6331
16  ,1.136e+08   ,2.4  ,2.5  ,0.1
17  ,2.950e+08   ,-2.4  ,2.5  ,0.1
18  ,1.047e+08   ,-2.4  ,2.5  ,4.9
19  ,5.787e+09   ,2.4  ,2.5  ,4.6331
20  ,1.513e+08   ,-2.5  ,2.4  ,0.1
21  ,9.615e+07   ,-2.5  ,-2.4  ,0.1
22  ,8.394e+08   ,-2.5  ,-2.4  ,4.9
23  ,1.386e+08   ,-2.5  ,2.4  ,4.9
24  ,5.730e+08   ,-2.3  ,-2.5  ,0.2
25  ,9.183e+08   ,-2.3  ,-2.5  ,4.8
26  ,1.735e+09   ,2.3  ,-2.5  ,4.8
27  ,9.232e+08   ,2.3  ,-2.5  ,0.2
28  ,1.048e+09   ,-2.4  ,-2.5  ,4.9
29  ,2.115e+09   ,2.4  ,-2.5  ,4.9
30  ,1.075e+08   ,-2.4  ,-2.5  ,0.1
31  ,1.046e+09   ,2.4  ,-2.5  ,0.1
32  ,9.018e+08   ,2.4  ,-2.4  ,0
33  ,1.737e+08   ,2.4  ,2.4  ,0
34  ,1.603e+08   ,-2.4  ,-2.4  ,0
35  ,1.738e+08   ,-2.4  ,2.4  ,0
36  ,2.188e+10   ,2.4577  ,2.4577  ,4.6908
37  ,2.927e+08   ,-2.3  ,2.3  ,4.8
38  ,5.807e+09   ,2.1599  ,2.3  ,4.8
39  ,5.010e+09   ,2.3  ,2.1599  ,4.8
40  ,5.523e+09   ,2.3  ,2.3  ,4.6599
41  ,3.314e+08   ,2.3  ,2.3  ,0.2
42  ,3.210e+08   ,-2.3  ,2.3  ,0.2
43  ,3.482e+08   ,-2.4  ,2.2  ,5
44  ,4.512e+08   ,-2.4  ,2  ,5
45  ,4.394e+08   ,-2.4  ,1.8  ,5
46  ,4.640e+08   ,-2.4  ,1.6  ,5
47  ,4.917e+08   ,-2.4  ,1.4  ,5
48  ,5.566e+08   ,-2.4  ,1.2  ,5
49  ,6.661e+08   ,-2.4  ,1  ,5
50  ,8.289e+08   ,-2.4  ,0.8  ,5
51  ,5.488e+08   ,-2.4  ,0.6  ,5
52  ,5.033e+08   ,-2.4  ,0.4  ,5
53  ,5.747e+08   ,-2.4  ,0.2  ,5
54  ,5.484e+08   ,-2.4  ,5.8879E-16  ,5
55  ,4.230e+08   ,-2.4  ,-0.2  ,5
56  ,2.790e+08   ,-2.4  ,-0.4  ,5
57  ,2.028e+08   ,-2.4  ,-0.6  ,5
58  ,2.034e+08   ,-2.4  ,-0.8  ,5
59  ,2.826e+08   ,-2.4  ,-1  ,5
60  ,2.962e+08   ,-2.4  ,-1.2  ,5
61  ,6.184e+08   ,-2.4  ,-1.4  ,5
62  ,5.672e+08   ,-2.4  ,-1.6  ,5
63  ,5.636e+08   ,-2.4  ,-1.8  ,5
64  ,7.599e+08   ,-2.4  ,-2  ,5
65  ,6.733e+08   ,-2.4  ,-2.2  ,5
66  ,1.492e+09   ,-2.2  ,-2.4  ,5
67  ,1.005e+09   ,-2  ,-2.4  ,5
68  ,7.972e+08   ,-1.8  ,-2.4  ,5
69  ,6.217e+08   ,-1.6  ,-2.4  ,5
70  ,5.569e+08   ,-1.4  ,-2.4  ,5
71  ,5.027e+08   ,-1.2  ,-2.4  ,5
72  ,4.194e+08   ,-1  ,-2.4  ,5
73  ,3.918e+08   ,-0.8  ,-2.4  ,5
74  ,4.464e+08   ,-0.6  ,-2.4  ,5
75  ,6.805e+08   ,-0.4  ,-2.4  ,5
76  ,8.671e+08   ,-0.2  ,-2.4  ,5
77  ,1.185e+09   ,-5.8879E-16  ,-2.4  ,5
78  ,1.305e+09   ,0.2  ,-2.4  ,5
79  ,1.372e+09   ,0.4  ,-2.4  ,5
80  ,1.598e+09   ,0.6  ,-2.4  ,5
81  ,1.491e+09   ,0.8  ,-2.4  ,5
82  ,1.338e+09   ,1  ,-2.4  ,5
83  ,1.081e+09   ,1.2  ,-2.4  ,5
84  ,6.887e+08   ,1.4  ,-2.4  ,5
85  ,3.352e+08   ,1.6  ,-2.4  ,5
86  ,1.097e+09   ,1.8  ,-2.4  ,5
87  ,1.696e+09   ,2  ,-2.4  ,5
88  ,3.417e+09   ,2.2  ,-2.4  ,5
89  ,1.702e+09   ,2.4  ,-2.2029  ,5
90  ,1.852e+09   ,2.4  ,-2.0058  ,5
91  ,1.368e+09   ,2.4  ,-1.8087  ,5
92  ,1.282e+09   ,2.4  ,-1.6116  ,5
93  ,1.404e+09   ,2.4  ,-1.4145  ,5
94  ,1.213e+09   ,2.4  ,-1.2175  ,5
95  ,1.296e+09   ,2.4  ,-1.0204  ,5
96  ,1.260e+09   ,2.4  ,-0.82327  ,5
97  ,1.287e+09   ,2.4  ,-0.62618  ,5
98  ,1.099e+09   ,2.4  ,-0.42909  ,5
99  ,1.000e+09   ,2.4  ,-0.232  ,5
100  ,8.640e+08   ,2.4  ,-0.034907  ,5
101  ,7.788e+08   ,2.4  ,0.16218  ,5
102  ,7.012e+08   ,2.4  ,0.35927  ,5
103  ,8.401e+08   ,2.4  ,0.55637  ,5
104  ,7.999e+08   ,2.4  ,0.75346  ,5
105  ,7.145e+08   ,2.4  ,0.95055  ,5
106  ,8.076e+08   ,2.4  ,1.1476  ,5
107  ,1.152e+09   ,2.4  ,1.3447  ,5
108  ,1.599e+09   ,2.4  ,1.5418  ,5
109  ,2.033e+09   ,2.4  ,1.7389  ,5
110  ,3.019e+09   ,2.4  ,1.936  ,5
111  ,4.255e+09   ,2.2665  ,2.2665  ,5
112  ,3.917e+09   ,1.936  ,2.4  ,5
113  ,2.405e+09   ,1.7389  ,2.4  ,5
114  ,1.863e+09   ,1.5418  ,2.4  ,5
115  ,1.337e+09   ,1.3447  ,2.4  ,5
116  ,1.045e+09   ,1.1476  ,2.4  ,5
117  ,1.045e+09   ,0.95055  ,2.4  ,5
118  ,1.018e+09   ,0.75346  ,2.4  ,5
119  ,9.480e+08   ,0.55637  ,2.4  ,5
120  ,7.241e+08   ,0.35927  ,2.4  ,5
121  ,6.660e+08   ,0.16218  ,2.4  ,5
122  ,7.381e+08   ,-0.034907  ,2.4  ,5
123  ,8.817e+08   ,-0.232  ,2.4  ,5
124  ,8.429e+08   ,-0.42909  ,2.4  ,5
125  ,7.321e+08   ,-0.62618  ,2.4  ,5
126  ,1.106e+09   ,-0.82327  ,2.4  ,5
127  ,1.200e+09   ,-1.0204  ,2.4  ,5
128  ,1.165e+09   ,-1.2175  ,2.4  ,5
129  ,9.477e+08   ,-1.4145  ,2.4  ,5
130  ,7.124e+08   ,-1.6116  ,2.4  ,5
131  ,4.698e+08   ,-1.8087  ,2.4  ,5
132  ,3.548e+08   ,-2.0058  ,2.4  ,5
133  ,2.653e+08   ,-2.2029  ,2.4  ,5
294  ,1.463e+09   ,2.5  ,-2.2029  ,4.9
295  ,1.789e+09   ,2.5  ,-2.0058  ,4.9
296  ,1.363e+09   ,2.5  ,-1.8087  ,4.9
297  ,1.429e+09   ,2.5  ,-1.6116  ,4.9
298  ,1.198e+09   ,2.5  ,-1.4145  ,4.9
299  ,1.221e+09   ,2.5  ,-1.2175  ,4.9
300  ,1.383e+09   ,2.5  ,-1.0204  ,4.9
301  ,1.039e+09   ,2.5  ,-0.82327  ,4.9
302  ,1.159e+09   ,2.5  ,-0.62618  ,4.9
303  ,1.132e+09   ,2.5  ,-0.42909  ,4.9
304  ,1.239e+09   ,2.5  ,-0.232  ,4.9
305  ,1.333e+09   ,2.5  ,-0.034907  ,4.9
306  ,9.295e+08   ,2.5  ,0.16218  ,4.9
307  ,7.669e+08   ,2.5  ,0.35927  ,4.9
308  ,7.872e+08   ,2.5  ,0.55637  ,4.9
309  ,7.217e+08   ,2.5  ,0.75346  ,4.9
310  ,8.216e+08   ,2.5  ,0.95055  ,4.9
311  ,1.004e+09   ,2.5  ,1.1476  ,4.9
312  ,1.258e+09   ,2.5  ,1.3447  ,4.9
313  ,1.596e+09   ,2.5  ,1.5418  ,4.9
314  ,2.232e+09   ,2.5  ,1.7389  ,4.9
315  ,3.124e+09   ,2.5  ,1.936  ,4.9
316  ,3.395e+09   ,2.5  ,-2.4  ,4.7
317  ,1.619e+09   ,2.5  ,-2.4  ,4.5
318  ,1.150e+09   ,2.5  ,-2.4  ,4.3
319  ,3.959e+08   ,2.5  ,-2.4  ,4.1
320  ,6.089e+08   ,2.5  ,-2.4  ,3.9
321  ,9.757e+08   ,2.5  ,-2.4  ,3.7
322  ,1.339e+09   ,2.5  ,-2.4  ,3.5
323  ,1.537e+09   ,2.5  ,-2.4  ,3.3
324  ,1.551e+09   ,2.5  ,-2.4  ,3.1
325  ,1.363e+09   ,2.5  ,-2.4  ,2.9
326  ,1.268e+09   ,2.5  ,-2.4  ,2.7
327  ,1.111e+09   ,2.5  ,-2.4  ,2.5
328  ,8.462e+08   ,2.5  ,-2.4  ,2.3
329  ,7.092e+08   ,2.5  ,-2.4  ,2.1
330  ,4.885e+08   ,2.5  ,-2.4  ,1.9
331  ,3.477e+08   ,2.5  ,-2.4  ,1.7
332  ,3.363e+08   ,2.5  ,-2.4  ,1.5
333  ,4.089e+08   ,2.5  ,-2.4  ,1.3
334  ,4.842e+08   ,2.5  ,-2.4  ,1.1
335  ,5.774e+08   ,2.5  ,-2.4  ,0.9
336  ,8.252e+08   ,2.5  ,-2.4  ,0.7
337  ,1.012e+09   ,2.5  ,-2.4  ,0.5
338  ,1.364e+09   ,2.5  ,-2.4  ,0.3
339  ,6.694e+08   ,2.5  ,-2.2  ,0.1
340  ,7.305e+08   ,2.5  ,-2  ,0.1
341  ,5.340e+08   ,2.5  ,-1.8  ,0.1
342  ,5.262e+08   ,2.5  ,-1.6  ,0.1
343  ,3.918e+08   ,2.5  ,-1.4  ,0.1
344  ,3.342e+08   ,2.5  ,-1.2  ,0.1
345  ,3.001e+08   ,2.5  ,-1  ,0.1
346  ,1.883e+08   ,2.5  ,-0.8  ,0.1
347  ,1.918e+08   ,2.5  ,-0.6  ,0.1
348  ,2.201e+08   ,2.5  ,-0.4  ,0.1
349  ,3.461e+08   ,2.5  ,-0.2  ,0.1
350  ,4.169e+08   ,2.5  ,-1.7664E-15  ,0.1
351  ,4.244e+08   ,2.5  ,0.2  ,0.1
352  ,4.773e+08   ,2.5  ,0.4  ,0.1
353  ,6.460e+08   ,2.5  ,0.6  ,0.1
354  ,8.069e+08   ,2.5  ,0.8  ,0.1
355  ,5.872e+08   ,2.5  ,1  ,0.1
356  ,5.771e+08   ,2.5  ,1.2  ,0.1
357  ,4.794e+08   ,2.5  ,1.4  ,0.1
358  ,4.504e+08   ,2.5  ,1.6  ,0.1
359  ,3.719e+08   ,2.5  ,1.8  ,0.1
360  ,3.658e+08   ,2.5  ,2  ,0.1
361  ,3.660e+08   ,2.5  ,2.2  ,0.1
362  ,3.942e+09   ,2.5  ,2.4  ,4.436
363  ,2.632e+09   ,2.5  ,2.4  ,4.2389
364  ,1.759e+09   ,2.5  ,2.4  ,4.0418
365  ,1.504e+09   ,2.5  ,2.4  ,3.8447
366  ,1.127e+09   ,2.5  ,2.4  ,3.6476
367  ,9.511e+08   ,2.5  ,2.4  ,3.4505
368  ,9.720e+08   ,2.5  ,2.4  ,3.2535
369  ,9.507e+08   ,2.5  ,2.4  ,3.0564
370  ,8.536e+08   ,2.5  ,2.4  ,2.8593
371  ,7.775e+08   ,2.5  ,2.4  ,2.6622
372  ,8.846e+08   ,2.5  ,2.4  ,2.4651
373  ,9.108e+08   ,2.5  ,2.4  ,2.268
374  ,1.001e+09   ,2.5  ,2.4  ,2.0709
375  ,9.578e+08   ,2.5  ,2.4  ,1.8738
376  ,1.113e+09   ,2.5  ,2.4  ,1.6767
377  ,8.766e+08   ,2.5  ,2.4  ,1.4796
378  ,9.369e+08   ,2.5  ,2.4  ,1.2825
379  ,9.306e+08   ,2.5  ,2.4  ,1.0855
380  ,8.597e+08   ,2.5  ,2.4  ,0.88836
381  ,6.889e+08   ,2.5  ,2.4  ,0.69127
382  ,4.415e+08   ,2.5  ,2.4  ,0.49418
383  ,2.122e+08   ,2.5  ,2.4  ,0.29709
384  ,4.194e+09   ,2.5  ,2.2665  ,4.7665
544  ,3.555e+08   ,2.2  ,2.5  ,0.1
545  ,5.255e+08   ,2  ,2.5  ,0.1
546  ,5.262e+08   ,1.8  ,2.5  ,0.1
547  ,5.926e+08   ,1.6  ,2.5  ,0.1
548  ,4.994e+08   ,1.4  ,2.5  ,0.1
549  ,6.423e+08   ,1.2  ,2.5  ,0.1
550  ,7.265e+08   ,1  ,2.5  ,0.1
551  ,1.024e+09   ,0.8  ,2.5  ,0.1
552  ,8.291e+08   ,0.6  ,2.5  ,0.1
553  ,4.996e+08   ,0.4  ,2.5  ,0.1
554  ,4.463e+08   ,0.2  ,2.5  ,0.1
555  ,2.612e+08   ,5.8879E-16  ,2.5  ,0.1
556  ,4.908e+08   ,-0.2  ,2.5  ,0.1
557  ,4.953e+08   ,-0.4  ,2.5  ,0.1
558  ,4.867e+08   ,-0.6  ,2.5  ,0.1
559  ,7.136e+08   ,-0.8  ,2.5  ,0.1
560  ,7.525e+08   ,-1  ,2.5  ,0.1
561  ,8.377e+08   ,-1.2  ,2.5  ,0.1
562  ,7.947e+08   ,-1.4  ,2.5  ,0.1
563  ,8.058e+08   ,-1.6  ,2.5  ,0.1
564  ,7.801e+08   ,-1.8  ,2.5  ,0.1
565  ,7.169e+08   ,-2  ,2.5  ,0.1
566  ,5.568e+08   ,-2.2  ,2.5  ,0.1
567  ,3.536e+08   ,-2.4  ,2.5  ,4.7
568  ,5.081e+08   ,-2.4  ,2.5  ,4.5
569  ,5.025e+08   ,-2.4  ,2.5  ,4.3
570  ,5.702e+08   ,-2.4  ,2.5  ,4.1
571  ,4.908e+08   ,-2.4  ,2.5  ,3.9
572  ,5.315e+08   ,-2.4  ,2.5  ,3.7
573  ,6.894e+08   ,-2.4  ,2.5  ,3.5
574  ,9.753e+08   ,-2.4  ,2.5  ,3.3
575  ,7.328e+08   ,-2.4  ,2.5  ,3.1
576  ,5.683e+08   ,-2.4  ,2.5  ,2.9
577  ,5.497e+08   ,-2.4  ,2.5  ,2.7
578  ,3.823e+08   ,-2.4  ,2.5  ,2.5
579  ,3.897e+08   ,-2.4  ,2.5  ,2.3
580  ,4.584e+08   ,-2.4  ,2.5  ,2.1
581  ,4.826e+08   ,-2.4  ,2.5  ,1.9
582  ,6.904e+08   ,-2.4  ,2.5  ,1.7
583  ,7.132e+08   ,-2.4  ,2.5  ,1.5
584  ,8.050e+08   ,-2.4  ,2.5  ,1.3
585  ,8.084e+08   ,-2.4  ,2.5  ,1.1
586  ,8.153e+08   ,-2.4  ,2.5  ,0.9
587  ,7.580e+08   ,-2.4  ,2.5  ,0.7
588  ,6.946e+08   ,-2.4  ,2.5  ,0.5
589  ,5.777e+08   ,-2.4  ,2.5  ,0.3
590  ,4.484e+09   ,1.936  ,2.5  ,4.9
591  ,2.197e+09   ,1.7389  ,2.5  ,4.9
592  ,1.656e+09   ,1.5418  ,2.5  ,4.9
593  ,1.298e+09   ,1.3447  ,2.5  ,4.9
594  ,1.013e+09   ,1.1476  ,2.5  ,4.9
595  ,1.033e+09   ,0.95055  ,2.5  ,4.9
596  ,1.069e+09   ,0.75346  ,2.5  ,4.9
597  ,9.281e+08   ,0.55637  ,2.5  ,4.9
598  ,8.458e+08   ,0.35927  ,2.5  ,4.9
599  ,6.402e+08   ,0.16218  ,2.5  ,4.9
600  ,6.520e+08   ,-0.034907  ,2.5  ,4.9
601  ,7.079e+08   ,-0.232  ,2.5  ,4.9
602  ,1.166e+09   ,-0.42909  ,2.5  ,4.9
603  ,1.208e+09   ,-0.62618  ,2.5  ,4.9
604  ,1.198e+09   ,-0.82327  ,2.5  ,4.9
605  ,1.380e+09   ,-1.0204  ,2.5  ,4.9
606  ,1.221e+09   ,-1.2175  ,2.5  ,4.9
607  ,9.634e+08   ,-1.4145  ,2.5  ,4.9
608  ,8.238e+08   ,-1.6116  ,2.5  ,4.9
609  ,6.044e+08   ,-1.8087  ,2.5  ,4.9
610  ,4.302e+08   ,-2.0058  ,2.5  ,4.9
611  ,2.432e+08   ,-2.2029  ,2.5  ,4.9
612  ,5.637e+09   ,2.2665  ,2.5  ,4.7665
613  ,3.856e+09   ,2.4  ,2.5  ,4.436
614  ,2.462e+09   ,2.4  ,2.5  ,4.2389
615  ,1.700e+09   ,2.4  ,2.5  ,4.0418
616  ,1.374e+09   ,2.4  ,2.5  ,3.8447
617  ,1.087e+09   ,2.4  ,2.5  ,3.6476
618  ,9.808e+08   ,2.4  ,2.5  ,3.4505
619  ,1.005e+09   ,2.4  ,2.5  ,3.2535
620  ,9.185e+08   ,2.4  ,2.5  ,3.0564
621  ,7.910e+08   ,2.4  ,2.5  ,2.8593
622  ,7.369e+08   ,2.4  ,2.5  ,2.6622
623  ,7.493e+08   ,2.4  ,2.5  ,2.4651
624  ,7.407e+08   ,2.4  ,2.5  ,2.268
625  ,8.382e+08   ,2.4  ,2.5  ,2.0709
626  ,9.552e+08   ,2.4  ,2.5  ,1.8738
627  ,1.141e+09   ,2.4  ,2.5  ,1.6767
628  ,1.298e+09   ,2.4  ,2.5  ,1.4796
629  ,1.387e+09   ,2.4  ,2.5  ,1.2825
630  ,9.694e+08   ,2.4  ,2.5  ,1.0855
631  ,7.763e+08   ,2.4  ,2.5  ,0.88836
632  ,5.839e+08   ,2.4  ,2.5  ,0.69127
633  ,4.762e+08   ,2.4  ,2.5  ,0.49418
634  ,2.768e+08   ,2.4  ,2.5  ,0.29709
796  ,3.286e+08   ,-2.5  ,2.2  ,0.1
797  ,4.617e+08   ,-2.5  ,2  ,0.1
798  ,5.817e+08   ,-2.5  ,1.8  ,0.1
799  ,6.172e+08   ,-2.5  ,1.6  ,0.1
800  ,6.779e+08   ,-2.5  ,1.4  ,0.1
801  ,7.320e+08   ,-2.5  ,1.2  ,0.1
802  ,7.142e+08   ,-2.5  ,1  ,0.1
803  ,7.051e+08   ,-2.5  ,0.8  ,0.1
804  ,6.938e+08   ,-2.5  ,0.6  ,0.1
805  ,7.180e+08   ,-2.5  ,0.4  ,0.1
806  ,6.178e+08   ,-2.5  ,0.2  ,0.1
807  ,5.758e+08   ,-2.5  ,5.8879E-16  ,0.1
808  ,5.728e+08   ,-2.5  ,-0.2  ,0.1
809  ,5.822e+08   ,-2.5  ,-0.4  ,0.1
810  ,6.225e+08   ,-2.5  ,-0.6  ,0.1
811  ,5.829e+08   ,-2.5  ,-0.8  ,0.1
812  ,6.605e+08   ,-2.5  ,-1  ,0.1
813  ,5.729e+08   ,-2.5  ,-1.2  ,0.1
814  ,5.683e+08   ,-2.5  ,-1.4  ,0.1
815  ,4.613e+08   ,-2.5  ,-1.6  ,0.1
816  ,3.491e+08   ,-2.5  ,-1.8  ,0.1
817  ,3.215e+08   ,-2.5  ,-2  ,0.1
818  ,1.131e+08   ,-2.5  ,-2.2  ,0.1
819  ,1.220e+09   ,-2.5  ,-2.4  ,4.7
820  ,6.906e+08   ,-2.5  ,-2.4  ,4.5
821  ,5.753e+08   ,-2.5  ,-2.4  ,4.3
822  ,1.049e+09   ,-2.5  ,-2.4  ,4.1
823  ,1.383e+09   ,-2.5  ,-2.4  ,3.9
824  ,1.489e+09   ,-2.5  ,-2.4  ,3.7
825  ,1.582e+09   ,-2.5  ,-2.4  ,3.5
826  ,1.358e+09   ,-2.5  ,-2.4  ,3.3
827  ,1.396e+09   ,-2.5  ,-2.4  ,3.1
828  ,1.255e+09   ,-2.5  ,-2.4  ,2.9
829  ,1.171e+09   ,-2.5  ,-2.4  ,2.7
830  ,1.240e+09   ,-2.5  ,-2.4  ,2.5
831  ,8.962e+08   ,-2.5  ,-2.4  ,2.3
832  ,7.936e+08   ,-2.5  ,-2.4  ,2.1
833  ,5.637e+08   ,-2.5  ,-2.4  ,1.9
834  ,3.470e+08   ,-2.5  ,-2.4  ,1.7
835  ,2.129e+08   ,-2.5  ,-2.4  ,1.5
836  ,4.396e+08   ,-2.5  ,-2.4  ,1.3
837  ,6.067e+08   ,-2.5  ,-2.4  ,1.1
838  ,7.625e+08   ,-2.5  ,-2.4  ,0.9
839  ,9.554e+08   ,-2.5  ,-2.4  ,0.7
840  ,9.314e+08   ,-2.5  ,-2.4  ,0.5
841  ,5.044e+08   ,-2.5  ,-2.4  ,0.3
842  ,3.642e+08   ,-2.5  ,2.2  ,4.9
843  ,4.342e+08   ,-2.5  ,2  ,4.9
844  ,4.570e+08   ,-2.5  ,1.8  ,4.9
845  ,4.419e+08   ,-2.5  ,1.6  ,4.9
846  ,4.347e+08   ,-2.5  ,1.4  ,4.9
847  ,4.666e+08   ,-2.5  ,1.2  ,4.9
848  ,4.953e+08   ,-2.5  ,1  ,4.9
849  ,6.736e+08   ,-2.5  ,0.8  ,4.9
850  ,6.672e+08   ,-2.5  ,0.6  ,4.9
851  ,6.381e+08   ,-2.5  ,0.4  ,4.9
852  ,5.911e+08   ,-2.5  ,0.2  ,4.9
853  ,4.225e+08   ,-2.5  ,5.8879E-16  ,4.9
854  ,3.762e+08   ,-2.5  ,-0.2  ,4.9
855  ,2.765e+08   ,-2.5  ,-0.4  ,4.9
856  ,2.155e+08   ,-2.5  ,-0.6  ,4.9
857  ,2.279e+08   ,-2.5  ,-0.8  ,4.9
858  ,2.569e+08   ,-2.5  ,-1  ,4.9
859  ,2.977e+08   ,-2.5  ,-1.2  ,4.9
860  ,3.801e+08   ,-2.5  ,-1.4  ,4.9
861  ,3.985e+08   ,-2.5  ,-1.6  ,4.9
862  ,5.058e+08   ,-2.5  ,-1.8  ,4.9
863  ,6.617e+08   ,-2.5  ,-2  ,4.9
864  ,6.507e+08   ,-2.5  ,-2.2  ,4.9
865  ,3.592e+08   ,-2.5  ,2.4  ,4.7
866  ,5.111e+08   ,-2.5  ,2.4  ,4.5
867  ,5.408e+08   ,-2.5  ,2.4  ,4.3
868  ,4.105e+08   ,-2.5  ,2.4  ,4.1
869  ,5.174e+08   ,-2.5  ,2.4  ,3.9
870  ,5.174e+08   ,-2.5  ,2.4  ,3.7
871  ,5.997e+08   ,-2.5  ,2.4  ,3.5
872  ,8.079e+08   ,-2.5  ,2.4  ,3.3
873  ,7.010e+08   ,-2.5  ,2.4  ,3.1
874  ,4.574e+08   ,-2.5  ,2.4  ,2.9
875  ,4.493e+08   ,-2.5  ,2.4  ,2.7
876  ,4.303e+08   ,-2.5  ,2.4  ,2.5
877  ,4.212e+08   ,-2.5  ,2.4  ,2.3
878  ,4.239e+08   ,-2.5  ,2.4  ,2.1
879  ,3.213e+08   ,-2.5  ,2.4  ,1.9
880  ,5.038e+08   ,-2.5  ,2.4  ,1.7
881  ,7.411e+08   ,-2.5  ,2.4  ,1.5
882  ,8.600e+08   ,-2.5  ,2.4  ,1.3
883  ,7.935e+08   ,-2.5  ,2.4  ,1.1
884  ,7.988e+08   ,-2.5  ,2.4  ,0.9
885  ,7.337e+08   ,-2.5  ,2.4  ,0.7
886  ,6.969e+08   ,-2.5  ,2.4  ,0.5
887  ,5.354e+08   ,-2.5  ,2.4  ,0.3
1044  ,3.565e+08   ,-2.3  ,-2.5  ,0.44697
1045  ,5.610e+08   ,-2.3  ,-2.5  ,0.68705
1046  ,4.830e+08   ,-2.3  ,-2.5  ,0.92554
1047  ,4.351e+08   ,-2.3  ,-2.5  ,1.1682
1048  ,2.105e+08   ,-2.3  ,-2.5  ,1.4148
1049  ,1.967e+08   ,-2.3  ,-2.5  ,1.6581
1050  ,4.448e+08   ,-2.3  ,-2.5  ,1.8967
1051  ,4.988e+08   ,-2.3  ,-2.5  ,2.1357
1052  ,6.482e+08   ,-2.3  ,-2.5  ,2.3794
1053  ,7.928e+08   ,-2.3  ,-2.5  ,2.6206
1054  ,8.093e+08   ,-2.3  ,-2.5  ,2.8643
1055  ,8.772e+08   ,-2.3  ,-2.5  ,3.1033
1056  ,9.045e+08   ,-2.3  ,-2.5  ,3.342
1057  ,8.970e+08   ,-2.3  ,-2.5  ,3.5852
1058  ,7.874e+08   ,-2.3  ,-2.5  ,3.8318
1059  ,5.351e+08   ,-2.3  ,-2.5  ,4.0745
1060  ,4.005e+08   ,-2.3  ,-2.5  ,4.3129
1061  ,9.435e+08   ,-2.3  ,-2.5  ,4.553
1062  ,1.453e+09   ,-2.053  ,-2.5  ,4.8
1063  ,8.592e+08   ,-1.8129  ,-2.5  ,4.8
1064  ,6.691e+08   ,-1.5745  ,-2.5  ,4.8
1065  ,4.534e+08   ,-1.3318  ,-2.5  ,4.8
1066  ,3.101e+08   ,-1.0852  ,-2.5  ,4.8
1067  ,1.915e+08   ,-0.84195  ,-2.5  ,4.8
1068  ,2.613e+08   ,-0.60329  ,-2.5  ,4.8
1069  ,3.917e+08   ,-0.3643  ,-2.5  ,4.8
1070  ,5.438e+08   ,-0.12055  ,-2.5  ,4.8
1071  ,6.984e+08   ,0.12056  ,-2.5  ,4.8
1072  ,7.909e+08   ,0.3643  ,-2.5  ,4.8
1073  ,8.035e+08   ,0.6033  ,-2.5  ,4.8
1074  ,7.832e+08   ,0.84195  ,-2.5  ,4.8
1075  ,4.822e+08   ,1.0852  ,-2.5  ,4.8
1076  ,2.081e+08   ,1.3318  ,-2.5  ,4.8
1077  ,7.060e+08   ,1.5745  ,-2.5  ,4.8
1078  ,1.377e+09   ,1.8129  ,-2.5  ,4.8
1079  ,2.748e+09   ,2.053  ,-2.5  ,4.8
1080  ,2.795e+09   ,2.3  ,-2.5  ,4.553
1081  ,1.414e+09   ,2.3  ,-2.5  ,4.3129
1082  ,7.317e+08   ,2.3  ,-2.5  ,4.0745
1083  ,1.829e+08   ,2.3  ,-2.5  ,3.8318
1084  ,4.358e+08   ,2.3  ,-2.5  ,3.5852
1085  ,8.346e+08   ,2.3  ,-2.5  ,3.3419
1086  ,9.008e+08   ,2.3  ,-2.5  ,3.1033
1087  ,7.855e+08   ,2.3  ,-2.5  ,2.8643
1088  ,6.383e+08   ,2.3  ,-2.5  ,2.6206
1089  ,5.467e+08   ,2.3  ,-2.5  ,2.3794
1090  ,4.386e+08   ,2.3  ,-2.5  ,2.1357
1091  ,3.670e+08   ,2.3  ,-2.5  ,1.8967
1092  ,2.511e+08   ,2.3  ,-2.5  ,1.658
1093  ,3.799e+08   ,2.3  ,-2.5  ,1.4148
1094  ,4.859e+08   ,2.3  ,-2.5  ,1.1682
1095  ,6.165e+08   ,2.3  ,-2.5  ,0.92554
1096  ,9.067e+08   ,2.3  ,-2.5  ,0.68705
1097  ,1.386e+09   ,2.3  ,-2.5  ,0.44697
1098  ,4.765e+08   ,-2.053  ,-2.5  ,0.2
1099  ,5.992e+08   ,-1.8129  ,-2.5  ,0.2
1100  ,5.401e+08   ,-1.5745  ,-2.5  ,0.2
1101  ,3.493e+08   ,-1.3318  ,-2.5  ,0.2
1102  ,9.421e+07   ,-1.0852  ,-2.5  ,0.2
1103  ,2.170e+08   ,-0.84195  ,-2.5  ,0.2
1104  ,3.679e+08   ,-0.60329  ,-2.5  ,0.2
1105  ,4.875e+08   ,-0.3643  ,-2.5  ,0.2
1106  ,5.891e+08   ,-0.12055  ,-2.5  ,0.2
1107  ,7.241e+08   ,0.12056  ,-2.5  ,0.2
1108  ,8.707e+08   ,0.3643  ,-2.5  ,0.2
1109  ,8.957e+08   ,0.6033  ,-2.5  ,0.2
1110  ,9.319e+08   ,0.84195  ,-2.5  ,0.2
1111  ,7.825e+08   ,1.0852  ,-2.5  ,0.2
1112  ,6.386e+08   ,1.3318  ,-2.5  ,0.2
1113  ,4.344e+08   ,1.5745  ,-2.5  ,0.2
1114  ,3.491e+08   ,1.8129  ,-2.5  ,0.2
1115  ,1.110e+09   ,2.053  ,-2.5  ,0.2
1116  ,5.489e+08   ,-2.2  ,-2.5  ,4.9
1117  ,3.707e+08   ,-2  ,-2.5  ,4.9
1118  ,3.677e+08   ,-1.8  ,-2.5  ,4.9
1119  ,3.934e+08   ,-1.6  ,-2.5  ,4.9
1120  ,3.549e+08   ,-1.4  ,-2.5  ,4.9
1121  ,2.904e+08   ,-1.2  ,-2.5  ,4.9
1122  ,1.870e+08   ,-1  ,-2.5  ,4.9
1123  ,9.502e+07   ,-0.8  ,-2.5  ,4.9
1124  ,1.361e+08   ,-0.6  ,-2.5  ,4.9
1125  ,2.125e+08   ,-0.4  ,-2.5  ,4.9
1126  ,3.738e+08   ,-0.2  ,-2.5  ,4.9
1127  ,3.746e+08   ,-1.7664E-15  ,-2.5  ,4.9
1128  ,3.975e+08   ,0.2  ,-2.5  ,4.9
1129  ,4.999e+08   ,0.4  ,-2.5  ,4.9
1130  ,3.950e+08   ,0.6  ,-2.5  ,4.9
1131  ,4.503e+08   ,0.8  ,-2.5  ,4.9
1132  ,4.673e+08   ,1  ,-2.5  ,4.9
1133  ,6.810e+08   ,1.2  ,-2.5  ,4.9
1134  ,6.184e+08   ,1.4  ,-2.5  ,4.9
1135  ,6.388e+08   ,1.6  ,-2.5  ,4.9
1136  ,7.335e+08   ,1.8  ,-2.5  ,4.9
1137  ,6.913e+08   ,2  ,-2.5  ,4.9
1138  ,7.683e+08   ,2.2  ,-2.5  ,4.9
1139  ,6.258e+08   ,-2.4  ,-2.5  ,4.7
1140  ,6.784e+08   ,-2.4  ,-2.5  ,4.5
1141  ,6.627e+08   ,-2.4  ,-2.5  ,4.3
1142  ,5.863e+08   ,-2.4  ,-2.5  ,4.1
1143  ,5.078e+08   ,-2.4  ,-2.5  ,3.9
1144  ,5.596e+08   ,-2.4  ,-2.5  ,3.7
1145  ,2.724e+08   ,-2.4  ,-2.5  ,3.5
1146  ,3.844e+08   ,-2.4  ,-2.5  ,3.3
1147  ,2.331e+08   ,-2.4  ,-2.5  ,3.1
1148  ,2.849e+08   ,-2.4  ,-2.5  ,2.9
1149  ,3.495e+08   ,-2.4  ,-2.5  ,2.7
1150  ,3.771e+08   ,-2.4  ,-2.5  ,2.5
1151  ,3.748e+08   ,-2.4  ,-2.5  ,2.3
1152  ,2.471e+08   ,-2.4  ,-2.5  ,2.1
1153  ,2.800e+08   ,-2.4  ,-2.5  ,1.9
1154  ,2.935e+08   ,-2.4  ,-2.5  ,1.7
1155  ,2.186e+08   ,-2.4  ,-2.5  ,1.5
1156  ,1.433e+08   ,-2.4  ,-2.5  ,1.3
1157  ,1.637e+08   ,-2.4  ,-2.5  ,1.1
1158  ,2.782e+08   ,-2.4  ,-2.5  ,0.9
1159  ,4.493e+08   ,-2.4  ,-2.5  ,0.7
1160  ,5.028e+08   ,-2.4  ,-2.5  ,0.5
1161  ,5.957e+08   ,-2.4  ,-2.5  ,0.3
1162  ,7.116e+08   ,-2.2  ,-2.5  ,0.1
1163  ,6.908e+08   ,-2  ,-2.5  ,0.1
1164  ,5.901e+08   ,-1.8  ,-2.5  ,0.1
1165  ,2.365e+08   ,-1.6  ,-2.5  ,0.1
1166  ,1.359e+08   ,-1.4  ,-2.5  ,0.1
1167  ,1.709e+08   ,-1.2  ,-2.5  ,0.1
1168  ,1.778e+08   ,-1  ,-2.5  ,0.1
1169  ,1.697e+08   ,-0.8  ,-2.5  ,0.1
1170  ,2.242e+08   ,-0.6  ,-2.5  ,0.1
1171  ,3.011e+08   ,-0.4  ,-2.5  ,0.1
1172  ,3.599e+08   ,-0.2  ,-2.5  ,0.1
1173  ,4.195e+08   ,-1.7664E-15  ,-2.5  ,0.1
1174  ,3.239e+08   ,0.2  ,-2.5  ,0.1
1175  ,2.521e+08   ,0.4  ,-2.5  ,0.1
1176  ,3.235e+08   ,0.6  ,-2.5  ,0.1
1177  ,2.080e+08   ,0.8  ,-2.5  ,0.1
1178  ,3.451e+08   ,1  ,-2.5  ,0.1
1179  ,4.300e+08   ,1.2  ,-2.5  ,0.1
1180  ,4.418e+08   ,1.4  ,-2.5  ,0.1
1181  ,5.160e+08   ,1.6  ,-2.5  ,0.1
1182  ,6.528e+08   ,1.8  ,-2.5  ,0.1
1183  ,7.104e+08   ,2  ,-2.5  ,0.1
1184  ,6.224e+08   ,2.2  ,-2.5  ,0.1
1185  ,7.891e+08   ,2.4  ,-2.5  ,4.7
1186  ,6.902e+08   ,2.4  ,-2.5  ,4.5
1187  ,7.480e+08   ,2.4  ,-2.5  ,4.3
1188  ,6.897e+08   ,2.4  ,-2.5  ,4.1
1189  ,5.909e+08   ,2.4  ,-2.5  ,3.9
1190  ,5.749e+08   ,2.4  ,-2.5  ,3.7
1191  ,4.174e+08   ,2.4  ,-2.5  ,3.5
1192  ,4.322e+08   ,2.4  ,-2.5  ,3.3
1193  ,4.854e+08   ,2.4  ,-2.5  ,3.1
1194  ,5.176e+08   ,2.4  ,-2.5  ,2.9
1195  ,4.097e+08   ,2.4  ,-2.5  ,2.7
1196  ,3.228e+08   ,2.4  ,-2.5  ,2.5
1197  ,3.138e+08   ,2.4  ,-2.5  ,2.3
1198  ,1.914e+08   ,2.4  ,-2.5  ,2.1
1199  ,1.690e+08   ,2.4  ,-2.5  ,1.9
1200  ,7.268e+07   ,2.4  ,-2.5  ,1.7
1201  ,1.326e+08   ,2.4  ,-2.5  ,1.5
1202  ,2.671e+08   ,2.4  ,-2.5  ,1.3
1203  ,3.358e+08   ,2.4  ,-2.5  ,1.1
1204  ,4.237e+08   ,2.4  ,-2.5  ,0.9
1205  ,4.691e+08   ,2.4  ,-2.5  ,0.7
1206  ,4.329e+08   ,2.4  ,-2.5  ,0.5
1207  ,5.600e+08   ,2.4  ,-2.5  ,0.3
1208  ,6.288e+08   ,2.4  ,-2.2  ,0
1209  ,6.434e+08   ,2.4  ,-2  ,0
1210  ,4.952e+08   ,2.4  ,-1.8  ,0
1211  ,4.227e+08   ,2.4  ,-1.6  ,0
1212  ,4.351e+08   ,2.4  ,-1.4  ,0
1213  ,3.158e+08   ,2.4  ,-1.2  ,0
1214  ,2.737e+08   ,2.4  ,-1  ,0
1215  ,2.391e+08   ,2.4  ,-0.8  ,0
1216  ,1.623e+08   ,2.4  ,-0.6  ,0
1217  ,1.919e+08   ,2.4  ,-0.4  ,0
1218  ,2.989e+08   ,2.4  ,-0.2  ,0
1219  ,3.803e+08   ,2.4  ,-1.7664E-15  ,0
1220  ,4.511e+08   ,2.4  ,0.2  ,0
1221  ,5.295e+08   ,2.4  ,0.4  ,0
1222  ,6.523e+08   ,2.4  ,0.6  ,0
1223  ,6.553e+08   ,2.4  ,0.8  ,0
1224  ,5.134e+08   ,2.4  ,1  ,0
1225  ,4.657e+08   ,2.4  ,1.2  ,0
1226  ,4.246e+08   ,2.4  ,1.4  ,0
1227  ,3.927e+08   ,2.4  ,1.6  ,0
1228  ,5.034e+08   ,2.4  ,1.8  ,0
1229  ,4.612e+08   ,2.4  ,2  ,0
1230  ,3.552e+08   ,2.4  ,2.2  ,0
1231  ,6.097e+08   ,-2.2  ,-2.4  ,0
1232  ,1.007e+09   ,-2  ,-2.4  ,0
1233  ,1.080e+09   ,-1.8  ,-2.4  ,0
1234  ,8.576e+08   ,-1.6  ,-2.4  ,0
1235  ,5.676e+08   ,-1.4  ,-2.4  ,0
1236  ,3.221e+08   ,-1.2  ,-2.4  ,0
1237  ,8.844e+07   ,-1  ,-2.4  ,0
1238  ,3.079e+08   ,-0.8  ,-2.4  ,0
1239  ,5.773e+08   ,-0.6  ,-2.4  ,0
1240  ,8.348e+08   ,-0.4  ,-2.4  ,0
1241  ,1.008e+09   ,-0.2  ,-2.4  ,0
1242  ,1.176e+09   ,5.8879E-16  ,-2.4  ,0
1243  ,1.230e+09   ,0.2  ,-2.4  ,0
1244  ,1.280e+09   ,0.4  ,-2.4  ,0
1245  ,1.240e+09   ,0.6  ,-2.4  ,0
1246  ,1.440e+09   ,0.8  ,-2.4  ,0
1247  ,1.391e+09   ,1  ,-2.4  ,0
1248  ,1.445e+09   ,1.2  ,-2.4  ,0
1249  ,1.312e+09   ,1.4  ,-2.4  ,0
1250  ,1.012e+09   ,1.6  ,-2.4  ,0
1251  ,5.374e+08   ,1.8  ,-2.4  ,0
1252  ,5.811e+08   ,2  ,-2.4  ,0
1253  ,1.373e+09   ,2.2  ,-2.4  ,0
1254  ,3.115e+08   ,-2.4  ,2.2  ,0
1255  ,5.178e+08   ,-2.4  ,2  ,0
1256  ,5.688e+08   ,-2.4  ,1.8  ,0
1257  ,6.416e+08   ,-2.4  ,1.6  ,0
1258  ,7.381e+08   ,-2.4  ,1.4  ,0
1259  ,8.038e+08   ,-2.4  ,1.2  ,0
1260  ,7.387e+08   ,-2.4  ,1  ,0
1261  ,7.006e+08   ,-2.4  ,0.8  ,0
1262  ,6.481e+08   ,-2.4  ,0.6  ,0
1263  ,6.122e+08   ,-2.4  ,0.4  ,0
1264  ,5.895e+08   ,-2.4  ,0.2  ,0
1265  ,6.038e+08   ,-2.4  ,5.8879E-16  ,0
1266  ,6.925e+08   ,-2.4  ,-0.2  ,0
1267  ,5.676e+08   ,-2.4  ,-0.4  ,0
1268  ,6.337e+08   ,-2.4  ,-0.6  ,0
1269  ,5.924e+08   ,-2.4  ,-0.8  ,0
1270  ,6.797e+08   ,-2.4  ,-1  ,0
1271  ,6.299e+08   ,-2.4  ,-1.2  ,0
1272  ,4.980e+08   ,-2.4  ,-1.4  ,0
1273  ,4.378e+08   ,-2.4  ,-1.6  ,0
1274  ,3.671e+08   ,-2.4  ,-1.8  ,0
1275  ,3.436e+08   ,-2.4  ,-2  ,0
1276  ,1.769e+08   ,-2.4  ,-2.2  ,0
1277  ,3.079e+08   ,2.2  ,2.4  ,0
1278  ,4.525e+08   ,2  ,2.4  ,0
1279  ,5.071e+08   ,1.8  ,2.4  ,0
1280  ,4.109e+08   ,1.6  ,2.4  ,0
1281  ,3.507e+08   ,1.4  ,2.4  ,0
1282  ,4.991e+08   ,1.2  ,2.4  ,0
1283  ,5.898e+08   ,1  ,2.4  ,0
1284  ,8.305e+08   ,0.8  ,2.4  ,0
1285  ,7.478e+08   ,0.6  ,2.4  ,0
1286  ,4.358e+08   ,0.4  ,2.4  ,0
1287  ,3.672e+08   ,0.2  ,2.4  ,0
1288  ,2.494e+08   ,5.8879E-16  ,2.4  ,0
1289  ,2.964e+08   ,-0.2  ,2.4  ,0
1290  ,3.995e+08   ,-0.4  ,2.4  ,0
1291  ,3.292e+08   ,-0.6  ,2.4  ,0
1292  ,5.349e+08   ,-0.8  ,2.4  ,0
1293  ,7.657e+08   ,-1  ,2.4  ,0
1294  ,8.710e+08   ,-1.2  ,2.4  ,0
1295  ,8.016e+08   ,-1.4  ,2.4  ,0
1296  ,7.662e+08   ,-1.6  ,2.4  ,0
1297  ,7.301e+08   ,-1.8  ,2.4  ,0
1298  ,6.276e+08   ,-2  ,2.4  ,0
1299  ,5.537e+08   ,-2.2  ,2.4  ,0
1460  ,6.222e+09   ,2.3243  ,2.3243  ,4.9577
1461  ,6.158e+09   ,2.4577  ,2.3243  ,4.8243
1462  ,7.368e+09   ,2.3243  ,2.4577  ,4.8243
1463  ,5.664e+08   ,-2.3  ,-2.1759  ,4.8
1464  ,4.348e+08   ,-2.3  ,-1.7631  ,4.8
1465  ,5.043e+08   ,-2.3  ,-1.1827  ,4.8
1466  ,9.272e+08   ,-2.3  ,-0.34986  ,4.8
1467  ,1.057e+09   ,-2.3  ,0.80545  ,4.8
1468  ,8.718e+08   ,-0.81337  ,2.3  ,4.8
1469  ,1.344e+09   ,0.67326  ,2.3  ,4.8
1470  ,1.262e+09   ,2.3  ,-2.1824  ,4.8
1471  ,7.842e+08   ,2.3  ,-1.7784  ,4.8
1472  ,8.150e+08   ,2.3  ,-1.2138  ,4.8
1473  ,1.076e+09   ,2.3  ,-0.40752  ,4.8
1474  ,1.190e+09   ,2.3  ,0.70532  ,4.8
1516  ,8.561e+08   ,2.3  ,2.3  ,1.6866
1517  ,1.375e+09   ,2.3  ,2.3  ,3.1733
1518  ,5.776e+08   ,2.3  ,-2.1759  ,0.2
1519  ,4.156e+08   ,2.3  ,-1.7631  ,0.2
1520  ,4.898e+08   ,2.3  ,-1.1827  ,0.2
1521  ,9.206e+08   ,2.3  ,-0.34986  ,0.2
1522  ,1.067e+09   ,2.3  ,0.80545  ,0.2
1564  ,5.329e+08   ,-0.76667  ,2.3  ,0.2
1565  ,9.256e+08   ,0.76667  ,2.3  ,0.2
1566  ,5.018e+08   ,-2.3  ,2.3  ,1.7333
1567  ,9.969e+08   ,-2.3  ,2.3  ,3.2667
1574  ,2.833e+08   ,-2.3  ,-2.1759  ,0.2
1575  ,2.181e+08   ,-2.3  ,-1.7631  ,0.2
1576  ,1.993e+08   ,-2.3  ,-1.1827  ,0.2
1577  ,1.030e+08   ,-2.3  ,-0.34986  ,0.2
1578  ,1.457e+08   ,-2.3  ,0.80545  ,0.2
1777  ,1.235e+09   ,-0.52764  ,2.5  ,4.9
1801  ,7.535e+08   ,-2.3  ,1.5527  ,0.2
1825  ,5.421e+08   ,-1.5333  ,2.3  ,0.2
1841  ,6.635e+08   ,0.063638  ,2.5  ,4.9
1876  ,3.725e+08   ,-0.5  ,2.4  ,0
1894  ,9.350e+08   ,2.3  ,1.5527  ,0.2
1907  ,4.468e+08   ,2.1  ,2.5  ,0.1
1928  ,4.587e+08   ,1.9  ,2.4  ,0
1974  ,4.357e+08   ,2.4  ,1.1  ,0
1981  ,5.424e+08   ,2.4  ,2.5  ,0.59273
1987  ,4.804e+08   ,-2.5  ,2.4  ,4
2004  ,4.347e+08   ,-2.4  ,2.5  ,4.6
2009  ,4.154e+08   ,2.4  ,1.3  ,0
2020  ,5.261e+08   ,2.5  ,1.1  ,0.1
2035  ,5.288e+08   ,-2.3  ,-0.76628  ,0.2
2070  ,2.119e+09   ,1.6404  ,2.4  ,5
2081  ,8.828e+08   ,2.4  ,2.5  ,1.9724
2095  ,7.142e+08   ,2.4  ,2.5  ,0.78982
2138  ,5.499e+08   ,-2.4  ,-0.1  ,0
2146  ,1.146e+09   ,-0.92182  ,2.4  ,5
2174  ,1.123e+09   ,2.4  ,2.5  ,1.184
2190  ,8.736e+08   ,2.5  ,2.4  ,0.98691
2203  ,1.405e+09   ,2.5  ,-0.13345  ,4.9
2232  ,1.886e+09   ,2.3  ,0.1489  ,4.8
2242  ,8.745e+08   ,2.4  ,2.5  ,2.9578
2293  ,7.529e+08   ,-2.5  ,0.5  ,0.1
2311  ,1.950e+09   ,2.3  ,2.3  ,2.4299
2313  ,8.324e+08   ,2.5  ,2.4  ,0.78982
2329  ,7.729e+08   ,2.4  ,2.5  ,2.1695
2355  ,4.988e+08   ,-2.4  ,2.5  ,4.4
2380  ,4.983e+08   ,-2.5  ,-1.5  ,0.1
2383  ,8.348e+08   ,0.45782  ,2.5  ,4.9
2408  ,1.204e+09   ,2.3  ,-1.4961  ,4.8
2445  ,1.249e+09   ,2.5  ,-1.5131  ,4.9
2484  ,1.751e+08   ,-2.5  ,-2.4  ,1.6
2495  ,4.350e+08   ,-2.4  ,1.7  ,5
2508  ,4.567e+08   ,2.4  ,0.3  ,0
2514  ,1.324e+09   ,2.3  ,0.2278  ,0.2
2570  ,4.708e+08   ,-2.4  ,1.5  ,5
2580  ,1.952e+09   ,1.6404  ,2.5  ,4.9
2603  ,1.373e+09   ,-1.1189  ,2.5  ,4.9
2695  ,7.406e+08   ,2.3  ,2.3  ,0.94331
2705  ,1.425e+09   ,2.4  ,2.5  ,1.3811
2714  ,7.664e+08   ,2.5  ,0.45782  ,4.9
2734  ,2.509e+08   ,2.4  ,-0.9  ,0
2775  ,3.465e+08   ,2.5  ,-0.1  ,0.1
2779  ,3.253e+08   ,2.4  ,-0.1  ,0
2801  ,2.437e+09   ,1.4166  ,2.3  ,4.8
2814  ,1.525e+09   ,1.4433  ,2.5  ,4.9
2863  ,6.991e+08   ,-2.4  ,2.5  ,0.6
2884  ,7.870e+08   ,-2.4  ,2.5  ,0.8
2886  ,8.049e+08   ,-2.4  ,2.5  ,1.2
2967  ,4.441e+08   ,2.4  ,1.7  ,0
2973  ,4.235e+08   ,2.5  ,1.5  ,0.1
2987  ,4.439e+08   ,-0.3  ,2.5  ,0.1
3008  ,5.111e+08   ,-2.3  ,2.3  ,0.96667
3012  ,4.427e+08   ,-2.5  ,2.4  ,2.6
3021  ,4.477e+08   ,-2.5  ,2.4  ,2.8
3025  ,4.012e+08   ,-2.5  ,2.4  ,2.4
3030  ,3.631e+08   ,-2.4  ,2.5  ,2.4
3033  ,4.029e+08   ,-2.4  ,2.5  ,2.2
3047  ,7.357e+08   ,2.4  ,2.5  ,2.3665
3052  ,8.042e+08   ,2.5  ,2.4  ,2.5636
3061  ,7.444e+08   ,2.4  ,2.5  ,2.5636
3081  ,5.270e+08   ,-2.4  ,1.3  ,5
3088  ,3.993e+08   ,-1.9073  ,2.4  ,5
3099  ,4.476e+08   ,-2.4  ,1.9  ,5
3107  ,4.901e+08   ,-2.4  ,2.5  ,3.8
3139  ,8.198e+08   ,-1.5131  ,2.4  ,5
3145  ,8.964e+08   ,-1.5131  ,2.5  ,4.9
3148  ,7.208e+08   ,-1.7102  ,2.5  ,4.9
3168  ,6.714e+08   ,-2.4  ,1.5  ,0
3188  ,6.823e+08   ,-2.5  ,-2.4  ,1
3202  ,6.576e+08   ,0.26073  ,2.5  ,4.9
3212  ,1.818e+09   ,2.5  ,1.6404  ,4.9
3247  ,2.571e+09   ,2.5  ,1.8375  ,4.9
3265  ,2.329e+09   ,2.3  ,1.4326  ,4.8
3271  ,5.288e+09   ,2.2299  ,2.2299  ,4.8
3284  ,1.349e+09   ,2.4  ,1.4433  ,5
3291  ,1.368e+09   ,2.5  ,1.4433  ,4.9
3296  ,7.565e+08   ,-2.3  ,-0.76628  ,4.8
3303  ,2.523e+08   ,-2.4  ,-0.9  ,5
3311  ,1.971e+08   ,-2.4  ,-0.7  ,5
3315  ,5.140e+08   ,1.9  ,2.5  ,0.1
3336  ,5.953e+08   ,-2.4  ,0.3  ,0
3340  ,5.807e+08   ,-2.5  ,0.1  ,0.1
3344  ,5.882e+08   ,-2.4  ,0.1  ,0
3356  ,3.404e+08   ,-0.3  ,2.4  ,0
3361  ,7.978e+08   ,-0.33054  ,2.5  ,4.9
3364  ,6.604e+08   ,-0.13345  ,2.5  ,4.9
3383  ,1.050e+09   ,2.4  ,2.5  ,3.5491
3402  ,4.653e+09   ,2.4  ,2.5  ,4.5345
3421  ,1.073e+09   ,-1.316  ,2.5  ,4.9
3439  ,1.535e+09   ,2.5  ,2.4  ,3.9433
3447  ,1.527e+09   ,2.4  ,2.5  ,3.9433
3451  ,1.203e+09   ,2.4  ,2.5  ,3.7462
3468  ,1.526e+09   ,1.4433  ,2.4  ,5
3480  ,1.062e+09   ,1.0491  ,2.4  ,5
3519  ,4.424e+08   ,1.5  ,2.4  ,0
3527  ,5.761e+08   ,2.3  ,-1.4729  ,0.2
3550  ,7.296e+08   ,-1.7  ,2.4  ,0
3554  ,7.625e+08   ,-1.7  ,2.5  ,0.1
3558  ,7.910e+08   ,-1.5  ,2.4  ,0
3562  ,7.839e+08   ,-1.5  ,2.5  ,0.1
3574  ,3.988e+08   ,-2.4  ,2.1  ,5
3581  ,5.881e+08   ,-2.5  ,1.7  ,0.1
3583  ,5.246e+08   ,-2.5  ,1.9  ,0.1
3584  ,4.870e+08   ,-1.9073  ,2.5  ,4.9
3591  ,4.594e+08   ,2.5  ,0.3  ,0.1
3595  ,3.873e+08   ,2.5  ,0.1  ,0.1
3603  ,1.078e+10   ,2.4577  ,2.391  ,4.7576
3663  ,5.644e+08   ,-1.933  ,-2.5  ,0.2
3669  ,5.073e+08   ,-2.1765  ,-2.5  ,0.2
3672  ,3.856e+08   ,-2.3  ,-2.3379  ,0.2
3682  ,1.044e+09   ,-1.9  ,-2.4  ,0
3700  ,7.243e+08   ,2.3  ,-2.5  ,2.7424
3712  ,2.892e+08   ,-2.1  ,-2.5  ,4.9
3715  ,3.230e+08   ,-1.9  ,-2.5  ,4.9
3740  ,4.837e+08   ,-1.3  ,-2.4  ,5
3746  ,3.718e+08   ,-1.2085  ,-2.5  ,4.8
3755  ,5.310e+08   ,-1.5  ,-2.4  ,5
3760  ,3.271e+08   ,-1.7  ,-2.5  ,4.9
3786  ,1.150e+09   ,2.4  ,2.5  ,1.5782
3813  ,7.225e+08   ,0.26073  ,2.4  ,5
3858  ,3.626e+08   ,-0.9  ,-2.4  ,5
3863  ,5.602e+08   ,-2.5  ,0.9  ,4.9
3875  ,7.972e+08   ,-1.9  ,-2.4  ,5
3885  ,1.202e+09   ,2.4  ,-0.72473  ,5
3910  ,3.356e+08   ,-2.4  ,-2.5  ,3.4
3959  ,2.113e+09   ,2.5  ,2.4  ,4.1404
3969  ,9.007e+08   ,2.5  ,1.0491  ,4.9
3992  ,8.284e+09   ,2.391  ,2.2576  ,4.9577
3993  ,7.753e+09   ,2.4577  ,2.2576  ,4.891
4016  ,1.415e+08   ,-2.3015  ,2.5  ,4.9
4018  ,2.235e+08   ,-2.4  ,2.5  ,4.8
4021  ,1.148e+09   ,1.2462  ,2.4  ,5
4042  ,2.965e+08   ,2.4  ,-1.1  ,0
4046  ,6.528e+08   ,-0.9  ,2.4  ,0
4055  ,6.360e+08   ,1.7  ,-2.5  ,4.9
4087  ,4.875e+08   ,1.7  ,2.4  ,0
4114  ,1.181e+09   ,2.5  ,-0.33054  ,4.9
4120  ,1.372e+08   ,2.4  ,-2.5  ,1.8
4125  ,7.399e+08   ,2.4  ,2.5  ,0.98691
4144  ,3.184e+09   ,2.4  ,2.5  ,4.3375
4161  ,5.593e+08   ,-2.4  ,0.3  ,5
4201  ,5.599e+08   ,1.933  ,-2.5  ,0.2
4225  ,2.985e+08   ,-2.3  ,-2.4  ,0
4230  ,5.510e+08   ,-2.3  ,-2.5  ,0.56701
4269  ,1.039e+08   ,-0.9  ,-2.5  ,4.9
4277  ,4.433e+08   ,-1.1  ,-2.4  ,5
4288  ,1.442e+09   ,-0.070055  ,2.3  ,4.8
4328  ,7.252e+08   ,-2.5  ,-2.4  ,4.2
4336  ,5.328e+08   ,-2.5  ,-2.4  ,4.4
4342  ,8.938e+08   ,-2.5  ,-2.4  ,4.6
4348  ,1.131e+09   ,-2.4  ,-2.4707  ,4.9707
4352  ,4.386e+08   ,-2.3  ,-2.5  ,4.9
4354  ,1.702e+09   ,-2.1765  ,-2.5  ,4.8
4355  ,8.821e+08   ,-2.3  ,-2.3379  ,4.8
4362  ,4.950e+08   ,2.5  ,2.4  ,0.59273
4364  ,9.207e+08   ,2.5  ,-2.4  ,2.4
4366  ,7.405e+08   ,2.5  ,-2.4  ,2.2
4372  ,2.174e+08   ,2.4  ,-2.5  ,2.2
4385  ,3.554e+08   ,-2.5  ,-1.9  ,0.1
4399  ,3.841e+08   ,-2.5  ,2.1  ,0.1
4407  ,4.084e+08   ,-0.7  ,-2.4  ,0
4436  ,6.036e+08   ,-2.5  ,-0.1  ,0.1
4462  ,7.810e+08   ,-2.3  ,2.3  ,4.0333
4491  ,1.060e+09   ,2.5  ,-0.52764  ,4.9
4494  ,3.721e+08   ,2.5  ,-2.4  ,1.4
4503  ,2.042e+08   ,2.4  ,-2.5  ,1.4
4508  ,3.169e+08   ,2.4  ,-2.5  ,1.2
4515  ,3.832e+08   ,2.5  ,-2.4  ,1.8
4517  ,4.891e+07   ,2.4  ,-2.5  ,1.6
4522  ,1.302e+09   ,0.7  ,-2.4  ,0
4538  ,1.157e+09   ,-1.1189  ,2.4  ,5
4546  ,1.945e+09   ,2.4  ,2.5  ,4.1404
4559  ,7.414e+08   ,1.7  ,-2.4  ,0
4590  ,1.240e+09   ,0.5  ,-2.4  ,0
4631  ,3.443e+08   ,2.4  ,-2.5  ,2.6
4634  ,1.300e+09   ,2.5  ,-2.4  ,2.8
4657  ,6.527e+08   ,-2.5  ,-2.4  ,2
4660  ,4.519e+08   ,-2.5  ,-2.4  ,1.8
4664  ,8.763e+08   ,-0.3  ,-2.4  ,0
4675  ,5.783e+08   ,-2.4  ,-2.5  ,4.8
4681  ,5.598e+08   ,-2.5  ,-0.3  ,0.1
4684  ,5.322e+08   ,1.7  ,-2.4  ,5
4703  ,7.277e+08   ,-2.4  ,0.7  ,5
4707  ,5.715e+08   ,-2.5  ,0.3  ,4.9
4714  ,1.035e+09   ,2.4  ,-0.33054  ,5
4723  ,1.101e+09   ,-1.5567  ,2.3  ,4.8
4739  ,3.088e+08   ,-2.1044  ,2.5  ,4.9
4763  ,6.968e+08   ,-1.9  ,2.4  ,0
4780  ,1.884e+08   ,-2.3  ,-1.9695  ,0.2
4782  ,1.171e+08   ,-2.4707  ,-2.4  ,0.029289
4784  ,3.471e+08   ,-2.4  ,-1.9  ,0
4791  ,2.677e+08   ,-2.4  ,-2.5  ,1.8
4796  ,1.894e+09   ,2.4707  ,-2.4707  ,4.9
4799  ,2.353e+09   ,2.5  ,-2.4  ,4.8
4806  ,1.384e+09   ,2.3  ,-2.5  ,4.9
4809  ,2.504e+09   ,2.3  ,2.3  ,3.9166
4833  ,6.040e+08   ,-2.4  ,2.5  ,0.4
4841  ,4.388e+08   ,-2.4  ,2.5  ,2.6
4846  ,3.914e+08   ,-2.5  ,2.1  ,4.9
4848  ,2.463e+08   ,-2.5  ,2.3  ,4.9
4849  ,2.485e+08   ,-2.5  ,2.4  ,4.8
4893  ,5.158e+08   ,-2.4  ,2.5  ,4.2
4897  ,3.267e+09   ,2.3333  ,2.1998  ,5
4900  ,1.217e+10   ,2.391  ,2.4577  ,4.7576
4908  ,1.037e+10   ,2.2576  ,2.391  ,4.9577
4911  ,1.226e+10   ,2.2576  ,2.4577  ,4.891
4926  ,7.814e+08   ,-2.5  ,2.4  ,1
4932  ,6.904e+08   ,-2.4  ,2.5  ,1.6
4937  ,8.267e+08   ,-1.1  ,2.5  ,0.1
4939  ,5.072e+09   ,2.3  ,2.2299  ,4.7299
4944  ,1.518e+09   ,2.5  ,-1.9073  ,4.9
4987  ,8.602e+08   ,-2.3  ,1.5527  ,4.8
5010  ,3.666e+09   ,2.4973  ,2.1331  ,4.923
5013  ,3.196e+09   ,2.5  ,2.0345  ,4.9
5017  ,3.389e+09   ,2.4  ,2.0345  ,5
5035  ,1.338e+09   ,1.3  ,-2.4  ,0
5038  ,7.099e+08   ,1.2085  ,-2.5  ,0.2
5092  ,1.007e+08   ,-2.4  ,-2.5  ,1.2
5123  ,8.936e+08   ,2.5  ,-2.4  ,0.6
5151  ,5.927e+08   ,-2.5  ,-0.5  ,0.1
5160  ,5.744e+08   ,-2.5  ,-0.7  ,0.1
5164  ,7.224e+08   ,-2.4  ,0.9  ,5
5168  ,5.330e+08   ,-2.4  ,0.5  ,5
5176  ,1.742e+08   ,2.5  ,-0.7  ,0.1
5179  ,1.425e+08   ,2.4  ,-0.5  ,0
5189  ,3.140e+08   ,2.4  ,-2.5  ,2.4
5194  ,4.854e+08   ,2.3  ,-2.5  ,2.2576
5198  ,4.715e+08   ,-2.3  ,-2.5  ,0.32348
5205  ,3.246e+08   ,-2.4  ,-2.5  ,0.2
5207  ,7.132e+08   ,-2.1  ,-2.5  ,0.1
5246  ,7.785e+08   ,-2.5  ,2.4  ,3.2
5257  ,4.227e+08   ,-2.5  ,1.5  ,4.9
5263  ,5.877e+08   ,-2.3  ,0.2278  ,0.2
5272  ,6.019e+08   ,-2.5  ,0.3  ,0.1
5275  ,5.942e+08   ,-2.5  ,0.5  ,4.9
5281  ,2.583e+09   ,1.8375  ,2.5  ,4.9
5297  ,7.306e+08   ,-0.9  ,2.5  ,0.1
5306  ,3.657e+08   ,-0.7  ,2.4  ,0
5309  ,4.707e+08   ,-0.5  ,2.5  ,0.1
5324  ,7.193e+08   ,2.4  ,2.5  ,2.7607
5332  ,6.202e+08   ,2.5  ,-2.4  ,0.8
5334  ,4.058e+08   ,2.4  ,-2.5  ,1
5360  ,1.311e+09   ,2.4  ,-1.7102  ,5
5362  ,1.349e+09   ,2.4  ,-1.5131  ,5
5368  ,2.455e+09   ,2.4  ,1.8375  ,5
5371  ,1.988e+10   ,2.4325  ,2.4888  ,4.6656
5372  ,5.318e+09   ,2.3333  ,2.5  ,4.6998
5376  ,4.021e+09   ,2.4707  ,2.4707  ,4.6331
5377  ,4.763e+09   ,2.5  ,2.4  ,4.5345
5379  ,3.682e+08   ,-1.5  ,-2.5  ,4.9
5406  ,1.428e+09   ,-2.5  ,-2.4  ,3.4
5420  ,8.962e+08   ,-2.3  ,-2.5  ,3.2226
5423  ,1.153e+09   ,1.5  ,-2.4  ,0
5502  ,8.375e+07   ,-2.5  ,-2.3  ,0.1
5504  ,2.287e+08   ,-2.5  ,-2.4  ,0.2
5506  ,1.644e+08   ,-2.4  ,-2.3  ,0
5511  ,1.860e+08   ,-2.5  ,-2.1  ,0.1
5513  ,6.072e+08   ,-2.4  ,0.5  ,0
5517  ,1.773e+08   ,-0.9  ,-2.5  ,0.1
5532  ,7.627e+07   ,-2.4707  ,2.4707  ,4.9
5534  ,1.858e+08   ,2.4  ,-0.7  ,0
5551  ,7.803e+08   ,2.5  ,-2.4  ,3.8
5566  ,9.336e+08   ,2.5  ,2.4  ,1.3811
5603  ,2.435e+08   ,2.4  ,-0.3  ,0
5617  ,6.224e+08   ,-2.1  ,2.5  ,0.1
5637  ,4.847e+08   ,-2.3  ,-1.9695  ,4.8
5641  ,6.639e+08   ,2.3  ,-2.5  ,3.4636
5645  ,2.755e+08   ,-2.4  ,-2.5  ,2
5649  ,2.652e+08   ,-2.4  ,-2.5  ,2.2
5659  ,3.399e+08   ,-2.3  ,-2.5  ,1.7774
5662  ,3.043e+09   ,2.1765  ,-2.5  ,4.8
5666  ,1.344e+09   ,2.4  ,-2.5  ,4.8
5669  ,1.636e+09   ,2.3  ,-2.3412  ,4.8
5695  ,6.526e+08   ,-2.4  ,0.7  ,0
5701  ,6.251e+08   ,-2.5  ,2.4  ,1.6
5715  ,5.575e+08   ,-2.4  ,2.5  ,1.8
5726  ,5.498e+08   ,-0.7  ,2.5  ,0.1
5727  ,8.050e+08   ,-1.1  ,2.4  ,0
5730  ,2.995e+08   ,2.3  ,-2.5  ,1.7774
5746  ,1.047e+09   ,2.5  ,2.4  ,1.7753
5755  ,1.333e+09   ,2.5  ,-2.4  ,4.4
5763  ,6.193e+08   ,2.4  ,-2.5  ,4.4
5773  ,1.030e+09   ,1.0491  ,2.5  ,4.9
5791  ,9.127e+08   ,-0.72473  ,2.4  ,5
5795  ,2.870e+09   ,1.8375  ,2.4  ,5
5803  ,7.296e+08   ,-0.3  ,-2.4  ,5
5810  ,1.770e+09   ,2.4  ,1.6404  ,5
5836  ,4.338e+08   ,-2.5  ,1.3  ,4.9
5860  ,2.911e+08   ,2.5  ,-2.4  ,1.6
5866  ,4.658e+08   ,1.5  ,-2.5  ,0.1
5884  ,3.473e+08   ,-2.4  ,-0.3  ,5
5888  ,2.069e+08   ,-2.5  ,-0.5  ,4.9
5901  ,5.864e+08   ,2.3  ,-2.5  ,2.5
5908  ,4.351e+08   ,2.5  ,-2.4  ,1.2
5909  ,5.442e+08   ,2.5  ,-2.4  ,2
5934  ,6.243e+08   ,1.9  ,-2.5  ,4.9
5938  ,1.852e+09   ,1.933  ,-2.5  ,4.8
5948  ,6.924e+08   ,-2.4  ,-2.5  ,4.6
5950  ,9.017e+08   ,-2.4707  ,-2.4707  ,4.9
5951  ,9.718e+08   ,-2.5  ,-2.4  ,4.8
5952  ,6.863e+08   ,-2.5  ,-2.3  ,4.9
5986  ,2.386e+08   ,2.3  ,-2.5  ,3.7085
5990  ,1.206e+09   ,-0.92182  ,2.5  ,4.9
6019  ,3.771e+08   ,2.5  ,1.9  ,0.1
6025  ,3.484e+08   ,2.4  ,-1.3  ,0
6035  ,4.229e+08   ,-2.5  ,1.9  ,4.9
6044  ,3.857e+08   ,0.1  ,2.5  ,0.1
6054  ,3.961e+08   ,2.4  ,0.1  ,0
6070  ,2.049e+08   ,-2.4  ,2.3  ,0
6071  ,3.406e+08   ,-2.3  ,2.4  ,0
6076  ,4.228e+08   ,-2.4  ,2.1  ,0
6083  ,9.912e+08   ,2.1  ,-2.4  ,0
6084  ,2.470e+08   ,2.4  ,2.3  ,0
6087  ,2.315e+08   ,2.3  ,2.4  ,0
6092  ,4.942e+08   ,-2.4  ,-2.5  ,0.4
6096  ,3.697e+08   ,-2.3  ,-2.5  ,0.1
6099  ,2.338e+08   ,0.7  ,-2.5  ,0.1
6149  ,6.425e+08   ,-2.4  ,-0.9  ,0
6159  ,1.184e+09   ,-2.5  ,-2.4  ,2.6
6183  ,1.136e+09   ,1.2462  ,2.5  ,4.9
6224  ,4.553e+08   ,2.5  ,-2.4  ,4
6228  ,5.936e+08   ,2.4  ,-2.5  ,3.8
6237  ,7.054e+08   ,2.5  ,0.7  ,0.1
6241  ,4.246e+09   ,2.5  ,2.3333  ,4.6998
6245  ,9.529e+08   ,2.5  ,2.4  ,1.5782
6259  ,1.633e+09   ,2.5  ,-2.1044  ,4.9
6265  ,1.111e+09   ,2.3  ,-1.9804  ,4.8
6267  ,1.727e+09   ,2.5  ,-2.3015  ,4.9
6268  ,1.554e+09   ,2.4707  ,-2.4  ,4.9707
6270  ,1.653e+09   ,2.4  ,-2.1044  ,5
6317  ,1.078e+09   ,-2.3  ,0.2278  ,4.8
6349  ,9.411e+08   ,-0.52764  ,2.4  ,5
6391  ,1.032e+09   ,2.4  ,2.5  ,1.7753
6440  ,5.188e+08   ,-2.5  ,2.4  ,3.8
6471  ,1.240e+09   ,2.5  ,-0.92182  ,4.9
6489  ,1.130e+09   ,2.5  ,1.2462  ,4.9
6523  ,1.837e+08   ,-1.1  ,-2.4  ,0
6528  ,1.952e+08   ,-1.1  ,-2.5  ,0.1
6535  ,1.660e+08   ,-0.9  ,-2.4  ,0
6538  ,4.003e+08   ,1.5  ,-2.4  ,5
6541  ,6.662e+08   ,1.5  ,-2.5  ,4.9
6551  ,1.130e+09   ,2.5  ,-0.72473  ,4.9
6564  ,8.927e+09   ,2.1331  ,2.4973  ,4.923
6565  ,4.906e+09   ,2.0345  ,2.5  ,4.9
6572  ,4.452e+08   ,2.4  ,-1.7  ,0
6581  ,1.061e+09   ,0  ,2.3  ,0.2
6592  ,4.602e+08   ,2.3  ,-1.9695  ,0.2
6594  ,3.740e+08   ,0.3  ,2.4  ,0
6601  ,6.554e+08   ,0.5  ,2.5  ,0.1
6605  ,5.467e+08   ,-2.4  ,-1.3  ,0
6606  ,6.152e+08   ,-2.4  ,-1.1  ,0
6615  ,6.386e+08   ,-2.4  ,-0.3  ,0
6634  ,1.002e+09   ,2.1  ,-2.5  ,4.9
6635  ,1.902e+09   ,2.4  ,-2.4707  ,4.9707
6636  ,2.329e+09   ,2.3  ,-2.4  ,5
6647  ,1.964e+08   ,0.5  ,-2.5  ,0.1
6704  ,1.779e+08   ,-2.4707  ,2.4707  ,0.1
6708  ,3.373e+08   ,-2.5  ,2.4  ,0.2
6712  ,5.998e+08   ,-2.4  ,2.5  ,3.6
6715  ,8.010e+08   ,-2.4  ,2.5  ,3.4
6728  ,6.589e+08   ,-2.5  ,0.7  ,4.9
6753  ,2.969e+08   ,-2.1044  ,2.4  ,5
6788  ,3.120e+09   ,2.5  ,2.4  ,4.3375
6791  ,1.085e+09   ,-1.933  ,-2.5  ,4.8
6795  ,4.705e+09   ,2.1998  ,2.5  ,4.8333
6837  ,5.262e+08   ,-2.3  ,-2.5  ,0.8063
6869  ,1.371e+09   ,2.5  ,-1.7102  ,4.9
6873  ,1.657e+09   ,2.4  ,-1.9073  ,5
6880  ,1.236e+09   ,2.4  ,-0.92182  ,5
6885  ,1.165e+09   ,2.4  ,-0.52764  ,5
6893  ,1.006e+09   ,2.4  ,1.2462  ,5
6914  ,9.180e+08   ,0.7  ,2.5  ,0.1
6920  ,7.100e+08   ,0.9  ,2.4  ,0
6923  ,8.061e+08   ,0.7  ,2.4  ,0
6936  ,3.844e+08   ,2.4  ,-2.5  ,3.4
6939  ,9.308e+08   ,2.3  ,-2.5  ,3.2226
6961  ,3.809e+08   ,-0.1  ,-2.5  ,4.9
6967  ,4.358e+08   ,-2.5  ,-1.5  ,4.9
6975  ,5.760e+08   ,-2.4  ,1.1  ,5
6978  ,4.154e+08   ,-2.4  ,2.5  ,0.2
6987  ,1.262e+09   ,2.4  ,-1.316  ,5
6994  ,4.513e+08   ,2.4  ,-1.5  ,0
7004  ,5.441e+08   ,2.4  ,-2.5  ,3.6
7011  ,8.468e+08   ,2.4  ,0.65491  ,5
7016  ,7.394e+08   ,2.4  ,0.45782  ,5
7019  ,8.904e+08   ,2.5  ,2.4  ,2.1695
7021  ,9.486e+08   ,2.5  ,2.4  ,1.9724
7052  ,7.777e+08   ,-1.3  ,2.5  ,0.1
7054  ,2.954e+08   ,-2.4  ,-2.5  ,0.8
7057  ,2.300e+08   ,0.3  ,-2.5  ,0.1
7065  ,8.169e+08   ,0.24243  ,-2.5  ,0.2
7075  ,1.961e+10   ,2.4888  ,2.4325  ,4.6656
7113  ,3.091e+08   ,-2.4  ,-2.5  ,2.6
7121  ,2.652e+08   ,-2.4  ,-2.5  ,2.8
7126  ,1.209e+09   ,-2.5  ,-2.4  ,2.8
7128  ,3.958e+07   ,-2.4707  ,-2.4707  ,0.1
7129  ,8.122e+07   ,-2.4  ,-2.4707  ,0.029289
7141  ,6.422e+08   ,-1.7  ,-2.4  ,5
7145  ,5.254e+08   ,1.1  ,2.4  ,0
7163  ,5.348e+08   ,-1.7102  ,2.4  ,5
7172  ,1.509e+09   ,2.5  ,-2.4  ,3.2
7174  ,5.407e+08   ,-2.5  ,2.4  ,3.6
7183  ,5.589e+08   ,-1.4531  ,-2.5  ,4.8
7204  ,2.316e+09   ,2.3  ,-0.81068  ,4.8
7220  ,9.817e+08   ,2.5  ,0.063638  ,4.9
7227  ,6.295e+08   ,2.5  ,-1.9  ,0.1
7256  ,9.708e+08   ,-0.1  ,-2.4  ,5
7280  ,8.348e+08   ,-0.33054  ,2.4  ,5
7299  ,1.270e+09   ,2.5  ,-1.1189  ,4.9
7316  ,8.363e+08   ,-2.5  ,-2.4  ,0.8
7323  ,1.888e+08   ,-2.4  ,-2.5  ,1
7396  ,1.232e+09   ,1.1  ,-2.4  ,5
7400  ,6.804e+08   ,-2.5  ,0.7  ,0.1
7409  ,8.928e+08   ,1.3  ,-2.4  ,5
7420  ,3.802e+08   ,2.5  ,2.1  ,0.1
7429  ,4.725e+08   ,2.4  ,1.9  ,0
7436  ,5.330e+08   ,2.5  ,-1.7  ,0.1
7438  ,3.819e+08   ,2.4  ,-2.5  ,2.8
7445  ,9.814e+09   ,2.4325  ,2.1656  ,4.9888
7464  ,3.839e+08   ,2.5  ,-1.5  ,0.1
7480  ,1.085e+09   ,2.5  ,-2.4  ,0.2
7482  ,6.515e+08   ,1.9  ,-2.5  ,0.1
7483  ,5.616e+08   ,1.7  ,-2.5  ,0.1
7486  ,1.347e+09   ,1.9  ,-2.4  ,5
7488  ,1.087e+09   ,1.6937  ,-2.5  ,4.8
7492  ,2.715e+09   ,2.1  ,-2.4  ,5
7495  ,3.209e+08   ,0.1  ,-2.5  ,0.1
7504  ,1.220e+09   ,0.3  ,-2.4  ,0
7507  ,2.756e+08   ,0.9  ,-2.5  ,0.1
7533  ,7.052e+08   ,-2.5  ,0.9  ,0.1
7536  ,2.227e+08   ,-2.4  ,-2.5  ,3.2
7540  ,2.847e+08   ,-2.4  ,-2.5  ,3
7545  ,1.239e+09   ,-2.5  ,-2.4  ,3
7582  ,5.120e+08   ,1.3  ,2.5  ,0.1
7588  ,9.114e+08   ,2.5  ,2.4  ,2.3665
7598  ,5.130e+08   ,-2.5  ,2.4  ,4.2
7607  ,7.574e+08   ,1.5333  ,2.3  ,0.2
7627  ,4.583e+08   ,-2.5  ,1.1  ,4.9
7651  ,5.825e+08   ,2.4  ,-1.9  ,0
7656  ,3.525e+08   ,2.5  ,2.4  ,0.39564
7660  ,5.369e+09   ,2.2299  ,2.3  ,4.7299
7668  ,4.390e+08   ,1.4531  ,-2.5  ,4.8
7676  ,3.647e+08   ,0.1  ,-2.5  ,4.9
7683  ,1.180e+09   ,0.1  ,-2.4  ,5
7686  ,2.641e+08   ,-2.4  ,-1.1  ,5
7702  ,5.902e+08   ,-2.3  ,-2.5  ,4.433
7710  ,1.276e+09   ,-2.3  ,-2.5  ,4.6765
7752  ,1.428e+09   ,0.9  ,-2.4  ,5
7763  ,7.728e+08   ,0.24243  ,-2.5  ,4.8
7767  ,1.330e+09   ,-2.5  ,-2.4  ,3.2
7768  ,2.458e+08   ,-2.4  ,-2.1  ,0
7776  ,7.105e+08   ,-2.4  ,0.9  ,0
7786  ,3.224e+08   ,-0.4838  ,-2.5  ,4.8
7800  ,2.647e+09   ,2.5  ,-2.4  ,4.6
7805  ,3.324e+08   ,-2.5  ,-1.3  ,4.9
7811  ,2.774e+08   ,-2.5  ,-1.1  ,4.9
7820  ,6.864e+08   ,2.5  ,-2.1  ,0.1
7824  ,5.946e+08   ,2.4  ,-2.1  ,0
7828  ,6.913e+08   ,2.4  ,-2.5  ,4.2
7831  ,6.909e+08   ,2.4  ,-2.5  ,4
7838  ,6.261e+08   ,2.5  ,-2.4  ,4.2
7839  ,7.920e+08   ,2.5  ,2.4  ,2.7607
7840  ,8.856e+08   ,2.5  ,2.4  ,2.9578
7863  ,4.750e+08   ,-2.4  ,-1.5  ,0
7890  ,5.419e+08   ,2.4  ,0.9  ,0
7897  ,5.923e+08   ,-2.4  ,-0.7  ,0
7912  ,7.196e+08   ,-1.5  ,-2.4  ,0
7917  ,1.749e+08   ,-1.3  ,-2.5  ,0.1
7931  ,5.197e+08   ,0.5  ,2.4  ,0
7934  ,1.382e+09   ,1.1  ,-2.4  ,0
7937  ,5.001e+08   ,2.4  ,-2.5  ,0.8
7941  ,4.399e+08   ,-2.4  ,-2.5  ,0.6
7969  ,2.192e+08   ,-2.5  ,2.3  ,0.1
7971  ,5.352e+08   ,-2.4  ,1.9  ,0
7972  ,7.572e+08   ,-1.9  ,2.5  ,0.1
7978  ,7.216e+08   ,-2.4  ,1.1  ,0
7996  ,2.225e+08   ,-2.4  ,-0.5  ,5
8000  ,9.068e+08   ,-2.5  ,-2.4  ,0.6
8003  ,7.008e+08   ,-2.5  ,-2.4  ,0.4
8025  ,8.525e+08   ,0.9  ,2.5  ,0.1
8035  ,4.686e+08   ,0.3  ,2.5  ,0.1
8039  ,1.644e+09   ,2.3  ,-2.5  ,0.32348
8041  ,8.965e+08   ,2.3  ,-2.3379  ,0.2
8043  ,1.419e+09   ,2.1765  ,-2.5  ,0.2
8045  ,1.130e+08   ,-0.96359  ,-2.5  ,0.2
8054  ,4.017e+08   ,1.3  ,2.4  ,0
8058  ,6.652e+08   ,1.1  ,2.5  ,0.1
8062  ,8.010e+08   ,-2.5  ,2.4  ,1.4
8067  ,7.400e+08   ,-2.5  ,2.4  ,0.8
8087  ,6.404e+08   ,-2.5  ,1.5  ,0.1
8132  ,8.193e+08   ,-0.13345  ,2.4  ,5
8183  ,2.614e+08   ,2.5  ,-0.9  ,0.1
8184  ,3.446e+08   ,1.6937  ,-2.5  ,0.2
8214  ,7.209e+08   ,-2.4707  ,-2.4  ,4.9707
8217  ,1.253e+09   ,-2.1  ,-2.4  ,5
8219  ,6.879e+08   ,-2.4  ,-2.5  ,4.4
8227  ,9.759e+08   ,2.5  ,2.4  ,3.1549
8242  ,4.194e+08   ,0.7  ,-2.5  ,4.9
8248  ,1.131e+09   ,2.5  ,-2.4  ,3.6
8254  ,2.732e+08   ,2.5  ,-0.3  ,0.1
8256  ,1.608e+08   ,2.5  ,-0.5  ,0.1
8258  ,2.568e+08   ,-0.3  ,-2.5  ,4.9
8263  ,1.802e+08   ,-0.5  ,-2.5  ,4.9
8268  ,8.397e+08   ,-2.3  ,-2.5  ,3.7085
8277  ,3.478e+08   ,-0.1  ,-2.5  ,0.1
8285  ,5.761e+08   ,1.1  ,-2.5  ,4.9
8307  ,2.720e+08   ,0.1  ,2.4  ,0
8308  ,4.933e+08   ,-0.1  ,2.5  ,0.1
8309  ,2.332e+08   ,-0.1  ,2.4  ,0
8313  ,7.111e+08   ,2.5  ,-2.3  ,0.1
8318  ,1.439e+09   ,2.5  ,-2.4  ,3
8338  ,9.334e+08   ,2.5  ,2.4  ,3.352
8339  ,9.480e+08   ,2.4  ,2.5  ,3.1549
8344  ,6.920e+08   ,-2.5  ,2.4  ,3.4
8357  ,9.610e+09   ,2.4888  ,2.1656  ,4.9325
8358  ,3.104e+09   ,2.5  ,2.1998  ,4.8333
8383  ,9.593e+08   ,-1.7  ,-2.4  ,0
8396  ,3.353e+08   ,1.1  ,-2.5  ,0.1
8399  ,2.829e+09   ,2.4526  ,2.1331  ,4.9851
8405  ,4.970e+08   ,2.5  ,-2.4  ,1
8412  ,7.460e+08   ,2.3  ,-2.5  ,0.8063
8417  ,7.300e+08   ,-2.3  ,-2.5  ,2.5
8434  ,6.694e+08   ,0.9636  ,-2.5  ,4.8
8438  ,2.934e+08   ,-0.3  ,-2.5  ,0.1
8452  ,4.710e+08   ,-2.4  ,-0.1  ,5
8468  ,1.295e+09   ,2.5  ,2.4  ,3.7462
8471  ,3.108e+08   ,-1.3  ,-2.5  ,4.9
8493  ,2.502e+08   ,-1.1  ,-2.5  ,4.9
8509  ,4.104e+08   ,-2.5  ,-1.7  ,0.1
8517  ,6.293e+08   ,-2.4  ,2.5  ,3
8531  ,5.920e+08   ,-2.4  ,1.7  ,0
8556  ,1.045e+09   ,2.5  ,2.4  ,3.5491
8573  ,9.709e+08   ,-1.316  ,2.4  ,5
8576  ,7.290e+08   ,-2.4  ,1.3  ,0
8611  ,4.365e+08   ,2.3  ,-2.5  ,1.2915
8618  ,4.922e+08   ,-2.4  ,2.5  ,4
8646  ,7.460e+08   ,-2.5  ,1.1  ,0.1
8656  ,4.015e+08   ,2.5  ,-1.3  ,0.1
8657  ,3.951e+08   ,2.4  ,2.1  ,0
8673  ,7.937e+08   ,-1.3  ,2.4  ,0
8692  ,8.067e+08   ,0.72263  ,-2.5  ,4.8
8696  ,5.543e+08   ,2.3  ,-2.5  ,1.0469
8706  ,7.308e+08   ,2.5  ,0.65491  ,4.9
8721  ,2.889e+08   ,-2.4  ,-2.5  ,1.6
8725  ,1.031e+09   ,0.65491  ,2.4  ,5
8739  ,1.686e+10   ,2.1656  ,2.4325  ,4.9888
8741  ,4.339e+09   ,2.1998  ,2.3333  ,5
8746  ,7.742e+08   ,-2.1  ,-2.4  ,0
8748  ,5.334e+08   ,-2.5  ,-2.4  ,1.2
8752  ,7.076e+09   ,2.1331  ,2.4526  ,4.9851
8759  ,4.807e+08   ,-2.3  ,-2.5  ,1.0469
8787  ,1.049e+09   ,-0.1  ,-2.4  ,0
8793  ,5.558e+08   ,-2.3  ,-2.5  ,2.2576
8795  ,4.103e+08   ,-2.4  ,-2.5  ,2.4
8798  ,4.211e+08   ,-2.3  ,-2.5  ,4.1937
8808  ,6.655e+08   ,-2.3  ,-2.5  ,3.9531
8814  ,6.412e+08   ,-2.4  ,-1.5  ,5
8849  ,8.075e+08   ,0.4838  ,-2.5  ,4.8
8851  ,6.548e+08   ,-2.4  ,-2.5  ,4.2
8868  ,4.489e+08   ,2.4  ,-2.5  ,3
8874  ,9.862e+08   ,0.852  ,2.4  ,5
8883  ,4.957e+08   ,-0.5  ,-2.4  ,5
8886  ,2.258e+08   ,-0.72262  ,-2.5  ,4.8
8893  ,5.285e+07   ,-0.7  ,-2.5  ,4.9
8897  ,1.502e+09   ,-2.5  ,-2.4  ,3.6
8899  ,9.167e+08   ,-2.3  ,-2.5  ,3.4636
8900  ,2.952e+08   ,-2.3  ,-1.4729  ,0.2
8906  ,5.646e+08   ,-2.5  ,-1.3  ,0.1
8910  ,1.011e+09   ,0.852  ,2.5  ,4.9
8925  ,7.386e+08   ,-2.4  ,2.5  ,1.4
8941  ,1.223e+08   ,2.4707  ,2.4  ,0.029289
8942  ,2.409e+08   ,2.5  ,2.3  ,0.1
8945  ,5.564e+08   ,-2.5  ,0.1  ,4.9
8950  ,1.062e+08   ,2.4707  ,2.4707  ,0.1
8951  ,9.435e+07   ,2.4  ,2.4707  ,0.029289
8959  ,7.071e+08   ,2.4  ,0.26073  ,5
8965  ,8.553e+08   ,0.45782  ,2.4  ,5
8978  ,7.277e+08   ,2.4  ,0.852  ,5
8983  ,2.974e+08   ,2.5  ,-1.1  ,0.1
8991  ,6.829e+08   ,-2.5  ,2.4  ,0.6
9008  ,7.277e+08   ,2.5  ,0.852  ,4.9
9011  ,5.983e+08   ,-2.4  ,-0.5  ,0
9025  ,1.654e+08   ,-1.5  ,-2.5  ,0.1
9038  ,1.972e+08   ,2.4  ,-2.5  ,2
9041  ,6.636e+08   ,2.5  ,0.9  ,0.1
9050  ,5.104e+08   ,2.5  ,0.5  ,0.1
9054  ,1.330e+09   ,0.9  ,-2.4  ,0
9060  ,5.111e+08   ,2.4  ,-2.5  ,0.4
9062  ,1.124e+09   ,2.3  ,-2.5  ,0.56701
9064  ,1.147e+09   ,2.5  ,-2.4  ,0.4
9069  ,4.041e+08   ,2.4  ,-2.5  ,0.6
9071  ,5.444e+08   ,1.4531  ,-2.5  ,0.2
9082  ,3.384e+08   ,-2.3  ,-2.5  ,1.2915
9086  ,1.620e+08   ,-2.4  ,-2.5  ,1.4
9091  ,3.268e+08   ,-2.5  ,-2.4  ,1.4
9094  ,6.361e+08   ,1.3  ,-2.5  ,4.9
9097  ,1.684e+08   ,-0.7  ,-2.5  ,0.1
9137  ,2.347e+08   ,-2.5  ,-0.7  ,4.9
9143  ,3.984e+08   ,-2.5  ,-0.1  ,4.9
9146  ,5.889e+08   ,-2.1  ,2.4  ,0
9148  ,4.418e+08   ,-2.5  ,1.7  ,4.9
9173  ,5.415e+08   ,-2.5  ,2.4  ,3
9192  ,3.856e+08   ,-0.7  ,-2.4  ,5
9195  ,9.425e+08   ,0.72263  ,-2.5  ,0.2
9209  ,1.404e+09   ,2.5  ,-2.4  ,3.4
9215  ,8.545e+08   ,0.9636  ,-2.5  ,0.2
9217  ,4.334e+08   ,2.4  ,-2.5  ,3.2
9218  ,2.137e+08   ,-0.96359  ,-2.5  ,4.8
9229  ,6.041e+08   ,-2.4  ,2.5  ,2.8
9248  ,1.892e+09   ,2.3  ,-2.5  ,4.433
9255  ,5.296e+08   ,2.5  ,1.3  ,0.1
9257  ,3.662e+08   ,2.4  ,1.5  ,0
9262  ,1.411e+09   ,0.5  ,-2.4  ,5
9264  ,8.895e+08   ,2.4  ,-0.13345  ,5
9272  ,6.342e+08   ,0.063638  ,2.4  ,5
9277  ,8.144e+08   ,-2.5  ,2.4  ,1.2
9279  ,8.246e+08   ,2.5  ,0.26073  ,4.9
9282  ,2.679e+08   ,1.2085  ,-2.5  ,4.8
9286  ,4.276e+08   ,0.9  ,-2.5  ,4.9
9292  ,9.491e+07   ,-2.4  ,2.4707  ,4.9707
9293  ,1.691e+08   ,-2.3015  ,2.4  ,5
9296  ,6.615e+08   ,-2.4  ,-2.1  ,5
9303  ,6.879e+08   ,-2.4  ,-1.9  ,5
9311  ,2.129e+08   ,-2.4  ,2.3  ,5
9313  ,5.511e+08   ,-2.4  ,0.1  ,5
9319  ,6.589e+08   ,-0.5  ,-2.4  ,0
9328  ,1.109e+08   ,-2.3  ,-2.5  ,1.5364
9334  ,4.439e+08   ,-2.3  ,2.5  ,0.1
9338  ,1.014e+09   ,-2.5  ,-2.4  ,2.4
9339  ,6.731e+08   ,-2.5  ,1.3  ,0.1
9341  ,8.158e+08   ,-2.3  ,-2.5  ,2.7424
9344  ,7.989e+08   ,-2.5  ,-2.4  ,2.2
9358  ,1.511e+09   ,-2.3  ,2.3  ,2.5
9364  ,6.553e+08   ,-2.5  ,-2.1  ,4.9
9367  ,8.012e+08   ,-2.4  ,-2.3  ,5
9374  ,4.194e+08   ,-2.4  ,-1.3  ,5
9378  ,3.597e+08   ,-2.5  ,2.4  ,1.8
9384  ,4.113e+08   ,2.3  ,-2.5  ,2.0162
9385  ,5.016e+08   ,-2.5  ,2.4  ,4.4
9389  ,3.917e+08   ,-2.5  ,2.4  ,2
9395  ,1.610e+09   ,2.4  ,-2.3015  ,5
9396  ,3.792e+08   ,-2.4  ,-1.7  ,0
9407  ,4.716e+08   ,-2.3  ,-1.4729  ,4.8
9411  ,4.447e+08   ,-2.5  ,-1.7  ,4.9
9423  ,3.472e+08   ,-2.4  ,-2.5  ,3.6
9432  ,1.493e+09   ,0.7  ,-2.4  ,5
9438  ,2.317e+08   ,-2.5  ,-0.9  ,4.9
9443  ,3.202e+08   ,-2.5  ,-0.3  ,4.9
9445  ,6.388e+07   ,-2.4707  ,2.4  ,4.9707
9448  ,1.190e+09   ,2.4  ,-1.1189  ,5
9453  ,6.279e+08   ,2.4  ,0.7  ,0
9455  ,1.119e+09   ,2.5  ,-2.4  ,2.6
9457  ,8.484e+08   ,2.3  ,-2.5  ,2.9838
9494  ,7.738e+08   ,-2.4  ,2.5  ,1
9500  ,3.590e+08   ,0.3  ,-2.5  ,4.9
9504  ,1.329e+09   ,0.3  ,-2.4  ,5
9506  ,5.603e+08   ,2.1  ,-2.5  ,0.1
9518  ,5.681e+08   ,-1.9  ,-2.5  ,0.1
9528  ,6.061e+08   ,2.3  ,-2.5  ,0.1
9531  ,1.133e+09   ,2.4707  ,-2.4707  ,0.1
9533  ,7.204e+08   ,2.4707  ,-2.4  ,0.029289
9534  ,9.112e+08   ,2.4  ,-2.4707  ,0.029289
9541  ,4.301e+08   ,0.5  ,-2.5  ,4.9
9544  ,2.279e+08   ,-0.5  ,-2.5  ,0.1
9559  ,5.444e+08   ,-2.5  ,-1.9  ,4.9
9562  ,4.393e+08   ,-2.5  ,2.4  ,4.6
9565  ,5.086e+08   ,-2.4  ,2.5  ,2
9571  ,1.453e+09   ,-2.5  ,-2.4  ,3.8
9574  ,4.450e+08   ,-2.4  ,-2.5  ,3.8
9577  ,4.079e+08   ,1.3  ,-2.5  ,0.1
9582  ,6.125e+08   ,-2.5  ,-0.9  ,0.1
9596  ,3.723e+08   ,2.1  ,2.4  ,0
9598  ,8.601e+08   ,-2.4  ,2.5  ,3.2
9602  ,5.302e+08   ,1.5  ,2.5  ,0.1
9610  ,3.646e+08   ,2.4  ,2.5  ,0.39564
9612  ,1.150e+09   ,-0.72473  ,2.5  ,4.9
9614  ,5.192e+08   ,1.7  ,2.5  ,0.1
9635  ,4.572e+08   ,2.5  ,1.7  ,0.1
9646  ,1.924e+08   ,2.3  ,2.5  ,0.1
9651  ,1.591e+10   ,2.1656  ,2.4888  ,4.9325
9653  ,1.218e+09   ,2.5  ,-1.316  ,4.9
9656  ,5.359e+08   ,-2.4  ,-1.7  ,5
9659  ,3.082e+09   ,2.3  ,-2.5  ,4.6765
9661  ,4.559e+08   ,2.3  ,-2.5  ,3.9531
9664  ,1.109e+09   ,-2.3  ,-2.4  ,5
9666  ,4.472e+08   ,1.9  ,-2.4  ,0
9677  ,6.223e+08   ,2.4  ,0.5  ,0
9678  ,6.116e+08   ,-2.5  ,-1.1  ,0.1
9680  ,9.050e+08   ,2.5  ,2.4  ,1.184
9681  ,1.448e+08   ,2.5  ,2.4  ,0.19855
9696  ,4.857e+08   ,-2.3  ,-2.5  ,2.0162
9698  ,7.652e+08   ,2.4  ,-2.3  ,0
9699  ,5.285e+08   ,-0.24243  ,-2.5  ,0.2
9701  ,1.147e+09   ,0.1  ,-2.4  ,0
9704  ,4.324e+08   ,-0.4838  ,-2.5  ,0.2
9718  ,2.958e+08   ,-0.72262  ,-2.5  ,0.2
9726  ,8.527e+08   ,2.3  ,-0.76628  ,0.2
9727  ,6.272e+08   ,-2.5  ,2.4  ,0.4
9730  ,6.100e+08   ,1.9433E-06  ,-2.5  ,4.8
9731  ,4.592e+08   ,-0.24243  ,-2.5  ,4.8
9732  ,4.211e+08   ,-2.5  ,2.4  ,2.2
9738  ,1.174e+09   ,-2.5  ,-2.4  ,4
9743  ,7.861e+08   ,-1.6937  ,-2.5  ,4.8
9744  ,5.492e+08   ,-2.4  ,-2.5  ,4
9750  ,3.397e+08   ,-1.7  ,-2.5  ,0.1
9752  ,5.781e+08   ,-1.6937  ,-2.5  ,0.2
9754  ,4.532e+08   ,-1.3  ,-2.4  ,0
9759  ,1.129e+08   ,-2.4707  ,2.4  ,0.029289
9760  ,1.616e+08   ,-2.4  ,2.4707  ,0.029289
9768  ,1.114e+09   ,2.3  ,-2.5  ,4.1937
9770  ,6.422e+08   ,1.9433E-06  ,-2.5  ,0.2
9771  ,9.024e+08   ,0.4838  ,-2.5  ,0.2
9772  ,4.301e+08   ,2.4  ,-2.5  ,0.2
9773  ,1.019e+09   ,2.4  ,-2.5  ,4.6
9776  ,8.131e+08   ,2.4  ,0.063638  ,5
9780  ,1.023e+09   ,0.65491  ,2.5  ,4.9
9781  ,1.706e+08   ,2.4  ,2.5  ,0.19855
9782  ,8.458e+08   ,-2.3  ,-2.5  ,2.9838
9786  ,2.302e+08   ,-1.2085  ,-2.5  ,0.2
9787  ,4.611e+08   ,-1.4531  ,-2.5  ,0.2
9790  ,9.918e+08   ,2.3  ,-2.4  ,0
9793  ,4.715e+09   ,2.0345  ,2.4  ,5
9797  ,2.924e+08   ,2.3  ,-2.5  ,1.5364
9798  ,8.482e+08   ,2.4  ,1.0491  ,5
9809  ,9.572e+08   ,2.4  ,2.5  ,3.352
