Date:  11:28, Monday, July 10, 2023
Model name: Hollow_DropBox
Study name: Drop Test_hollow_draft1(-Default-)
Plot type:  Stress1
Plot step: 23   time : 120.702 Microseconds
Result Type: von Mises 


Node  ,Value (N/m^2)  ,X (in)  ,Y (in)  ,Z (in)
1  ,2.478e+09   ,2.5  ,2.1331  ,4.9
2  ,1.037e+10   ,2.4577  ,2.1908  ,4.9577
3  ,3.218e+09   ,2.4894  ,2.1331  ,4.9447
4  ,5.074e+09   ,2.1331  ,2.5  ,4.9
5  ,9.865e+09   ,2.1331  ,2.4894  ,4.9447
6  ,1.836e+10   ,2.1908  ,2.4577  ,4.9577
7  ,8.922e+07   ,-2.4  ,2.4  ,5
8  ,1.184e+09   ,-2.4  ,-2.4  ,5
9  ,1.852e+09   ,2.4  ,-2.4  ,5
10  ,2.472e+09   ,2.4  ,2.1331  ,5
11  ,4.643e+09   ,2.1331  ,2.4  ,5
12  ,1.990e+09   ,2.5  ,-2.4  ,4.9
13  ,1.091e+09   ,2.5  ,-2.4  ,0.1
14  ,9.943e+07   ,2.5  ,2.4  ,0.1
15  ,5.070e+09   ,2.5  ,2.4  ,4.6331
16  ,1.538e+08   ,2.4  ,2.5  ,0.1
17  ,3.096e+08   ,-2.4  ,2.5  ,0.1
18  ,1.248e+08   ,-2.4  ,2.5  ,4.9
19  ,5.490e+09   ,2.4  ,2.5  ,4.6331
20  ,1.859e+08   ,-2.5  ,2.4  ,0.1
21  ,1.753e+08   ,-2.5  ,-2.4  ,0.1
22  ,8.159e+08   ,-2.5  ,-2.4  ,4.9
23  ,1.478e+08   ,-2.5  ,2.4  ,4.9
24  ,5.460e+08   ,-2.3  ,-2.5  ,0.2
25  ,8.489e+08   ,-2.3  ,-2.5  ,4.8
26  ,1.589e+09   ,2.3  ,-2.5  ,4.8
27  ,8.448e+08   ,2.3  ,-2.5  ,0.2
28  ,1.019e+09   ,-2.4  ,-2.5  ,4.9
29  ,2.070e+09   ,2.4  ,-2.5  ,4.9
30  ,1.958e+08   ,-2.4  ,-2.5  ,0.1
31  ,1.029e+09   ,2.4  ,-2.5  ,0.1
32  ,8.693e+08   ,2.4  ,-2.4  ,0
33  ,1.695e+08   ,2.4  ,2.4  ,0
34  ,7.739e+07   ,-2.4  ,-2.4  ,0
35  ,2.220e+08   ,-2.4  ,2.4  ,0
36  ,2.011e+10   ,2.4577  ,2.4577  ,4.6908
37  ,3.068e+08   ,-2.3  ,2.3  ,4.8
38  ,5.182e+09   ,2.1599  ,2.3  ,4.8
39  ,4.378e+09   ,2.3  ,2.1599  ,4.8
40  ,4.995e+09   ,2.3  ,2.3  ,4.6599
41  ,3.347e+08   ,2.3  ,2.3  ,0.2
42  ,4.107e+08   ,-2.3  ,2.3  ,0.2
43  ,2.545e+08   ,-2.4  ,2.2  ,5
44  ,4.203e+08   ,-2.4  ,2  ,5
45  ,4.669e+08   ,-2.4  ,1.8  ,5
46  ,4.763e+08   ,-2.4  ,1.6  ,5
47  ,5.152e+08   ,-2.4  ,1.4  ,5
48  ,6.087e+08   ,-2.4  ,1.2  ,5
49  ,7.467e+08   ,-2.4  ,1  ,5
50  ,8.553e+08   ,-2.4  ,0.8  ,5
51  ,5.542e+08   ,-2.4  ,0.6  ,5
52  ,5.407e+08   ,-2.4  ,0.4  ,5
53  ,6.237e+08   ,-2.4  ,0.2  ,5
54  ,6.529e+08   ,-2.4  ,5.8879E-16  ,5
55  ,5.833e+08   ,-2.4  ,-0.2  ,5
56  ,4.170e+08   ,-2.4  ,-0.4  ,5
57  ,2.619e+08   ,-2.4  ,-0.6  ,5
58  ,2.152e+08   ,-2.4  ,-0.8  ,5
59  ,3.103e+08   ,-2.4  ,-1  ,5
60  ,3.154e+08   ,-2.4  ,-1.2  ,5
61  ,5.282e+08   ,-2.4  ,-1.4  ,5
62  ,4.525e+08   ,-2.4  ,-1.6  ,5
63  ,4.216e+08   ,-2.4  ,-1.8  ,5
64  ,6.468e+08   ,-2.4  ,-2  ,5
65  ,6.404e+08   ,-2.4  ,-2.2  ,5
66  ,1.469e+09   ,-2.2  ,-2.4  ,5
67  ,1.076e+09   ,-2  ,-2.4  ,5
68  ,8.966e+08   ,-1.8  ,-2.4  ,5
69  ,6.551e+08   ,-1.6  ,-2.4  ,5
70  ,5.325e+08   ,-1.4  ,-2.4  ,5
71  ,4.733e+08   ,-1.2  ,-2.4  ,5
72  ,4.759e+08   ,-1  ,-2.4  ,5
73  ,5.736e+08   ,-0.8  ,-2.4  ,5
74  ,6.296e+08   ,-0.6  ,-2.4  ,5
75  ,8.465e+08   ,-0.4  ,-2.4  ,5
76  ,1.013e+09   ,-0.2  ,-2.4  ,5
77  ,1.427e+09   ,-5.8879E-16  ,-2.4  ,5
78  ,1.513e+09   ,0.2  ,-2.4  ,5
79  ,1.536e+09   ,0.4  ,-2.4  ,5
80  ,1.714e+09   ,0.6  ,-2.4  ,5
81  ,1.373e+09   ,0.8  ,-2.4  ,5
82  ,1.047e+09   ,1  ,-2.4  ,5
83  ,8.790e+08   ,1.2  ,-2.4  ,5
84  ,5.676e+08   ,1.4  ,-2.4  ,5
85  ,5.843e+08   ,1.6  ,-2.4  ,5
86  ,1.508e+09   ,1.8  ,-2.4  ,5
87  ,1.950e+09   ,2  ,-2.4  ,5
88  ,3.383e+09   ,2.2  ,-2.4  ,5
89  ,1.664e+09   ,2.4  ,-2.2029  ,5
90  ,1.901e+09   ,2.4  ,-2.0058  ,5
91  ,1.444e+09   ,2.4  ,-1.8087  ,5
92  ,1.331e+09   ,2.4  ,-1.6116  ,5
93  ,1.474e+09   ,2.4  ,-1.4145  ,5
94  ,1.269e+09   ,2.4  ,-1.2175  ,5
95  ,1.362e+09   ,2.4  ,-1.0204  ,5
96  ,1.272e+09   ,2.4  ,-0.82327  ,5
97  ,1.267e+09   ,2.4  ,-0.62618  ,5
98  ,1.130e+09   ,2.4  ,-0.42909  ,5
99  ,1.056e+09   ,2.4  ,-0.232  ,5
100  ,8.415e+08   ,2.4  ,-0.034907  ,5
101  ,7.875e+08   ,2.4  ,0.16218  ,5
102  ,7.112e+08   ,2.4  ,0.35927  ,5
103  ,8.200e+08   ,2.4  ,0.55637  ,5
104  ,8.258e+08   ,2.4  ,0.75346  ,5
105  ,6.320e+08   ,2.4  ,0.95055  ,5
106  ,8.485e+08   ,2.4  ,1.1476  ,5
107  ,1.141e+09   ,2.4  ,1.3447  ,5
108  ,1.566e+09   ,2.4  ,1.5418  ,5
109  ,1.872e+09   ,2.4  ,1.7389  ,5
110  ,2.600e+09   ,2.4  ,1.936  ,5
111  ,3.679e+09   ,2.2665  ,2.2665  ,5
112  ,3.625e+09   ,1.936  ,2.4  ,5
113  ,2.260e+09   ,1.7389  ,2.4  ,5
114  ,1.770e+09   ,1.5418  ,2.4  ,5
115  ,1.266e+09   ,1.3447  ,2.4  ,5
116  ,1.050e+09   ,1.1476  ,2.4  ,5
117  ,8.916e+08   ,0.95055  ,2.4  ,5
118  ,8.892e+08   ,0.75346  ,2.4  ,5
119  ,7.951e+08   ,0.55637  ,2.4  ,5
120  ,6.411e+08   ,0.35927  ,2.4  ,5
121  ,6.138e+08   ,0.16218  ,2.4  ,5
122  ,7.473e+08   ,-0.034907  ,2.4  ,5
123  ,8.626e+08   ,-0.232  ,2.4  ,5
124  ,8.893e+08   ,-0.42909  ,2.4  ,5
125  ,8.091e+08   ,-0.62618  ,2.4  ,5
126  ,1.164e+09   ,-0.82327  ,2.4  ,5
127  ,1.264e+09   ,-1.0204  ,2.4  ,5
128  ,1.218e+09   ,-1.2175  ,2.4  ,5
129  ,9.924e+08   ,-1.4145  ,2.4  ,5
130  ,7.029e+08   ,-1.6116  ,2.4  ,5
131  ,4.770e+08   ,-1.8087  ,2.4  ,5
132  ,3.479e+08   ,-2.0058  ,2.4  ,5
133  ,2.138e+08   ,-2.2029  ,2.4  ,5
294  ,1.410e+09   ,2.5  ,-2.2029  ,4.9
295  ,1.819e+09   ,2.5  ,-2.0058  ,4.9
296  ,1.454e+09   ,2.5  ,-1.8087  ,4.9
297  ,1.540e+09   ,2.5  ,-1.6116  ,4.9
298  ,1.283e+09   ,2.5  ,-1.4145  ,4.9
299  ,1.253e+09   ,2.5  ,-1.2175  ,4.9
300  ,1.405e+09   ,2.5  ,-1.0204  ,4.9
301  ,1.092e+09   ,2.5  ,-0.82327  ,4.9
302  ,1.255e+09   ,2.5  ,-0.62618  ,4.9
303  ,1.121e+09   ,2.5  ,-0.42909  ,4.9
304  ,1.344e+09   ,2.5  ,-0.232  ,4.9
305  ,1.410e+09   ,2.5  ,-0.034907  ,4.9
306  ,9.460e+08   ,2.5  ,0.16218  ,4.9
307  ,7.809e+08   ,2.5  ,0.35927  ,4.9
308  ,8.111e+08   ,2.5  ,0.55637  ,4.9
309  ,8.118e+08   ,2.5  ,0.75346  ,4.9
310  ,8.626e+08   ,2.5  ,0.95055  ,4.9
311  ,1.011e+09   ,2.5  ,1.1476  ,4.9
312  ,1.232e+09   ,2.5  ,1.3447  ,4.9
313  ,1.553e+09   ,2.5  ,1.5418  ,4.9
314  ,2.031e+09   ,2.5  ,1.7389  ,4.9
315  ,2.654e+09   ,2.5  ,1.936  ,4.9
316  ,3.375e+09   ,2.5  ,-2.4  ,4.7
317  ,1.880e+09   ,2.5  ,-2.4  ,4.5
318  ,1.499e+09   ,2.5  ,-2.4  ,4.3
319  ,4.584e+08   ,2.5  ,-2.4  ,4.1
320  ,5.119e+08   ,2.5  ,-2.4  ,3.9
321  ,9.060e+08   ,2.5  ,-2.4  ,3.7
322  ,1.107e+09   ,2.5  ,-2.4  ,3.5
323  ,1.297e+09   ,2.5  ,-2.4  ,3.3
324  ,1.501e+09   ,2.5  ,-2.4  ,3.1
325  ,1.473e+09   ,2.5  ,-2.4  ,2.9
326  ,1.500e+09   ,2.5  ,-2.4  ,2.7
327  ,1.430e+09   ,2.5  ,-2.4  ,2.5
328  ,9.940e+08   ,2.5  ,-2.4  ,2.3
329  ,7.750e+08   ,2.5  ,-2.4  ,2.1
330  ,6.178e+08   ,2.5  ,-2.4  ,1.9
331  ,6.134e+08   ,2.5  ,-2.4  ,1.7
332  ,5.776e+08   ,2.5  ,-2.4  ,1.5
333  ,5.700e+08   ,2.5  ,-2.4  ,1.3
334  ,5.525e+08   ,2.5  ,-2.4  ,1.1
335  ,5.813e+08   ,2.5  ,-2.4  ,0.9
336  ,8.242e+08   ,2.5  ,-2.4  ,0.7
337  ,1.005e+09   ,2.5  ,-2.4  ,0.5
338  ,1.379e+09   ,2.5  ,-2.4  ,0.3
339  ,6.716e+08   ,2.5  ,-2.2  ,0.1
340  ,7.010e+08   ,2.5  ,-2  ,0.1
341  ,4.675e+08   ,2.5  ,-1.8  ,0.1
342  ,4.387e+08   ,2.5  ,-1.6  ,0.1
343  ,3.275e+08   ,2.5  ,-1.4  ,0.1
344  ,2.938e+08   ,2.5  ,-1.2  ,0.1
345  ,2.836e+08   ,2.5  ,-1  ,0.1
346  ,1.930e+08   ,2.5  ,-0.8  ,0.1
347  ,2.493e+08   ,2.5  ,-0.6  ,0.1
348  ,3.441e+08   ,2.5  ,-0.4  ,0.1
349  ,4.761e+08   ,2.5  ,-0.2  ,0.1
350  ,4.893e+08   ,2.5  ,-1.7664E-15  ,0.1
351  ,5.000e+08   ,2.5  ,0.2  ,0.1
352  ,5.094e+08   ,2.5  ,0.4  ,0.1
353  ,6.940e+08   ,2.5  ,0.6  ,0.1
354  ,9.068e+08   ,2.5  ,0.8  ,0.1
355  ,7.217e+08   ,2.5  ,1  ,0.1
356  ,6.675e+08   ,2.5  ,1.2  ,0.1
357  ,5.544e+08   ,2.5  ,1.4  ,0.1
358  ,4.584e+08   ,2.5  ,1.6  ,0.1
359  ,3.808e+08   ,2.5  ,1.8  ,0.1
360  ,3.638e+08   ,2.5  ,2  ,0.1
361  ,2.959e+08   ,2.5  ,2.2  ,0.1
362  ,3.567e+09   ,2.5  ,2.4  ,4.436
363  ,2.492e+09   ,2.5  ,2.4  ,4.2389
364  ,1.648e+09   ,2.5  ,2.4  ,4.0418
365  ,1.374e+09   ,2.5  ,2.4  ,3.8447
366  ,1.074e+09   ,2.5  ,2.4  ,3.6476
367  ,9.100e+08   ,2.5  ,2.4  ,3.4505
368  ,8.162e+08   ,2.5  ,2.4  ,3.2535
369  ,8.199e+08   ,2.5  ,2.4  ,3.0564
370  ,7.654e+08   ,2.5  ,2.4  ,2.8593
371  ,7.061e+08   ,2.5  ,2.4  ,2.6622
372  ,8.658e+08   ,2.5  ,2.4  ,2.4651
373  ,8.899e+08   ,2.5  ,2.4  ,2.268
374  ,9.566e+08   ,2.5  ,2.4  ,2.0709
375  ,9.400e+08   ,2.5  ,2.4  ,1.8738
376  ,1.096e+09   ,2.5  ,2.4  ,1.6767
377  ,9.661e+08   ,2.5  ,2.4  ,1.4796
378  ,1.036e+09   ,2.5  ,2.4  ,1.2825
379  ,9.751e+08   ,2.5  ,2.4  ,1.0855
380  ,8.897e+08   ,2.5  ,2.4  ,0.88836
381  ,7.093e+08   ,2.5  ,2.4  ,0.69127
382  ,3.741e+08   ,2.5  ,2.4  ,0.49418
383  ,2.200e+08   ,2.5  ,2.4  ,0.29709
384  ,3.651e+09   ,2.5  ,2.2665  ,4.7665
544  ,3.986e+08   ,2.2  ,2.5  ,0.1
545  ,5.628e+08   ,2  ,2.5  ,0.1
546  ,5.846e+08   ,1.8  ,2.5  ,0.1
547  ,6.549e+08   ,1.6  ,2.5  ,0.1
548  ,5.836e+08   ,1.4  ,2.5  ,0.1
549  ,7.230e+08   ,1.2  ,2.5  ,0.1
550  ,8.122e+08   ,1  ,2.5  ,0.1
551  ,1.083e+09   ,0.8  ,2.5  ,0.1
552  ,8.332e+08   ,0.6  ,2.5  ,0.1
553  ,4.278e+08   ,0.4  ,2.5  ,0.1
554  ,3.593e+08   ,0.2  ,2.5  ,0.1
555  ,1.984e+08   ,5.8879E-16  ,2.5  ,0.1
556  ,4.470e+08   ,-0.2  ,2.5  ,0.1
557  ,4.746e+08   ,-0.4  ,2.5  ,0.1
558  ,4.447e+08   ,-0.6  ,2.5  ,0.1
559  ,6.677e+08   ,-0.8  ,2.5  ,0.1
560  ,7.276e+08   ,-1  ,2.5  ,0.1
561  ,8.158e+08   ,-1.2  ,2.5  ,0.1
562  ,7.812e+08   ,-1.4  ,2.5  ,0.1
563  ,7.906e+08   ,-1.6  ,2.5  ,0.1
564  ,7.673e+08   ,-1.8  ,2.5  ,0.1
565  ,7.285e+08   ,-2  ,2.5  ,0.1
566  ,5.793e+08   ,-2.2  ,2.5  ,0.1
567  ,3.908e+08   ,-2.4  ,2.5  ,4.7
568  ,5.924e+08   ,-2.4  ,2.5  ,4.5
569  ,6.055e+08   ,-2.4  ,2.5  ,4.3
570  ,6.700e+08   ,-2.4  ,2.5  ,4.1
571  ,6.020e+08   ,-2.4  ,2.5  ,3.9
572  ,6.489e+08   ,-2.4  ,2.5  ,3.7
573  ,7.871e+08   ,-2.4  ,2.5  ,3.5
574  ,1.010e+09   ,-2.4  ,2.5  ,3.3
575  ,7.054e+08   ,-2.4  ,2.5  ,3.1
576  ,5.031e+08   ,-2.4  ,2.5  ,2.9
577  ,4.831e+08   ,-2.4  ,2.5  ,2.7
578  ,3.665e+08   ,-2.4  ,2.5  ,2.5
579  ,3.790e+08   ,-2.4  ,2.5  ,2.3
580  ,4.534e+08   ,-2.4  ,2.5  ,2.1
581  ,4.986e+08   ,-2.4  ,2.5  ,1.9
582  ,6.379e+08   ,-2.4  ,2.5  ,1.7
583  ,7.170e+08   ,-2.4  ,2.5  ,1.5
584  ,8.204e+08   ,-2.4  ,2.5  ,1.3
585  ,8.166e+08   ,-2.4  ,2.5  ,1.1
586  ,8.476e+08   ,-2.4  ,2.5  ,0.9
587  ,7.633e+08   ,-2.4  ,2.5  ,0.7
588  ,7.018e+08   ,-2.4  ,2.5  ,0.5
589  ,5.917e+08   ,-2.4  ,2.5  ,0.3
590  ,4.121e+09   ,1.936  ,2.5  ,4.9
591  ,2.105e+09   ,1.7389  ,2.5  ,4.9
592  ,1.564e+09   ,1.5418  ,2.5  ,4.9
593  ,1.243e+09   ,1.3447  ,2.5  ,4.9
594  ,9.456e+08   ,1.1476  ,2.5  ,4.9
595  ,8.835e+08   ,0.95055  ,2.5  ,4.9
596  ,9.201e+08   ,0.75346  ,2.5  ,4.9
597  ,7.574e+08   ,0.55637  ,2.5  ,4.9
598  ,7.363e+08   ,0.35927  ,2.5  ,4.9
599  ,6.201e+08   ,0.16218  ,2.5  ,4.9
600  ,6.003e+08   ,-0.034907  ,2.5  ,4.9
601  ,6.641e+08   ,-0.232  ,2.5  ,4.9
602  ,1.227e+09   ,-0.42909  ,2.5  ,4.9
603  ,1.278e+09   ,-0.62618  ,2.5  ,4.9
604  ,1.277e+09   ,-0.82327  ,2.5  ,4.9
605  ,1.452e+09   ,-1.0204  ,2.5  ,4.9
606  ,1.278e+09   ,-1.2175  ,2.5  ,4.9
607  ,1.021e+09   ,-1.4145  ,2.5  ,4.9
608  ,8.199e+08   ,-1.6116  ,2.5  ,4.9
609  ,5.774e+08   ,-1.8087  ,2.5  ,4.9
610  ,3.765e+08   ,-2.0058  ,2.5  ,4.9
611  ,2.070e+08   ,-2.2029  ,2.5  ,4.9
612  ,5.304e+09   ,2.2665  ,2.5  ,4.7665
613  ,3.539e+09   ,2.4  ,2.5  ,4.436
614  ,2.312e+09   ,2.4  ,2.5  ,4.2389
615  ,1.598e+09   ,2.4  ,2.5  ,4.0418
616  ,1.271e+09   ,2.4  ,2.5  ,3.8447
617  ,1.019e+09   ,2.4  ,2.5  ,3.6476
618  ,8.723e+08   ,2.4  ,2.5  ,3.4505
619  ,8.776e+08   ,2.4  ,2.5  ,3.2535
620  ,8.091e+08   ,2.4  ,2.5  ,3.0564
621  ,6.961e+08   ,2.4  ,2.5  ,2.8593
622  ,7.154e+08   ,2.4  ,2.5  ,2.6622
623  ,6.862e+08   ,2.4  ,2.5  ,2.4651
624  ,7.101e+08   ,2.4  ,2.5  ,2.268
625  ,7.811e+08   ,2.4  ,2.5  ,2.0709
626  ,9.250e+08   ,2.4  ,2.5  ,1.8738
627  ,1.152e+09   ,2.4  ,2.5  ,1.6767
628  ,1.404e+09   ,2.4  ,2.5  ,1.4796
629  ,1.471e+09   ,2.4  ,2.5  ,1.2825
630  ,1.039e+09   ,2.4  ,2.5  ,1.0855
631  ,7.802e+08   ,2.4  ,2.5  ,0.88836
632  ,5.857e+08   ,2.4  ,2.5  ,0.69127
633  ,4.734e+08   ,2.4  ,2.5  ,0.49418
634  ,2.469e+08   ,2.4  ,2.5  ,0.29709
796  ,3.581e+08   ,-2.5  ,2.2  ,0.1
797  ,4.837e+08   ,-2.5  ,2  ,0.1
798  ,6.102e+08   ,-2.5  ,1.8  ,0.1
799  ,6.381e+08   ,-2.5  ,1.6  ,0.1
800  ,7.157e+08   ,-2.5  ,1.4  ,0.1
801  ,7.778e+08   ,-2.5  ,1.2  ,0.1
802  ,7.191e+08   ,-2.5  ,1  ,0.1
803  ,6.910e+08   ,-2.5  ,0.8  ,0.1
804  ,6.982e+08   ,-2.5  ,0.6  ,0.1
805  ,7.274e+08   ,-2.5  ,0.4  ,0.1
806  ,6.294e+08   ,-2.5  ,0.2  ,0.1
807  ,6.227e+08   ,-2.5  ,5.8879E-16  ,0.1
808  ,6.322e+08   ,-2.5  ,-0.2  ,0.1
809  ,6.519e+08   ,-2.5  ,-0.4  ,0.1
810  ,6.730e+08   ,-2.5  ,-0.6  ,0.1
811  ,5.966e+08   ,-2.5  ,-0.8  ,0.1
812  ,6.768e+08   ,-2.5  ,-1  ,0.1
813  ,6.258e+08   ,-2.5  ,-1.2  ,0.1
814  ,6.688e+08   ,-2.5  ,-1.4  ,0.1
815  ,5.607e+08   ,-2.5  ,-1.6  ,0.1
816  ,4.559e+08   ,-2.5  ,-1.8  ,0.1
817  ,4.241e+08   ,-2.5  ,-2  ,0.1
818  ,2.379e+08   ,-2.5  ,-2.2  ,0.1
819  ,1.170e+09   ,-2.5  ,-2.4  ,4.7
820  ,6.432e+08   ,-2.5  ,-2.4  ,4.5
821  ,5.327e+08   ,-2.5  ,-2.4  ,4.3
822  ,9.084e+08   ,-2.5  ,-2.4  ,4.1
823  ,1.149e+09   ,-2.5  ,-2.4  ,3.9
824  ,1.289e+09   ,-2.5  ,-2.4  ,3.7
825  ,1.527e+09   ,-2.5  ,-2.4  ,3.5
826  ,1.379e+09   ,-2.5  ,-2.4  ,3.3
827  ,1.535e+09   ,-2.5  ,-2.4  ,3.1
828  ,1.448e+09   ,-2.5  ,-2.4  ,2.9
829  ,1.314e+09   ,-2.5  ,-2.4  ,2.7
830  ,1.395e+09   ,-2.5  ,-2.4  ,2.5
831  ,1.154e+09   ,-2.5  ,-2.4  ,2.3
832  ,1.019e+09   ,-2.5  ,-2.4  ,2.1
833  ,5.511e+08   ,-2.5  ,-2.4  ,1.9
834  ,2.776e+08   ,-2.5  ,-2.4  ,1.7
835  ,8.290e+07   ,-2.5  ,-2.4  ,1.5
836  ,1.768e+08   ,-2.5  ,-2.4  ,1.3
837  ,4.886e+08   ,-2.5  ,-2.4  ,1.1
838  ,8.007e+08   ,-2.5  ,-2.4  ,0.9
839  ,1.033e+09   ,-2.5  ,-2.4  ,0.7
840  ,1.052e+09   ,-2.5  ,-2.4  ,0.5
841  ,7.292e+08   ,-2.5  ,-2.4  ,0.3
842  ,2.552e+08   ,-2.5  ,2.2  ,4.9
843  ,4.192e+08   ,-2.5  ,2  ,4.9
844  ,4.872e+08   ,-2.5  ,1.8  ,4.9
845  ,4.589e+08   ,-2.5  ,1.6  ,4.9
846  ,4.698e+08   ,-2.5  ,1.4  ,4.9
847  ,5.090e+08   ,-2.5  ,1.2  ,4.9
848  ,5.206e+08   ,-2.5  ,1  ,4.9
849  ,6.982e+08   ,-2.5  ,0.8  ,4.9
850  ,6.988e+08   ,-2.5  ,0.6  ,4.9
851  ,7.246e+08   ,-2.5  ,0.4  ,4.9
852  ,6.757e+08   ,-2.5  ,0.2  ,4.9
853  ,5.404e+08   ,-2.5  ,5.8879E-16  ,4.9
854  ,5.620e+08   ,-2.5  ,-0.2  ,4.9
855  ,3.939e+08   ,-2.5  ,-0.4  ,4.9
856  ,2.607e+08   ,-2.5  ,-0.6  ,4.9
857  ,2.170e+08   ,-2.5  ,-0.8  ,4.9
858  ,2.771e+08   ,-2.5  ,-1  ,4.9
859  ,3.308e+08   ,-2.5  ,-1.2  ,4.9
860  ,3.783e+08   ,-2.5  ,-1.4  ,4.9
861  ,3.701e+08   ,-2.5  ,-1.6  ,4.9
862  ,4.012e+08   ,-2.5  ,-1.8  ,4.9
863  ,5.986e+08   ,-2.5  ,-2  ,4.9
864  ,6.210e+08   ,-2.5  ,-2.2  ,4.9
865  ,3.765e+08   ,-2.5  ,2.4  ,4.7
866  ,5.908e+08   ,-2.5  ,2.4  ,4.5
867  ,6.404e+08   ,-2.5  ,2.4  ,4.3
868  ,4.934e+08   ,-2.5  ,2.4  ,4.1
869  ,6.070e+08   ,-2.5  ,2.4  ,3.9
870  ,6.121e+08   ,-2.5  ,2.4  ,3.7
871  ,6.762e+08   ,-2.5  ,2.4  ,3.5
872  ,8.680e+08   ,-2.5  ,2.4  ,3.3
873  ,7.231e+08   ,-2.5  ,2.4  ,3.1
874  ,3.993e+08   ,-2.5  ,2.4  ,2.9
875  ,3.731e+08   ,-2.5  ,2.4  ,2.7
876  ,3.661e+08   ,-2.5  ,2.4  ,2.5
877  ,3.991e+08   ,-2.5  ,2.4  ,2.3
878  ,4.192e+08   ,-2.5  ,2.4  ,2.1
879  ,3.372e+08   ,-2.5  ,2.4  ,1.9
880  ,4.847e+08   ,-2.5  ,2.4  ,1.7
881  ,7.856e+08   ,-2.5  ,2.4  ,1.5
882  ,8.850e+08   ,-2.5  ,2.4  ,1.3
883  ,8.164e+08   ,-2.5  ,2.4  ,1.1
884  ,8.300e+08   ,-2.5  ,2.4  ,0.9
885  ,7.436e+08   ,-2.5  ,2.4  ,0.7
886  ,7.248e+08   ,-2.5  ,2.4  ,0.5
887  ,5.755e+08   ,-2.5  ,2.4  ,0.3
1044  ,4.704e+08   ,-2.3  ,-2.5  ,0.44697
1045  ,6.030e+08   ,-2.3  ,-2.5  ,0.68705
1046  ,5.266e+08   ,-2.3  ,-2.5  ,0.92554
1047  ,3.421e+08   ,-2.3  ,-2.5  ,1.1682
1048  ,1.074e+08   ,-2.3  ,-2.5  ,1.4148
1049  ,9.683e+07   ,-2.3  ,-2.5  ,1.6581
1050  ,2.792e+08   ,-2.3  ,-2.5  ,1.8967
1051  ,6.973e+08   ,-2.3  ,-2.5  ,2.1357
1052  ,9.462e+08   ,-2.3  ,-2.5  ,2.3794
1053  ,1.054e+09   ,-2.3  ,-2.5  ,2.6206
1054  ,1.081e+09   ,-2.3  ,-2.5  ,2.8643
1055  ,1.035e+09   ,-2.3  ,-2.5  ,3.1033
1056  ,1.036e+09   ,-2.3  ,-2.5  ,3.342
1057  ,9.877e+08   ,-2.3  ,-2.5  ,3.5852
1058  ,7.231e+08   ,-2.3  ,-2.5  ,3.8318
1059  ,4.056e+08   ,-2.3  ,-2.5  ,4.0745
1060  ,3.401e+08   ,-2.3  ,-2.5  ,4.3129
1061  ,1.038e+09   ,-2.3  ,-2.5  ,4.553
1062  ,1.377e+09   ,-2.053  ,-2.5  ,4.8
1063  ,8.256e+08   ,-1.8129  ,-2.5  ,4.8
1064  ,6.120e+08   ,-1.5745  ,-2.5  ,4.8
1065  ,6.279e+08   ,-1.3318  ,-2.5  ,4.8
1066  ,5.502e+08   ,-1.0852  ,-2.5  ,4.8
1067  ,4.965e+08   ,-0.84195  ,-2.5  ,4.8
1068  ,4.905e+08   ,-0.60329  ,-2.5  ,4.8
1069  ,6.025e+08   ,-0.3643  ,-2.5  ,4.8
1070  ,8.303e+08   ,-0.12055  ,-2.5  ,4.8
1071  ,8.964e+08   ,0.12056  ,-2.5  ,4.8
1072  ,8.893e+08   ,0.3643  ,-2.5  ,4.8
1073  ,8.246e+08   ,0.6033  ,-2.5  ,4.8
1074  ,5.390e+08   ,0.84195  ,-2.5  ,4.8
1075  ,2.956e+08   ,1.0852  ,-2.5  ,4.8
1076  ,1.272e+08   ,1.3318  ,-2.5  ,4.8
1077  ,8.084e+08   ,1.5745  ,-2.5  ,4.8
1078  ,1.755e+09   ,1.8129  ,-2.5  ,4.8
1079  ,2.956e+09   ,2.053  ,-2.5  ,4.8
1080  ,2.905e+09   ,2.3  ,-2.5  ,4.553
1081  ,1.690e+09   ,2.3  ,-2.5  ,4.3129
1082  ,8.309e+08   ,2.3  ,-2.5  ,4.0745
1083  ,6.348e+07   ,2.3  ,-2.5  ,3.8318
1084  ,3.182e+08   ,2.3  ,-2.5  ,3.5852
1085  ,5.076e+08   ,2.3  ,-2.5  ,3.3419
1086  ,7.865e+08   ,2.3  ,-2.5  ,3.1033
1087  ,1.016e+09   ,2.3  ,-2.5  ,2.8643
1088  ,1.049e+09   ,2.3  ,-2.5  ,2.6206
1089  ,9.057e+08   ,2.3  ,-2.5  ,2.3794
1090  ,6.389e+08   ,2.3  ,-2.5  ,2.1357
1091  ,5.146e+08   ,2.3  ,-2.5  ,1.8967
1092  ,5.016e+08   ,2.3  ,-2.5  ,1.658
1093  ,5.835e+08   ,2.3  ,-2.5  ,1.4148
1094  ,5.686e+08   ,2.3  ,-2.5  ,1.1682
1095  ,5.486e+08   ,2.3  ,-2.5  ,0.92554
1096  ,7.532e+08   ,2.3  ,-2.5  ,0.68705
1097  ,1.234e+09   ,2.3  ,-2.5  ,0.44697
1098  ,4.073e+08   ,-2.053  ,-2.5  ,0.2
1099  ,6.016e+08   ,-1.8129  ,-2.5  ,0.2
1100  ,5.280e+08   ,-1.5745  ,-2.5  ,0.2
1101  ,4.501e+08   ,-1.3318  ,-2.5  ,0.2
1102  ,2.459e+08   ,-1.0852  ,-2.5  ,0.2
1103  ,1.223e+08   ,-0.84195  ,-2.5  ,0.2
1104  ,3.386e+08   ,-0.60329  ,-2.5  ,0.2
1105  ,7.048e+08   ,-0.3643  ,-2.5  ,0.2
1106  ,9.768e+08   ,-0.12055  ,-2.5  ,0.2
1107  ,1.060e+09   ,0.12056  ,-2.5  ,0.2
1108  ,1.044e+09   ,0.3643  ,-2.5  ,0.2
1109  ,9.254e+08   ,0.6033  ,-2.5  ,0.2
1110  ,1.020e+09   ,0.84195  ,-2.5  ,0.2
1111  ,9.992e+08   ,1.0852  ,-2.5  ,0.2
1112  ,7.837e+08   ,1.3318  ,-2.5  ,0.2
1113  ,4.143e+08   ,1.5745  ,-2.5  ,0.2
1114  ,3.251e+08   ,1.8129  ,-2.5  ,0.2
1115  ,1.066e+09   ,2.053  ,-2.5  ,0.2
1116  ,5.724e+08   ,-2.2  ,-2.5  ,4.9
1117  ,4.130e+08   ,-2  ,-2.5  ,4.9
1118  ,4.784e+08   ,-1.8  ,-2.5  ,4.9
1119  ,3.077e+08   ,-1.6  ,-2.5  ,4.9
1120  ,2.250e+08   ,-1.4  ,-2.5  ,4.9
1121  ,2.392e+08   ,-1.2  ,-2.5  ,4.9
1122  ,1.127e+08   ,-1  ,-2.5  ,4.9
1123  ,6.341e+07   ,-0.8  ,-2.5  ,4.9
1124  ,1.311e+08   ,-0.6  ,-2.5  ,4.9
1125  ,1.939e+08   ,-0.4  ,-2.5  ,4.9
1126  ,3.472e+08   ,-0.2  ,-2.5  ,4.9
1127  ,3.230e+08   ,-1.7664E-15  ,-2.5  ,4.9
1128  ,3.819e+08   ,0.2  ,-2.5  ,4.9
1129  ,5.232e+08   ,0.4  ,-2.5  ,4.9
1130  ,4.132e+08   ,0.6  ,-2.5  ,4.9
1131  ,5.217e+08   ,0.8  ,-2.5  ,4.9
1132  ,4.223e+08   ,1  ,-2.5  ,4.9
1133  ,4.790e+08   ,1.2  ,-2.5  ,4.9
1134  ,5.398e+08   ,1.4  ,-2.5  ,4.9
1135  ,7.074e+08   ,1.6  ,-2.5  ,4.9
1136  ,7.448e+08   ,1.8  ,-2.5  ,4.9
1137  ,4.933e+08   ,2  ,-2.5  ,4.9
1138  ,5.344e+08   ,2.2  ,-2.5  ,4.9
1139  ,5.198e+08   ,-2.4  ,-2.5  ,4.7
1140  ,7.086e+08   ,-2.4  ,-2.5  ,4.5
1141  ,5.960e+08   ,-2.4  ,-2.5  ,4.3
1142  ,4.260e+08   ,-2.4  ,-2.5  ,4.1
1143  ,4.229e+08   ,-2.4  ,-2.5  ,3.9
1144  ,4.929e+08   ,-2.4  ,-2.5  ,3.7
1145  ,2.716e+08   ,-2.4  ,-2.5  ,3.5
1146  ,3.624e+08   ,-2.4  ,-2.5  ,3.3
1147  ,2.003e+08   ,-2.4  ,-2.5  ,3.1
1148  ,2.898e+08   ,-2.4  ,-2.5  ,2.9
1149  ,3.067e+08   ,-2.4  ,-2.5  ,2.7
1150  ,2.196e+08   ,-2.4  ,-2.5  ,2.5
1151  ,3.167e+08   ,-2.4  ,-2.5  ,2.3
1152  ,3.517e+08   ,-2.4  ,-2.5  ,2.1
1153  ,3.648e+08   ,-2.4  ,-2.5  ,1.9
1154  ,2.014e+08   ,-2.4  ,-2.5  ,1.7
1155  ,1.153e+08   ,-2.4  ,-2.5  ,1.5
1156  ,1.381e+08   ,-2.4  ,-2.5  ,1.3
1157  ,1.060e+08   ,-2.4  ,-2.5  ,1.1
1158  ,1.951e+08   ,-2.4  ,-2.5  ,0.9
1159  ,4.079e+08   ,-2.4  ,-2.5  ,0.7
1160  ,5.111e+08   ,-2.4  ,-2.5  ,0.5
1161  ,7.531e+08   ,-2.4  ,-2.5  ,0.3
1162  ,5.695e+08   ,-2.2  ,-2.5  ,0.1
1163  ,4.164e+08   ,-2  ,-2.5  ,0.1
1164  ,3.618e+08   ,-1.8  ,-2.5  ,0.1
1165  ,2.224e+08   ,-1.6  ,-2.5  ,0.1
1166  ,1.386e+08   ,-1.4  ,-2.5  ,0.1
1167  ,5.884e+07   ,-1.2  ,-2.5  ,0.1
1168  ,1.718e+08   ,-1  ,-2.5  ,0.1
1169  ,2.672e+08   ,-0.8  ,-2.5  ,0.1
1170  ,3.253e+08   ,-0.6  ,-2.5  ,0.1
1171  ,3.280e+08   ,-0.4  ,-2.5  ,0.1
1172  ,3.003e+08   ,-0.2  ,-2.5  ,0.1
1173  ,3.107e+08   ,-1.7664E-15  ,-2.5  ,0.1
1174  ,2.708e+08   ,0.2  ,-2.5  ,0.1
1175  ,2.779e+08   ,0.4  ,-2.5  ,0.1
1176  ,3.898e+08   ,0.6  ,-2.5  ,0.1
1177  ,2.245e+08   ,0.8  ,-2.5  ,0.1
1178  ,3.919e+08   ,1  ,-2.5  ,0.1
1179  ,5.132e+08   ,1.2  ,-2.5  ,0.1
1180  ,5.056e+08   ,1.4  ,-2.5  ,0.1
1181  ,4.908e+08   ,1.6  ,-2.5  ,0.1
1182  ,5.071e+08   ,1.8  ,-2.5  ,0.1
1183  ,5.452e+08   ,2  ,-2.5  ,0.1
1184  ,4.417e+08   ,2.2  ,-2.5  ,0.1
1185  ,6.308e+08   ,2.4  ,-2.5  ,4.7
1186  ,5.031e+08   ,2.4  ,-2.5  ,4.5
1187  ,6.940e+08   ,2.4  ,-2.5  ,4.3
1188  ,6.894e+08   ,2.4  ,-2.5  ,4.1
1189  ,5.341e+08   ,2.4  ,-2.5  ,3.9
1190  ,4.528e+08   ,2.4  ,-2.5  ,3.7
1191  ,3.502e+08   ,2.4  ,-2.5  ,3.5
1192  ,4.491e+08   ,2.4  ,-2.5  ,3.3
1193  ,4.252e+08   ,2.4  ,-2.5  ,3.1
1194  ,4.243e+08   ,2.4  ,-2.5  ,2.9
1195  ,2.925e+08   ,2.4  ,-2.5  ,2.7
1196  ,3.460e+08   ,2.4  ,-2.5  ,2.5
1197  ,3.310e+08   ,2.4  ,-2.5  ,2.3
1198  ,1.730e+08   ,2.4  ,-2.5  ,2.1
1199  ,6.815e+07   ,2.4  ,-2.5  ,1.9
1200  ,1.293e+08   ,2.4  ,-2.5  ,1.7
1201  ,1.515e+08   ,2.4  ,-2.5  ,1.5
1202  ,1.740e+08   ,2.4  ,-2.5  ,1.3
1203  ,1.784e+08   ,2.4  ,-2.5  ,1.1
1204  ,2.697e+08   ,2.4  ,-2.5  ,0.9
1205  ,3.702e+08   ,2.4  ,-2.5  ,0.7
1206  ,4.187e+08   ,2.4  ,-2.5  ,0.5
1207  ,6.058e+08   ,2.4  ,-2.5  ,0.3
1208  ,6.268e+08   ,2.4  ,-2.2  ,0
1209  ,6.141e+08   ,2.4  ,-2  ,0
1210  ,4.299e+08   ,2.4  ,-1.8  ,0
1211  ,3.566e+08   ,2.4  ,-1.6  ,0
1212  ,3.807e+08   ,2.4  ,-1.4  ,0
1213  ,3.295e+08   ,2.4  ,-1.2  ,0
1214  ,2.596e+08   ,2.4  ,-1  ,0
1215  ,2.338e+08   ,2.4  ,-0.8  ,0
1216  ,2.336e+08   ,2.4  ,-0.6  ,0
1217  ,3.441e+08   ,2.4  ,-0.4  ,0
1218  ,4.624e+08   ,2.4  ,-0.2  ,0
1219  ,4.967e+08   ,2.4  ,-1.7664E-15  ,0
1220  ,5.268e+08   ,2.4  ,0.2  ,0
1221  ,5.861e+08   ,2.4  ,0.4  ,0
1222  ,6.958e+08   ,2.4  ,0.6  ,0
1223  ,7.389e+08   ,2.4  ,0.8  ,0
1224  ,6.183e+08   ,2.4  ,1  ,0
1225  ,5.534e+08   ,2.4  ,1.2  ,0
1226  ,5.063e+08   ,2.4  ,1.4  ,0
1227  ,4.527e+08   ,2.4  ,1.6  ,0
1228  ,5.663e+08   ,2.4  ,1.8  ,0
1229  ,5.237e+08   ,2.4  ,2  ,0
1230  ,3.791e+08   ,2.4  ,2.2  ,0
1231  ,5.484e+08   ,-2.2  ,-2.4  ,0
1232  ,9.032e+08   ,-2  ,-2.4  ,0
1233  ,9.031e+08   ,-1.8  ,-2.4  ,0
1234  ,7.507e+08   ,-1.6  ,-2.4  ,0
1235  ,5.453e+08   ,-1.4  ,-2.4  ,0
1236  ,2.977e+08   ,-1.2  ,-2.4  ,0
1237  ,9.770e+07   ,-1  ,-2.4  ,0
1238  ,3.877e+08   ,-0.8  ,-2.4  ,0
1239  ,6.632e+08   ,-0.6  ,-2.4  ,0
1240  ,9.781e+08   ,-0.4  ,-2.4  ,0
1241  ,1.210e+09   ,-0.2  ,-2.4  ,0
1242  ,1.381e+09   ,5.8879E-16  ,-2.4  ,0
1243  ,1.434e+09   ,0.2  ,-2.4  ,0
1244  ,1.459e+09   ,0.4  ,-2.4  ,0
1245  ,1.347e+09   ,0.6  ,-2.4  ,0
1246  ,1.576e+09   ,0.8  ,-2.4  ,0
1247  ,1.518e+09   ,1  ,-2.4  ,0
1248  ,1.418e+09   ,1.2  ,-2.4  ,0
1249  ,1.139e+09   ,1.4  ,-2.4  ,0
1250  ,7.662e+08   ,1.6  ,-2.4  ,0
1251  ,3.819e+08   ,1.8  ,-2.4  ,0
1252  ,4.612e+08   ,2  ,-2.4  ,0
1253  ,1.275e+09   ,2.2  ,-2.4  ,0
1254  ,3.583e+08   ,-2.4  ,2.2  ,0
1255  ,5.431e+08   ,-2.4  ,2  ,0
1256  ,5.508e+08   ,-2.4  ,1.8  ,0
1257  ,6.417e+08   ,-2.4  ,1.6  ,0
1258  ,7.335e+08   ,-2.4  ,1.4  ,0
1259  ,8.418e+08   ,-2.4  ,1.2  ,0
1260  ,7.764e+08   ,-2.4  ,1  ,0
1261  ,7.241e+08   ,-2.4  ,0.8  ,0
1262  ,6.503e+08   ,-2.4  ,0.6  ,0
1263  ,6.436e+08   ,-2.4  ,0.4  ,0
1264  ,6.466e+08   ,-2.4  ,0.2  ,0
1265  ,6.537e+08   ,-2.4  ,5.8879E-16  ,0
1266  ,7.597e+08   ,-2.4  ,-0.2  ,0
1267  ,6.104e+08   ,-2.4  ,-0.4  ,0
1268  ,6.776e+08   ,-2.4  ,-0.6  ,0
1269  ,5.956e+08   ,-2.4  ,-0.8  ,0
1270  ,6.798e+08   ,-2.4  ,-1  ,0
1271  ,6.663e+08   ,-2.4  ,-1.2  ,0
1272  ,6.385e+08   ,-2.4  ,-1.4  ,0
1273  ,6.268e+08   ,-2.4  ,-1.6  ,0
1274  ,5.115e+08   ,-2.4  ,-1.8  ,0
1275  ,3.878e+08   ,-2.4  ,-2  ,0
1276  ,1.224e+08   ,-2.4  ,-2.2  ,0
1277  ,3.613e+08   ,2.2  ,2.4  ,0
1278  ,5.496e+08   ,2  ,2.4  ,0
1279  ,6.065e+08   ,1.8  ,2.4  ,0
1280  ,4.898e+08   ,1.6  ,2.4  ,0
1281  ,4.281e+08   ,1.4  ,2.4  ,0
1282  ,6.010e+08   ,1.2  ,2.4  ,0
1283  ,6.792e+08   ,1  ,2.4  ,0
1284  ,9.125e+08   ,0.8  ,2.4  ,0
1285  ,7.933e+08   ,0.6  ,2.4  ,0
1286  ,4.419e+08   ,0.4  ,2.4  ,0
1287  ,3.642e+08   ,0.2  ,2.4  ,0
1288  ,3.019e+08   ,5.8879E-16  ,2.4  ,0
1289  ,3.236e+08   ,-0.2  ,2.4  ,0
1290  ,4.050e+08   ,-0.4  ,2.4  ,0
1291  ,2.893e+08   ,-0.6  ,2.4  ,0
1292  ,5.288e+08   ,-0.8  ,2.4  ,0
1293  ,7.856e+08   ,-1  ,2.4  ,0
1294  ,8.735e+08   ,-1.2  ,2.4  ,0
1295  ,7.791e+08   ,-1.4  ,2.4  ,0
1296  ,7.518e+08   ,-1.6  ,2.4  ,0
1297  ,7.267e+08   ,-1.8  ,2.4  ,0
1298  ,6.435e+08   ,-2  ,2.4  ,0
1299  ,5.991e+08   ,-2.2  ,2.4  ,0
1460  ,5.140e+09   ,2.3243  ,2.3243  ,4.9577
1461  ,5.081e+09   ,2.4577  ,2.3243  ,4.8243
1462  ,6.774e+09   ,2.3243  ,2.4577  ,4.8243
1463  ,5.780e+08   ,-2.3  ,-2.1759  ,4.8
1464  ,2.637e+08   ,-2.3  ,-1.7631  ,4.8
1465  ,4.491e+08   ,-2.3  ,-1.1827  ,4.8
1466  ,8.607e+08   ,-2.3  ,-0.34986  ,4.8
1467  ,1.006e+09   ,-2.3  ,0.80545  ,4.8
1468  ,8.963e+08   ,-0.81337  ,2.3  ,4.8
1469  ,1.255e+09   ,0.67326  ,2.3  ,4.8
1470  ,1.263e+09   ,2.3  ,-2.1824  ,4.8
1471  ,8.529e+08   ,2.3  ,-1.7784  ,4.8
1472  ,9.685e+08   ,2.3  ,-1.2138  ,4.8
1473  ,1.008e+09   ,2.3  ,-0.40752  ,4.8
1474  ,1.132e+09   ,2.3  ,0.70532  ,4.8
1516  ,8.938e+08   ,2.3  ,2.3  ,1.6866
1517  ,1.290e+09   ,2.3  ,2.3  ,3.1733
1518  ,5.967e+08   ,2.3  ,-2.1759  ,0.2
1519  ,3.011e+08   ,2.3  ,-1.7631  ,0.2
1520  ,4.187e+08   ,2.3  ,-1.1827  ,0.2
1521  ,8.197e+08   ,2.3  ,-0.34986  ,0.2
1522  ,1.016e+09   ,2.3  ,0.80545  ,0.2
1564  ,4.926e+08   ,-0.76667  ,2.3  ,0.2
1565  ,9.103e+08   ,0.76667  ,2.3  ,0.2
1566  ,4.661e+08   ,-2.3  ,2.3  ,1.7333
1567  ,9.185e+08   ,-2.3  ,2.3  ,3.2667
1574  ,2.727e+08   ,-2.3  ,-2.1759  ,0.2
1575  ,2.046e+08   ,-2.3  ,-1.7631  ,0.2
1576  ,1.479e+08   ,-2.3  ,-1.1827  ,0.2
1577  ,1.311e+08   ,-2.3  ,-0.34986  ,0.2
1578  ,1.694e+08   ,-2.3  ,0.80545  ,0.2
1777  ,1.310e+09   ,-0.52764  ,2.5  ,4.9
1801  ,8.979e+08   ,-2.3  ,1.5527  ,0.2
1825  ,6.852e+08   ,-1.5333  ,2.3  ,0.2
1841  ,6.276e+08   ,0.063638  ,2.5  ,4.9
1876  ,3.496e+08   ,-0.5  ,2.4  ,0
1894  ,8.856e+08   ,2.3  ,1.5527  ,0.2
1907  ,4.786e+08   ,2.1  ,2.5  ,0.1
1928  ,5.563e+08   ,1.9  ,2.4  ,0
1974  ,5.327e+08   ,2.4  ,1.1  ,0
1981  ,5.420e+08   ,2.4  ,2.5  ,0.59273
1987  ,5.687e+08   ,-2.5  ,2.4  ,4
2004  ,5.002e+08   ,-2.4  ,2.5  ,4.6
2009  ,4.929e+08   ,2.4  ,1.3  ,0
2020  ,6.408e+08   ,2.5  ,1.1  ,0.1
2035  ,5.371e+08   ,-2.3  ,-0.76628  ,0.2
2070  ,2.027e+09   ,1.6404  ,2.4  ,5
2081  ,8.155e+08   ,2.4  ,2.5  ,1.9724
2095  ,7.267e+08   ,2.4  ,2.5  ,0.78982
2138  ,5.988e+08   ,-2.4  ,-0.1  ,0
2146  ,1.211e+09   ,-0.92182  ,2.4  ,5
2174  ,1.187e+09   ,2.4  ,2.5  ,1.184
2190  ,9.062e+08   ,2.5  ,2.4  ,0.98691
2203  ,1.498e+09   ,2.5  ,-0.13345  ,4.9
2232  ,1.873e+09   ,2.3  ,0.1489  ,4.8
2242  ,7.507e+08   ,2.4  ,2.5  ,2.9578
2293  ,7.722e+08   ,-2.5  ,0.5  ,0.1
2311  ,1.954e+09   ,2.3  ,2.3  ,2.4299
2313  ,8.635e+08   ,2.5  ,2.4  ,0.78982
2329  ,7.308e+08   ,2.4  ,2.5  ,2.1695
2355  ,5.858e+08   ,-2.4  ,2.5  ,4.4
2380  ,5.932e+08   ,-2.5  ,-1.5  ,0.1
2383  ,7.232e+08   ,0.45782  ,2.5  ,4.9
2408  ,1.316e+09   ,2.3  ,-1.4961  ,4.8
2445  ,1.360e+09   ,2.5  ,-1.5131  ,4.9
2484  ,1.688e+08   ,-2.5  ,-2.4  ,1.6
2495  ,4.549e+08   ,-2.4  ,1.7  ,5
2508  ,5.192e+08   ,2.4  ,0.3  ,0
2514  ,1.281e+09   ,2.3  ,0.2278  ,0.2
2570  ,4.798e+08   ,-2.4  ,1.5  ,5
2580  ,1.824e+09   ,1.6404  ,2.5  ,4.9
2603  ,1.455e+09   ,-1.1189  ,2.5  ,4.9
2695  ,7.425e+08   ,2.3  ,2.3  ,0.94331
2705  ,1.523e+09   ,2.4  ,2.5  ,1.3811
2714  ,7.541e+08   ,2.5  ,0.45782  ,4.9
2734  ,2.353e+08   ,2.4  ,-0.9  ,0
2775  ,4.727e+08   ,2.5  ,-0.1  ,0.1
2779  ,4.680e+08   ,2.4  ,-0.1  ,0
2801  ,2.262e+09   ,1.4166  ,2.3  ,4.8
2814  ,1.409e+09   ,1.4433  ,2.5  ,4.9
2863  ,6.975e+08   ,-2.4  ,2.5  ,0.6
2884  ,8.071e+08   ,-2.4  ,2.5  ,0.8
2886  ,8.080e+08   ,-2.4  ,2.5  ,1.2
2967  ,4.781e+08   ,2.4  ,1.7  ,0
2973  ,4.731e+08   ,2.5  ,1.5  ,0.1
2987  ,4.174e+08   ,-0.3  ,2.5  ,0.1
3008  ,6.823e+08   ,-2.3  ,2.3  ,0.96667
3012  ,3.634e+08   ,-2.5  ,2.4  ,2.6
3021  ,3.885e+08   ,-2.5  ,2.4  ,2.8
3025  ,3.625e+08   ,-2.5  ,2.4  ,2.4
3030  ,3.534e+08   ,-2.4  ,2.5  ,2.4
3033  ,3.974e+08   ,-2.4  ,2.5  ,2.2
3047  ,6.920e+08   ,2.4  ,2.5  ,2.3665
3052  ,7.734e+08   ,2.5  ,2.4  ,2.5636
3061  ,6.846e+08   ,2.4  ,2.5  ,2.5636
3081  ,5.635e+08   ,-2.4  ,1.3  ,5
3088  ,3.997e+08   ,-1.9073  ,2.4  ,5
3099  ,4.473e+08   ,-2.4  ,1.9  ,5
3107  ,6.008e+08   ,-2.4  ,2.5  ,3.8
3139  ,8.447e+08   ,-1.5131  ,2.4  ,5
3145  ,9.246e+08   ,-1.5131  ,2.5  ,4.9
3148  ,7.049e+08   ,-1.7102  ,2.5  ,4.9
3168  ,6.584e+08   ,-2.4  ,1.5  ,0
3188  ,6.619e+08   ,-2.5  ,-2.4  ,1
3202  ,6.047e+08   ,0.26073  ,2.5  ,4.9
3212  ,1.758e+09   ,2.5  ,1.6404  ,4.9
3247  ,2.232e+09   ,2.5  ,1.8375  ,4.9
3265  ,2.185e+09   ,2.3  ,1.4326  ,4.8
3271  ,4.623e+09   ,2.2299  ,2.2299  ,4.8
3284  ,1.336e+09   ,2.4  ,1.4433  ,5
3291  ,1.342e+09   ,2.5  ,1.4433  ,4.9
3296  ,7.395e+08   ,-2.3  ,-0.76628  ,4.8
3303  ,2.716e+08   ,-2.4  ,-0.9  ,5
3311  ,2.352e+08   ,-2.4  ,-0.7  ,5
3315  ,5.633e+08   ,1.9  ,2.5  ,0.1
3336  ,6.387e+08   ,-2.4  ,0.3  ,0
3340  ,6.037e+08   ,-2.5  ,0.1  ,0.1
3344  ,6.434e+08   ,-2.4  ,0.1  ,0
3356  ,3.584e+08   ,-0.3  ,2.4  ,0
3361  ,7.801e+08   ,-0.33054  ,2.5  ,4.9
3364  ,6.314e+08   ,-0.13345  ,2.5  ,4.9
3383  ,9.506e+08   ,2.4  ,2.5  ,3.5491
3402  ,4.306e+09   ,2.4  ,2.5  ,4.5345
3421  ,1.123e+09   ,-1.316  ,2.5  ,4.9
3439  ,1.442e+09   ,2.5  ,2.4  ,3.9433
3447  ,1.431e+09   ,2.4  ,2.5  ,3.9433
3451  ,1.126e+09   ,2.4  ,2.5  ,3.7462
3468  ,1.439e+09   ,1.4433  ,2.4  ,5
3480  ,9.521e+08   ,1.0491  ,2.4  ,5
3519  ,5.294e+08   ,1.5  ,2.4  ,0
3527  ,4.081e+08   ,2.3  ,-1.4729  ,0.2
3550  ,7.244e+08   ,-1.7  ,2.4  ,0
3554  ,7.502e+08   ,-1.7  ,2.5  ,0.1
3558  ,7.726e+08   ,-1.5  ,2.4  ,0
3562  ,7.755e+08   ,-1.5  ,2.5  ,0.1
3574  ,3.094e+08   ,-2.4  ,2.1  ,5
3581  ,6.140e+08   ,-2.5  ,1.7  ,0.1
3583  ,5.392e+08   ,-2.5  ,1.9  ,0.1
3584  ,4.360e+08   ,-1.9073  ,2.5  ,4.9
3591  ,5.157e+08   ,2.5  ,0.3  ,0.1
3595  ,4.507e+08   ,2.5  ,0.1  ,0.1
3603  ,9.582e+09   ,2.4577  ,2.391  ,4.7576
3663  ,5.484e+08   ,-1.933  ,-2.5  ,0.2
3669  ,2.369e+08   ,-2.1765  ,-2.5  ,0.2
3672  ,3.784e+08   ,-2.3  ,-2.3379  ,0.2
3682  ,8.771e+08   ,-1.9  ,-2.4  ,0
3700  ,1.058e+09   ,2.3  ,-2.5  ,2.7424
3712  ,3.061e+08   ,-2.1  ,-2.5  ,4.9
3715  ,4.073e+08   ,-1.9  ,-2.5  ,4.9
3740  ,4.592e+08   ,-1.3  ,-2.4  ,5
3746  ,6.043e+08   ,-1.2085  ,-2.5  ,4.8
3755  ,5.152e+08   ,-1.5  ,-2.4  ,5
3760  ,3.780e+08   ,-1.7  ,-2.5  ,4.9
3786  ,1.188e+09   ,2.4  ,2.5  ,1.5782
3813  ,6.584e+08   ,0.26073  ,2.4  ,5
3858  ,4.840e+08   ,-0.9  ,-2.4  ,5
3863  ,5.959e+08   ,-2.5  ,0.9  ,4.9
3875  ,8.954e+08   ,-1.9  ,-2.4  ,5
3885  ,1.237e+09   ,2.4  ,-0.72473  ,5
3910  ,2.621e+08   ,-2.4  ,-2.5  ,3.4
3959  ,2.002e+09   ,2.5  ,2.4  ,4.1404
3969  ,9.020e+08   ,2.5  ,1.0491  ,4.9
3992  ,6.267e+09   ,2.391  ,2.2576  ,4.9577
3993  ,6.006e+09   ,2.4577  ,2.2576  ,4.891
4016  ,1.530e+08   ,-2.3015  ,2.5  ,4.9
4018  ,2.423e+08   ,-2.4  ,2.5  ,4.8
4021  ,1.119e+09   ,1.2462  ,2.4  ,5
4042  ,2.872e+08   ,2.4  ,-1.1  ,0
4046  ,6.586e+08   ,-0.9  ,2.4  ,0
4055  ,6.653e+08   ,1.7  ,-2.5  ,4.9
4087  ,5.830e+08   ,1.7  ,2.4  ,0
4114  ,1.225e+09   ,2.5  ,-0.33054  ,4.9
4120  ,6.854e+07   ,2.4  ,-2.5  ,1.8
4125  ,7.650e+08   ,2.4  ,2.5  ,0.98691
4144  ,2.967e+09   ,2.4  ,2.5  ,4.3375
4161  ,5.891e+08   ,-2.4  ,0.3  ,5
4201  ,5.423e+08   ,1.933  ,-2.5  ,0.2
4225  ,2.361e+08   ,-2.3  ,-2.4  ,0
4230  ,6.172e+08   ,-2.3  ,-2.5  ,0.56701
4269  ,8.715e+07   ,-0.9  ,-2.5  ,4.9
4277  ,4.284e+08   ,-1.1  ,-2.4  ,5
4288  ,1.415e+09   ,-0.070055  ,2.3  ,4.8
4328  ,6.781e+08   ,-2.5  ,-2.4  ,4.2
4336  ,4.845e+08   ,-2.5  ,-2.4  ,4.4
4342  ,8.488e+08   ,-2.5  ,-2.4  ,4.6
4348  ,1.108e+09   ,-2.4  ,-2.4707  ,4.9707
4352  ,4.887e+08   ,-2.3  ,-2.5  ,4.9
4354  ,1.556e+09   ,-2.1765  ,-2.5  ,4.8
4355  ,8.434e+08   ,-2.3  ,-2.3379  ,4.8
4362  ,4.832e+08   ,2.5  ,2.4  ,0.59273
4364  ,1.131e+09   ,2.5  ,-2.4  ,2.4
4366  ,8.130e+08   ,2.5  ,-2.4  ,2.2
4372  ,2.080e+08   ,2.4  ,-2.5  ,2.2
4385  ,4.528e+08   ,-2.5  ,-1.9  ,0.1
4399  ,4.200e+08   ,-2.5  ,2.1  ,0.1
4407  ,4.807e+08   ,-0.7  ,-2.4  ,0
4436  ,6.570e+08   ,-2.5  ,-0.1  ,0.1
4462  ,7.506e+08   ,-2.3  ,2.3  ,4.0333
4491  ,1.085e+09   ,2.5  ,-0.52764  ,4.9
4494  ,5.688e+08   ,2.5  ,-2.4  ,1.4
4503  ,1.586e+08   ,2.4  ,-2.5  ,1.4
4508  ,1.952e+08   ,2.4  ,-2.5  ,1.2
4515  ,5.760e+08   ,2.5  ,-2.4  ,1.8
4517  ,1.051e+08   ,2.4  ,-2.5  ,1.6
4522  ,1.409e+09   ,0.7  ,-2.4  ,0
4538  ,1.200e+09   ,-1.1189  ,2.4  ,5
4546  ,1.833e+09   ,2.4  ,2.5  ,4.1404
4559  ,5.301e+08   ,1.7  ,-2.4  ,0
4590  ,1.383e+09   ,0.5  ,-2.4  ,0
4631  ,2.811e+08   ,2.4  ,-2.5  ,2.6
4634  ,1.474e+09   ,2.5  ,-2.4  ,2.8
4657  ,7.275e+08   ,-2.5  ,-2.4  ,2
4660  ,3.841e+08   ,-2.5  ,-2.4  ,1.8
4664  ,1.029e+09   ,-0.3  ,-2.4  ,0
4675  ,5.392e+08   ,-2.4  ,-2.5  ,4.8
4681  ,6.241e+08   ,-2.5  ,-0.3  ,0.1
4684  ,9.006e+08   ,1.7  ,-2.4  ,5
4703  ,7.219e+08   ,-2.4  ,0.7  ,5
4707  ,6.530e+08   ,-2.5  ,0.3  ,4.9
4714  ,1.112e+09   ,2.4  ,-0.33054  ,5
4723  ,1.172e+09   ,-1.5567  ,2.3  ,4.8
4739  ,2.572e+08   ,-2.1044  ,2.5  ,4.9
4763  ,6.979e+08   ,-1.9  ,2.4  ,0
4780  ,1.787e+08   ,-2.3  ,-1.9695  ,0.2
4782  ,1.158e+08   ,-2.4707  ,-2.4  ,0.029289
4784  ,4.333e+08   ,-2.4  ,-1.9  ,0
4791  ,2.834e+08   ,-2.4  ,-2.5  ,1.8
4796  ,1.832e+09   ,2.4707  ,-2.4707  ,4.9
4799  ,2.309e+09   ,2.5  ,-2.4  ,4.8
4806  ,1.423e+09   ,2.3  ,-2.5  ,4.9
4809  ,2.309e+09   ,2.3  ,2.3  ,3.9166
4833  ,6.069e+08   ,-2.4  ,2.5  ,0.4
4841  ,3.895e+08   ,-2.4  ,2.5  ,2.6
4846  ,3.269e+08   ,-2.5  ,2.1  ,4.9
4848  ,1.879e+08   ,-2.5  ,2.3  ,4.9
4849  ,2.393e+08   ,-2.5  ,2.4  ,4.8
4893  ,6.115e+08   ,-2.4  ,2.5  ,4.2
4897  ,2.746e+09   ,2.3333  ,2.1998  ,5
4900  ,1.125e+10   ,2.391  ,2.4577  ,4.7576
4908  ,9.146e+09   ,2.2576  ,2.391  ,4.9577
4911  ,1.117e+10   ,2.2576  ,2.4577  ,4.891
4926  ,8.152e+08   ,-2.5  ,2.4  ,1
4932  ,6.776e+08   ,-2.4  ,2.5  ,1.6
4937  ,7.990e+08   ,-1.1  ,2.5  ,0.1
4939  ,4.550e+09   ,2.3  ,2.2299  ,4.7299
4944  ,1.572e+09   ,2.5  ,-1.9073  ,4.9
4987  ,8.457e+08   ,-2.3  ,1.5527  ,4.8
5010  ,2.892e+09   ,2.4973  ,2.1331  ,4.923
5013  ,2.662e+09   ,2.5  ,2.0345  ,4.9
5017  ,2.723e+09   ,2.4  ,2.0345  ,5
5035  ,1.232e+09   ,1.3  ,-2.4  ,0
5038  ,9.133e+08   ,1.2085  ,-2.5  ,0.2
5092  ,1.631e+08   ,-2.4  ,-2.5  ,1.2
5123  ,8.866e+08   ,2.5  ,-2.4  ,0.6
5151  ,6.434e+08   ,-2.5  ,-0.5  ,0.1
5160  ,6.072e+08   ,-2.5  ,-0.7  ,0.1
5164  ,7.697e+08   ,-2.4  ,0.9  ,5
5168  ,5.560e+08   ,-2.4  ,0.5  ,5
5176  ,2.089e+08   ,2.5  ,-0.7  ,0.1
5179  ,2.563e+08   ,2.4  ,-0.5  ,0
5189  ,3.825e+08   ,2.4  ,-2.5  ,2.4
5194  ,7.698e+08   ,2.3  ,-2.5  ,2.2576
5198  ,5.099e+08   ,-2.3  ,-2.5  ,0.32348
5205  ,4.784e+08   ,-2.4  ,-2.5  ,0.2
5207  ,4.923e+08   ,-2.1  ,-2.5  ,0.1
5246  ,8.180e+08   ,-2.5  ,2.4  ,3.2
5257  ,4.454e+08   ,-2.5  ,1.5  ,4.9
5263  ,6.418e+08   ,-2.3  ,0.2278  ,0.2
5272  ,6.076e+08   ,-2.5  ,0.3  ,0.1
5275  ,6.615e+08   ,-2.5  ,0.5  ,4.9
5281  ,2.481e+09   ,1.8375  ,2.5  ,4.9
5297  ,7.050e+08   ,-0.9  ,2.5  ,0.1
5306  ,3.576e+08   ,-0.7  ,2.4  ,0
5309  ,4.409e+08   ,-0.5  ,2.5  ,0.1
5324  ,6.513e+08   ,2.4  ,2.5  ,2.7607
5332  ,6.015e+08   ,2.5  ,-2.4  ,0.8
5334  ,2.309e+08   ,2.4  ,-2.5  ,1
5360  ,1.373e+09   ,2.4  ,-1.7102  ,5
5362  ,1.425e+09   ,2.4  ,-1.5131  ,5
5368  ,2.232e+09   ,2.4  ,1.8375  ,5
5371  ,1.852e+10   ,2.4325  ,2.4888  ,4.6656
5372  ,4.960e+09   ,2.3333  ,2.5  ,4.6998
5376  ,3.974e+09   ,2.4707  ,2.4707  ,4.6331
5377  ,4.361e+09   ,2.5  ,2.4  ,4.5345
5379  ,2.211e+08   ,-1.5  ,-2.5  ,4.9
5406  ,1.445e+09   ,-2.5  ,-2.4  ,3.4
5420  ,1.028e+09   ,-2.3  ,-2.5  ,3.2226
5423  ,9.123e+08   ,1.5  ,-2.4  ,0
5502  ,1.884e+08   ,-2.5  ,-2.3  ,0.1
5504  ,4.076e+08   ,-2.5  ,-2.4  ,0.2
5506  ,6.387e+07   ,-2.4  ,-2.3  ,0
5511  ,2.915e+08   ,-2.5  ,-2.1  ,0.1
5513  ,6.171e+08   ,-2.4  ,0.5  ,0
5517  ,2.379e+08   ,-0.9  ,-2.5  ,0.1
5532  ,7.784e+07   ,-2.4707  ,2.4707  ,4.9
5534  ,2.066e+08   ,2.4  ,-0.7  ,0
5551  ,7.286e+08   ,2.5  ,-2.4  ,3.8
5566  ,1.020e+09   ,2.5  ,2.4  ,1.3811
5603  ,3.994e+08   ,2.4  ,-0.3  ,0
5617  ,6.423e+08   ,-2.1  ,2.5  ,0.1
5637  ,3.485e+08   ,-2.3  ,-1.9695  ,4.8
5641  ,4.157e+08   ,2.3  ,-2.5  ,3.4636
5645  ,4.055e+08   ,-2.4  ,-2.5  ,2
5649  ,2.701e+08   ,-2.4  ,-2.5  ,2.2
5659  ,1.492e+08   ,-2.3  ,-2.5  ,1.7774
5662  ,3.039e+09   ,2.1765  ,-2.5  ,4.8
5666  ,1.381e+09   ,2.4  ,-2.5  ,4.8
5669  ,1.521e+09   ,2.3  ,-2.3412  ,4.8
5695  ,6.562e+08   ,-2.4  ,0.7  ,0
5701  ,6.356e+08   ,-2.5  ,2.4  ,1.6
5715  ,5.268e+08   ,-2.4  ,2.5  ,1.8
5726  ,5.120e+08   ,-0.7  ,2.5  ,0.1
5727  ,8.190e+08   ,-1.1  ,2.4  ,0
5730  ,4.928e+08   ,2.3  ,-2.5  ,1.7774
5746  ,1.024e+09   ,2.5  ,2.4  ,1.7753
5755  ,1.637e+09   ,2.5  ,-2.4  ,4.4
5763  ,4.976e+08   ,2.4  ,-2.5  ,4.4
5773  ,9.456e+08   ,1.0491  ,2.5  ,4.9
5791  ,9.701e+08   ,-0.72473  ,2.4  ,5
5795  ,2.728e+09   ,1.8375  ,2.4  ,5
5803  ,8.792e+08   ,-0.3  ,-2.4  ,5
5810  ,1.715e+09   ,2.4  ,1.6404  ,5
5836  ,4.677e+08   ,-2.5  ,1.3  ,4.9
5860  ,5.697e+08   ,2.5  ,-2.4  ,1.6
5866  ,5.162e+08   ,1.5  ,-2.5  ,0.1
5884  ,4.957e+08   ,-2.4  ,-0.3  ,5
5888  ,2.867e+08   ,-2.5  ,-0.5  ,4.9
5901  ,9.872e+08   ,2.3  ,-2.5  ,2.5
5908  ,5.332e+08   ,2.5  ,-2.4  ,1.2
5909  ,6.010e+08   ,2.5  ,-2.4  ,2
5934  ,5.435e+08   ,1.9  ,-2.5  ,4.9
5938  ,2.247e+09   ,1.933  ,-2.5  ,4.8
5948  ,6.819e+08   ,-2.4  ,-2.5  ,4.6
5950  ,8.657e+08   ,-2.4707  ,-2.4707  ,4.9
5951  ,9.343e+08   ,-2.5  ,-2.4  ,4.8
5952  ,6.626e+08   ,-2.5  ,-2.3  ,4.9
5986  ,1.675e+08   ,2.3  ,-2.5  ,3.7085
5990  ,1.270e+09   ,-0.92182  ,2.5  ,4.9
6019  ,3.822e+08   ,2.5  ,1.9  ,0.1
6025  ,3.276e+08   ,2.4  ,-1.3  ,0
6035  ,4.389e+08   ,-2.5  ,1.9  ,4.9
6044  ,2.893e+08   ,0.1  ,2.5  ,0.1
6054  ,4.826e+08   ,2.4  ,0.1  ,0
6070  ,2.529e+08   ,-2.4  ,2.3  ,0
6071  ,3.832e+08   ,-2.3  ,2.4  ,0
6076  ,4.474e+08   ,-2.4  ,2.1  ,0
6083  ,8.970e+08   ,2.1  ,-2.4  ,0
6084  ,2.438e+08   ,2.4  ,2.3  ,0
6087  ,2.612e+08   ,2.3  ,2.4  ,0
6092  ,5.747e+08   ,-2.4  ,-2.5  ,0.4
6096  ,3.337e+08   ,-2.3  ,-2.5  ,0.1
6099  ,2.831e+08   ,0.7  ,-2.5  ,0.1
6149  ,6.462e+08   ,-2.4  ,-0.9  ,0
6159  ,1.302e+09   ,-2.5  ,-2.4  ,2.6
6183  ,1.031e+09   ,1.2462  ,2.5  ,4.9
6224  ,3.236e+08   ,2.5  ,-2.4  ,4
6228  ,4.972e+08   ,2.4  ,-2.5  ,3.8
6237  ,7.667e+08   ,2.5  ,0.7  ,0.1
6241  ,3.872e+09   ,2.5  ,2.3333  ,4.6998
6245  ,9.918e+08   ,2.5  ,2.4  ,1.5782
6259  ,1.621e+09   ,2.5  ,-2.1044  ,4.9
6265  ,1.139e+09   ,2.3  ,-1.9804  ,4.8
6267  ,1.644e+09   ,2.5  ,-2.3015  ,4.9
6268  ,1.501e+09   ,2.4707  ,-2.4  ,4.9707
6270  ,1.661e+09   ,2.4  ,-2.1044  ,5
6317  ,1.003e+09   ,-2.3  ,0.2278  ,4.8
6349  ,9.996e+08   ,-0.52764  ,2.4  ,5
6391  ,1.022e+09   ,2.4  ,2.5  ,1.7753
6440  ,6.050e+08   ,-2.5  ,2.4  ,3.8
6471  ,1.261e+09   ,2.5  ,-0.92182  ,4.9
6489  ,1.091e+09   ,2.5  ,1.2462  ,4.9
6523  ,1.321e+08   ,-1.1  ,-2.4  ,0
6528  ,1.271e+08   ,-1.1  ,-2.5  ,0.1
6535  ,2.313e+08   ,-0.9  ,-2.4  ,0
6538  ,3.731e+08   ,1.5  ,-2.4  ,5
6541  ,7.108e+08   ,1.5  ,-2.5  ,4.9
6551  ,1.203e+09   ,2.5  ,-0.72473  ,4.9
6564  ,7.677e+09   ,2.1331  ,2.4973  ,4.923
6565  ,4.532e+09   ,2.0345  ,2.5  ,4.9
6572  ,3.726e+08   ,2.4  ,-1.7  ,0
6581  ,9.794e+08   ,0  ,2.3  ,0.2
6592  ,4.105e+08   ,2.3  ,-1.9695  ,0.2
6594  ,3.714e+08   ,0.3  ,2.4  ,0
6601  ,6.262e+08   ,0.5  ,2.5  ,0.1
6605  ,6.335e+08   ,-2.4  ,-1.3  ,0
6606  ,6.222e+08   ,-2.4  ,-1.1  ,0
6615  ,6.965e+08   ,-2.4  ,-0.3  ,0
6634  ,7.134e+08   ,2.1  ,-2.5  ,4.9
6635  ,1.845e+09   ,2.4  ,-2.4707  ,4.9707
6636  ,2.304e+09   ,2.3  ,-2.4  ,5
6647  ,2.447e+08   ,0.5  ,-2.5  ,0.1
6704  ,1.965e+08   ,-2.4707  ,2.4707  ,0.1
6708  ,3.615e+08   ,-2.5  ,2.4  ,0.2
6712  ,7.079e+08   ,-2.4  ,2.5  ,3.6
6715  ,8.679e+08   ,-2.4  ,2.5  ,3.4
6728  ,6.705e+08   ,-2.5  ,0.7  ,4.9
6753  ,2.616e+08   ,-2.1044  ,2.4  ,5
6788  ,2.895e+09   ,2.5  ,2.4  ,4.3375
6791  ,1.088e+09   ,-1.933  ,-2.5  ,4.8
6795  ,4.364e+09   ,2.1998  ,2.5  ,4.8333
6837  ,5.895e+08   ,-2.3  ,-2.5  ,0.8063
6869  ,1.466e+09   ,2.5  ,-1.7102  ,4.9
6873  ,1.717e+09   ,2.4  ,-1.9073  ,5
6880  ,1.261e+09   ,2.4  ,-0.92182  ,5
6885  ,1.125e+09   ,2.4  ,-0.52764  ,5
6893  ,1.052e+09   ,2.4  ,1.2462  ,5
6914  ,9.357e+08   ,0.7  ,2.5  ,0.1
6920  ,7.894e+08   ,0.9  ,2.4  ,0
6923  ,8.680e+08   ,0.7  ,2.4  ,0
6936  ,3.440e+08   ,2.4  ,-2.5  ,3.4
6939  ,6.487e+08   ,2.3  ,-2.5  ,3.2226
6961  ,3.624e+08   ,-0.1  ,-2.5  ,4.9
6967  ,4.141e+08   ,-2.5  ,-1.5  ,4.9
6975  ,6.513e+08   ,-2.4  ,1.1  ,5
6978  ,4.276e+08   ,-2.4  ,2.5  ,0.2
6987  ,1.315e+09   ,2.4  ,-1.316  ,5
6994  ,3.897e+08   ,2.4  ,-1.5  ,0
7004  ,4.134e+08   ,2.4  ,-2.5  ,3.6
7011  ,8.383e+08   ,2.4  ,0.65491  ,5
7016  ,7.261e+08   ,2.4  ,0.45782  ,5
7019  ,8.658e+08   ,2.5  ,2.4  ,2.1695
7021  ,8.896e+08   ,2.5  ,2.4  ,1.9724
7052  ,7.665e+08   ,-1.3  ,2.5  ,0.1
7054  ,2.362e+08   ,-2.4  ,-2.5  ,0.8
7057  ,2.123e+08   ,0.3  ,-2.5  ,0.1
7065  ,1.073e+09   ,0.24243  ,-2.5  ,0.2
7075  ,1.817e+10   ,2.4888  ,2.4325  ,4.6656
7113  ,1.991e+08   ,-2.4  ,-2.5  ,2.6
7121  ,2.831e+08   ,-2.4  ,-2.5  ,2.8
7126  ,1.376e+09   ,-2.5  ,-2.4  ,2.8
7128  ,1.457e+08   ,-2.4707  ,-2.4707  ,0.1
7129  ,8.079e+07   ,-2.4  ,-2.4707  ,0.029289
7141  ,6.981e+08   ,-1.7  ,-2.4  ,5
7145  ,6.271e+08   ,1.1  ,2.4  ,0
7163  ,5.268e+08   ,-1.7102  ,2.4  ,5
7172  ,1.324e+09   ,2.5  ,-2.4  ,3.2
7174  ,6.248e+08   ,-2.5  ,2.4  ,3.6
7183  ,6.143e+08   ,-1.4531  ,-2.5  ,4.8
7204  ,2.435e+09   ,2.3  ,-0.81068  ,4.8
7220  ,1.044e+09   ,2.5  ,0.063638  ,4.9
7227  ,5.811e+08   ,2.5  ,-1.9  ,0.1
7256  ,1.149e+09   ,-0.1  ,-2.4  ,5
7280  ,8.393e+08   ,-0.33054  ,2.4  ,5
7299  ,1.294e+09   ,2.5  ,-1.1189  ,4.9
7316  ,9.012e+08   ,-2.5  ,-2.4  ,0.8
7323  ,1.298e+08   ,-2.4  ,-2.5  ,1
7396  ,9.715e+08   ,1.1  ,-2.4  ,5
7400  ,6.721e+08   ,-2.5  ,0.7  ,0.1
7409  ,7.428e+08   ,1.3  ,-2.4  ,5
7420  ,3.411e+08   ,2.5  ,2.1  ,0.1
7429  ,5.427e+08   ,2.4  ,1.9  ,0
7436  ,4.507e+08   ,2.5  ,-1.7  ,0.1
7438  ,2.724e+08   ,2.4  ,-2.5  ,2.8
7445  ,7.186e+09   ,2.4325  ,2.1656  ,4.9888
7464  ,3.088e+08   ,2.5  ,-1.5  ,0.1
7480  ,1.091e+09   ,2.5  ,-2.4  ,0.2
7482  ,4.969e+08   ,1.9  ,-2.5  ,0.1
7483  ,4.617e+08   ,1.7  ,-2.5  ,0.1
7486  ,1.678e+09   ,1.9  ,-2.4  ,5
7488  ,1.359e+09   ,1.6937  ,-2.5  ,4.8
7492  ,2.839e+09   ,2.1  ,-2.4  ,5
7495  ,2.181e+08   ,0.1  ,-2.5  ,0.1
7504  ,1.407e+09   ,0.3  ,-2.4  ,0
7507  ,3.169e+08   ,0.9  ,-2.5  ,0.1
7533  ,6.911e+08   ,-2.5  ,0.9  ,0.1
7536  ,2.359e+08   ,-2.4  ,-2.5  ,3.2
7540  ,2.902e+08   ,-2.4  ,-2.5  ,3
7545  ,1.400e+09   ,-2.5  ,-2.4  ,3
7582  ,6.035e+08   ,1.3  ,2.5  ,0.1
7588  ,8.771e+08   ,2.5  ,2.4  ,2.3665
7598  ,5.965e+08   ,-2.5  ,2.4  ,4.2
7607  ,7.611e+08   ,1.5333  ,2.3  ,0.2
7627  ,4.926e+08   ,-2.5  ,1.1  ,4.9
7651  ,5.368e+08   ,2.4  ,-1.9  ,0
7656  ,3.075e+08   ,2.5  ,2.4  ,0.39564
7660  ,4.666e+09   ,2.2299  ,2.3  ,4.7299
7668  ,4.121e+08   ,1.4531  ,-2.5  ,4.8
7676  ,3.126e+08   ,0.1  ,-2.5  ,4.9
7683  ,1.394e+09   ,0.1  ,-2.4  ,5
7686  ,2.859e+08   ,-2.4  ,-1.1  ,5
7702  ,6.147e+08   ,-2.3  ,-2.5  ,4.433
7710  ,1.347e+09   ,-2.3  ,-2.5  ,4.6765
7752  ,1.201e+09   ,0.9  ,-2.4  ,5
7763  ,9.018e+08   ,0.24243  ,-2.5  ,4.8
7767  ,1.411e+09   ,-2.5  ,-2.4  ,3.2
7768  ,2.481e+08   ,-2.4  ,-2.1  ,0
7776  ,7.424e+08   ,-2.4  ,0.9  ,0
7786  ,5.265e+08   ,-0.4838  ,-2.5  ,4.8
7800  ,2.797e+09   ,2.5  ,-2.4  ,4.6
7805  ,3.550e+08   ,-2.5  ,-1.3  ,4.9
7811  ,3.002e+08   ,-2.5  ,-1.1  ,4.9
7820  ,6.779e+08   ,2.5  ,-2.1  ,0.1
7824  ,5.886e+08   ,2.4  ,-2.1  ,0
7828  ,6.450e+08   ,2.4  ,-2.5  ,4.2
7831  ,6.840e+08   ,2.4  ,-2.5  ,4
7838  ,8.937e+08   ,2.5  ,-2.4  ,4.2
7839  ,7.200e+08   ,2.5  ,2.4  ,2.7607
7840  ,7.802e+08   ,2.5  ,2.4  ,2.9578
7863  ,6.424e+08   ,-2.4  ,-1.5  ,0
7890  ,6.499e+08   ,2.4  ,0.9  ,0
7897  ,6.153e+08   ,-2.4  ,-0.7  ,0
7912  ,6.533e+08   ,-1.5  ,-2.4  ,0
7917  ,6.459e+07   ,-1.3  ,-2.5  ,0.1
7931  ,5.518e+08   ,0.5  ,2.4  ,0
7934  ,1.450e+09   ,1.1  ,-2.4  ,0
7937  ,3.634e+08   ,2.4  ,-2.5  ,0.8
7941  ,3.936e+08   ,-2.4  ,-2.5  ,0.6
7969  ,2.506e+08   ,-2.5  ,2.3  ,0.1
7971  ,5.377e+08   ,-2.4  ,1.9  ,0
7972  ,7.354e+08   ,-1.9  ,2.5  ,0.1
7978  ,7.505e+08   ,-2.4  ,1.1  ,0
7996  ,3.195e+08   ,-2.4  ,-0.5  ,5
8000  ,9.962e+08   ,-2.5  ,-2.4  ,0.6
8003  ,9.258e+08   ,-2.5  ,-2.4  ,0.4
8025  ,9.345e+08   ,0.9  ,2.5  ,0.1
8035  ,3.852e+08   ,0.3  ,2.5  ,0.1
8039  ,1.477e+09   ,2.3  ,-2.5  ,0.32348
8041  ,8.628e+08   ,2.3  ,-2.3379  ,0.2
8043  ,1.338e+09   ,2.1765  ,-2.5  ,0.2
8045  ,1.410e+08   ,-0.96359  ,-2.5  ,0.2
8054  ,4.933e+08   ,1.3  ,2.4  ,0
8058  ,7.358e+08   ,1.1  ,2.5  ,0.1
8062  ,8.510e+08   ,-2.5  ,2.4  ,1.4
8067  ,7.545e+08   ,-2.5  ,2.4  ,0.8
8087  ,6.689e+08   ,-2.5  ,1.5  ,0.1
8132  ,8.056e+08   ,-0.13345  ,2.4  ,5
8183  ,2.475e+08   ,2.5  ,-0.9  ,0.1
8184  ,3.033e+08   ,1.6937  ,-2.5  ,0.2
8214  ,7.189e+08   ,-2.4707  ,-2.4  ,4.9707
8217  ,1.266e+09   ,-2.1  ,-2.4  ,5
8219  ,6.671e+08   ,-2.4  ,-2.5  ,4.4
8227  ,8.078e+08   ,2.5  ,2.4  ,3.1549
8242  ,5.013e+08   ,0.7  ,-2.5  ,4.9
8248  ,9.723e+08   ,2.5  ,-2.4  ,3.6
8254  ,3.940e+08   ,2.5  ,-0.3  ,0.1
8256  ,2.421e+08   ,2.5  ,-0.5  ,0.1
8258  ,2.262e+08   ,-0.3  ,-2.5  ,4.9
8263  ,1.521e+08   ,-0.5  ,-2.5  ,4.9
8268  ,8.642e+08   ,-2.3  ,-2.5  ,3.7085
8277  ,2.210e+08   ,-0.1  ,-2.5  ,0.1
8285  ,4.088e+08   ,1.1  ,-2.5  ,4.9
8307  ,2.867e+08   ,0.1  ,2.4  ,0
8308  ,4.169e+08   ,-0.1  ,2.5  ,0.1
8309  ,2.851e+08   ,-0.1  ,2.4  ,0
8313  ,7.122e+08   ,2.5  ,-2.3  ,0.1
8318  ,1.479e+09   ,2.5  ,-2.4  ,3
8338  ,8.389e+08   ,2.5  ,2.4  ,3.352
8339  ,8.512e+08   ,2.4  ,2.5  ,3.1549
8344  ,7.455e+08   ,-2.5  ,2.4  ,3.4
8357  ,7.069e+09   ,2.4888  ,2.1656  ,4.9325
8358  ,2.554e+09   ,2.5  ,2.1998  ,4.8333
8383  ,7.977e+08   ,-1.7  ,-2.4  ,0
8396  ,4.652e+08   ,1.1  ,-2.5  ,0.1
8399  ,2.231e+09   ,2.4526  ,2.1331  ,4.9851
8405  ,5.131e+08   ,2.5  ,-2.4  ,1
8412  ,6.132e+08   ,2.3  ,-2.5  ,0.8063
8417  ,1.006e+09   ,-2.3  ,-2.5  ,2.5
8434  ,3.948e+08   ,0.9636  ,-2.5  ,4.8
8438  ,2.491e+08   ,-0.3  ,-2.5  ,0.1
8452  ,5.895e+08   ,-2.4  ,-0.1  ,5
8468  ,1.198e+09   ,2.5  ,2.4  ,3.7462
8471  ,2.359e+08   ,-1.3  ,-2.5  ,4.9
8493  ,1.921e+08   ,-1.1  ,-2.5  ,4.9
8509  ,5.177e+08   ,-2.5  ,-1.7  ,0.1
8517  ,5.747e+08   ,-2.4  ,2.5  ,3
8531  ,5.837e+08   ,-2.4  ,1.7  ,0
8556  ,1.032e+09   ,2.5  ,2.4  ,3.5491
8573  ,1.028e+09   ,-1.316  ,2.4  ,5
8576  ,7.331e+08   ,-2.4  ,1.3  ,0
8611  ,5.896e+08   ,2.3  ,-2.5  ,1.2915
8618  ,5.962e+08   ,-2.4  ,2.5  ,4
8646  ,7.820e+08   ,-2.5  ,1.1  ,0.1
8656  ,3.520e+08   ,2.5  ,-1.3  ,0.1
8657  ,4.446e+08   ,2.4  ,2.1  ,0
8673  ,7.809e+08   ,-1.3  ,2.4  ,0
8692  ,6.992e+08   ,0.72263  ,-2.5  ,4.8
8696  ,5.502e+08   ,2.3  ,-2.5  ,1.0469
8706  ,8.555e+08   ,2.5  ,0.65491  ,4.9
8721  ,1.535e+08   ,-2.4  ,-2.5  ,1.6
8725  ,8.691e+08   ,0.65491  ,2.4  ,5
8739  ,1.576e+10   ,2.1656  ,2.4325  ,4.9888
8741  ,3.718e+09   ,2.1998  ,2.3333  ,5
8746  ,7.293e+08   ,-2.1  ,-2.4  ,0
8748  ,3.412e+08   ,-2.5  ,-2.4  ,1.2
8752  ,6.064e+09   ,2.1331  ,2.4526  ,4.9851
8759  ,4.542e+08   ,-2.3  ,-2.5  ,1.0469
8787  ,1.243e+09   ,-0.1  ,-2.4  ,0
8793  ,8.318e+08   ,-2.3  ,-2.5  ,2.2576
8795  ,2.623e+08   ,-2.4  ,-2.5  ,2.4
8798  ,3.064e+08   ,-2.3  ,-2.5  ,4.1937
8808  ,5.509e+08   ,-2.3  ,-2.5  ,3.9531
8814  ,5.384e+08   ,-2.4  ,-1.5  ,5
8849  ,8.896e+08   ,0.4838  ,-2.5  ,4.8
8851  ,5.228e+08   ,-2.4  ,-2.5  ,4.2
8868  ,3.173e+08   ,2.4  ,-2.5  ,3
8874  ,9.069e+08   ,0.852  ,2.4  ,5
8883  ,6.559e+08   ,-0.5  ,-2.4  ,5
8886  ,5.085e+08   ,-0.72262  ,-2.5  ,4.8
8893  ,6.354e+07   ,-0.7  ,-2.5  ,4.9
8897  ,1.365e+09   ,-2.5  ,-2.4  ,3.6
8899  ,1.030e+09   ,-2.3  ,-2.5  ,3.4636
8900  ,3.747e+08   ,-2.3  ,-1.4729  ,0.2
8906  ,6.560e+08   ,-2.5  ,-1.3  ,0.1
8910  ,9.158e+08   ,0.852  ,2.5  ,4.9
8925  ,7.680e+08   ,-2.4  ,2.5  ,1.4
8941  ,1.106e+08   ,2.4707  ,2.4  ,0.029289
8942  ,1.975e+08   ,2.5  ,2.3  ,0.1
8945  ,6.541e+08   ,-2.5  ,0.1  ,4.9
8950  ,1.004e+08   ,2.4707  ,2.4707  ,0.1
8951  ,9.401e+07   ,2.4  ,2.4707  ,0.029289
8959  ,7.152e+08   ,2.4  ,0.26073  ,5
8965  ,7.218e+08   ,0.45782  ,2.4  ,5
8978  ,6.895e+08   ,2.4  ,0.852  ,5
8983  ,2.735e+08   ,2.5  ,-1.1  ,0.1
8991  ,6.962e+08   ,-2.5  ,2.4  ,0.6
9008  ,8.179e+08   ,2.5  ,0.852  ,4.9
9011  ,6.383e+08   ,-2.4  ,-0.5  ,0
9025  ,1.568e+08   ,-1.5  ,-2.5  ,0.1
9038  ,9.854e+07   ,2.4  ,-2.5  ,2
9041  ,7.861e+08   ,2.5  ,0.9  ,0.1
9050  ,5.646e+08   ,2.5  ,0.5  ,0.1
9054  ,1.473e+09   ,0.9  ,-2.4  ,0
9060  ,5.239e+08   ,2.4  ,-2.5  ,0.4
9062  ,9.649e+08   ,2.3  ,-2.5  ,0.56701
9064  ,1.154e+09   ,2.5  ,-2.4  ,0.4
9069  ,3.427e+08   ,2.4  ,-2.5  ,0.6
9071  ,6.103e+08   ,1.4531  ,-2.5  ,0.2
9082  ,2.248e+08   ,-2.3  ,-2.5  ,1.2915
9086  ,1.350e+08   ,-2.4  ,-2.5  ,1.4
9091  ,5.574e+07   ,-2.5  ,-2.4  ,1.4
9094  ,4.553e+08   ,1.3  ,-2.5  ,4.9
9097  ,2.885e+08   ,-0.7  ,-2.5  ,0.1
9137  ,2.298e+08   ,-2.5  ,-0.7  ,4.9
9143  ,5.520e+08   ,-2.5  ,-0.1  ,4.9
9146  ,6.257e+08   ,-2.1  ,2.4  ,0
9148  ,4.582e+08   ,-2.5  ,1.7  ,4.9
9173  ,5.203e+08   ,-2.5  ,2.4  ,3
9192  ,5.857e+08   ,-0.7  ,-2.4  ,5
9195  ,9.673e+08   ,0.72263  ,-2.5  ,0.2
9209  ,1.138e+09   ,2.5  ,-2.4  ,3.4
9215  ,1.024e+09   ,0.9636  ,-2.5  ,0.2
9217  ,3.772e+08   ,2.4  ,-2.5  ,3.2
9218  ,5.009e+08   ,-0.96359  ,-2.5  ,4.8
9229  ,5.290e+08   ,-2.4  ,2.5  ,2.8
9248  ,2.136e+09   ,2.3  ,-2.5  ,4.433
9255  ,6.014e+08   ,2.5  ,1.3  ,0.1
9257  ,4.446e+08   ,2.4  ,1.5  ,0
9262  ,1.591e+09   ,0.5  ,-2.4  ,5
9264  ,8.800e+08   ,2.4  ,-0.13345  ,5
9272  ,6.002e+08   ,0.063638  ,2.4  ,5
9277  ,8.254e+08   ,-2.5  ,2.4  ,1.2
9279  ,8.244e+08   ,2.5  ,0.26073  ,4.9
9282  ,2.196e+08   ,1.2085  ,-2.5  ,4.8
9286  ,4.553e+08   ,0.9  ,-2.5  ,4.9
9292  ,9.974e+07   ,-2.4  ,2.4707  ,4.9707
9293  ,1.038e+08   ,-2.3015  ,2.4  ,5
9296  ,6.028e+08   ,-2.4  ,-2.1  ,5
9303  ,5.591e+08   ,-2.4  ,-1.9  ,5
9311  ,1.541e+08   ,-2.4  ,2.3  ,5
9313  ,6.149e+08   ,-2.4  ,0.1  ,5
9319  ,7.537e+08   ,-0.5  ,-2.4  ,0
9328  ,8.950e+07   ,-2.3  ,-2.5  ,1.5364
9334  ,4.644e+08   ,-2.3  ,2.5  ,0.1
9338  ,1.214e+09   ,-2.5  ,-2.4  ,2.4
9339  ,7.151e+08   ,-2.5  ,1.3  ,0.1
9341  ,1.087e+09   ,-2.3  ,-2.5  ,2.7424
9344  ,1.065e+09   ,-2.5  ,-2.4  ,2.2
9358  ,1.377e+09   ,-2.3  ,2.3  ,2.5
9364  ,6.141e+08   ,-2.5  ,-2.1  ,4.9
9367  ,7.885e+08   ,-2.4  ,-2.3  ,5
9374  ,3.979e+08   ,-2.4  ,-1.3  ,5
9378  ,3.488e+08   ,-2.5  ,2.4  ,1.8
9384  ,5.668e+08   ,2.3  ,-2.5  ,2.0162
9385  ,5.877e+08   ,-2.5  ,2.4  ,4.4
9389  ,3.957e+08   ,-2.5  ,2.4  ,2
9395  ,1.541e+09   ,2.4  ,-2.3015  ,5
9396  ,5.591e+08   ,-2.4  ,-1.7  ,0
9407  ,3.280e+08   ,-2.3  ,-1.4729  ,4.8
9411  ,3.719e+08   ,-2.5  ,-1.7  ,4.9
9423  ,3.873e+08   ,-2.4  ,-2.5  ,3.6
9432  ,1.500e+09   ,0.7  ,-2.4  ,5
9438  ,2.302e+08   ,-2.5  ,-0.9  ,4.9
9443  ,4.688e+08   ,-2.5  ,-0.3  ,4.9
9445  ,8.638e+07   ,-2.4707  ,2.4  ,4.9707
9448  ,1.261e+09   ,2.4  ,-1.1189  ,5
9453  ,6.979e+08   ,2.4  ,0.7  ,0
9455  ,1.397e+09   ,2.5  ,-2.4  ,2.6
9457  ,9.374e+08   ,2.3  ,-2.5  ,2.9838
9494  ,8.063e+08   ,-2.4  ,2.5  ,1
9500  ,3.638e+08   ,0.3  ,-2.5  ,4.9
9504  ,1.510e+09   ,0.3  ,-2.4  ,5
9506  ,3.719e+08   ,2.1  ,-2.5  ,0.1
9518  ,3.159e+08   ,-1.9  ,-2.5  ,0.1
9528  ,5.774e+08   ,2.3  ,-2.5  ,0.1
9531  ,1.123e+09   ,2.4707  ,-2.4707  ,0.1
9533  ,7.067e+08   ,2.4707  ,-2.4  ,0.029289
9534  ,8.851e+08   ,2.4  ,-2.4707  ,0.029289
9541  ,4.089e+08   ,0.5  ,-2.5  ,4.9
9544  ,2.794e+08   ,-0.5  ,-2.5  ,0.1
9559  ,4.567e+08   ,-2.5  ,-1.9  ,4.9
9562  ,4.949e+08   ,-2.5  ,2.4  ,4.6
9565  ,5.161e+08   ,-2.4  ,2.5  ,2
9571  ,1.207e+09   ,-2.5  ,-2.4  ,3.8
9574  ,3.813e+08   ,-2.4  ,-2.5  ,3.8
9577  ,5.248e+08   ,1.3  ,-2.5  ,0.1
9582  ,6.268e+08   ,-2.5  ,-0.9  ,0.1
9596  ,4.626e+08   ,2.1  ,2.4  ,0
9598  ,8.682e+08   ,-2.4  ,2.5  ,3.2
9602  ,5.955e+08   ,1.5  ,2.5  ,0.1
9610  ,3.492e+08   ,2.4  ,2.5  ,0.39564
9612  ,1.200e+09   ,-0.72473  ,2.5  ,4.9
9614  ,5.754e+08   ,1.7  ,2.5  ,0.1
9635  ,4.602e+08   ,2.5  ,1.7  ,0.1
9646  ,2.561e+08   ,2.3  ,2.5  ,0.1
9651  ,1.482e+10   ,2.1656  ,2.4888  ,4.9325
9653  ,1.274e+09   ,2.5  ,-1.316  ,4.9
9656  ,3.970e+08   ,-2.4  ,-1.7  ,5
9659  ,2.980e+09   ,2.3  ,-2.5  ,4.6765
9661  ,4.491e+08   ,2.3  ,-2.5  ,3.9531
9664  ,1.102e+09   ,-2.3  ,-2.4  ,5
9666  ,3.276e+08   ,1.9  ,-2.4  ,0
9677  ,6.383e+08   ,2.4  ,0.5  ,0
9678  ,6.362e+08   ,-2.5  ,-1.1  ,0.1
9680  ,9.930e+08   ,2.5  ,2.4  ,1.184
9681  ,1.302e+08   ,2.5  ,2.4  ,0.19855
9696  ,4.955e+08   ,-2.3  ,-2.5  ,2.0162
9698  ,7.438e+08   ,2.4  ,-2.3  ,0
9699  ,8.521e+08   ,-0.24243  ,-2.5  ,0.2
9701  ,1.338e+09   ,0.1  ,-2.4  ,0
9704  ,5.152e+08   ,-0.4838  ,-2.5  ,0.2
9718  ,2.116e+08   ,-0.72262  ,-2.5  ,0.2
9726  ,7.664e+08   ,2.3  ,-0.76628  ,0.2
9727  ,6.627e+08   ,-2.5  ,2.4  ,0.4
9730  ,8.798e+08   ,1.9433E-06  ,-2.5  ,4.8
9731  ,7.147e+08   ,-0.24243  ,-2.5  ,4.8
9732  ,4.184e+08   ,-2.5  ,2.4  ,2.2
9738  ,9.702e+08   ,-2.5  ,-2.4  ,4
9743  ,7.009e+08   ,-1.6937  ,-2.5  ,4.8
9744  ,4.060e+08   ,-2.4  ,-2.5  ,4
9750  ,2.338e+08   ,-1.7  ,-2.5  ,0.1
9752  ,5.597e+08   ,-1.6937  ,-2.5  ,0.2
9754  ,4.349e+08   ,-1.3  ,-2.4  ,0
9759  ,1.516e+08   ,-2.4707  ,2.4  ,0.029289
9760  ,1.896e+08   ,-2.4  ,2.4707  ,0.029289
9768  ,1.317e+09   ,2.3  ,-2.5  ,4.1937
9770  ,1.024e+09   ,1.9433E-06  ,-2.5  ,0.2
9771  ,9.909e+08   ,0.4838  ,-2.5  ,0.2
9772  ,4.643e+08   ,2.4  ,-2.5  ,0.2
9773  ,8.082e+08   ,2.4  ,-2.5  ,4.6
9776  ,8.037e+08   ,2.4  ,0.063638  ,5
9780  ,8.191e+08   ,0.65491  ,2.5  ,4.9
9781  ,1.749e+08   ,2.4  ,2.5  ,0.19855
9782  ,1.064e+09   ,-2.3  ,-2.5  ,2.9838
9786  ,3.724e+08   ,-1.2085  ,-2.5  ,0.2
9787  ,4.936e+08   ,-1.4531  ,-2.5  ,0.2
9790  ,9.337e+08   ,2.3  ,-2.4  ,0
9793  ,4.373e+09   ,2.0345  ,2.4  ,5
9797  ,5.422e+08   ,2.3  ,-2.5  ,1.5364
9798  ,8.009e+08   ,2.4  ,1.0491  ,5
9809  ,8.354e+08   ,2.4  ,2.5  ,3.352
