Date:  11:15, Monday, July 10, 2023
Model name: Hollow_DropBox
Study name: Drop Test_hollow_draft1(-Default-)
Plot type:  Stress1
Plot step: 4   time : 20.9839 Microseconds
Result Type: von Mises 


Node  ,Value (N/m^2)  ,X (in)  ,Y (in)  ,Z (in)
1  ,2.964e+09   ,2.5  ,2.1331  ,4.9
2  ,1.422e+10   ,2.4577  ,2.1908  ,4.9577
3  ,4.494e+09   ,2.4894  ,2.1331  ,4.9447
4  ,2.984e+09   ,2.1331  ,2.5  ,4.9
5  ,4.553e+09   ,2.1331  ,2.4894  ,4.9447
6  ,1.302e+10   ,2.1908  ,2.4577  ,4.9577
7  ,2.351e+07   ,-2.4  ,2.4  ,5
8  ,1.404e+06   ,-2.4  ,-2.4  ,5
9  ,2.741e+07   ,2.4  ,-2.4  ,5
10  ,3.085e+09   ,2.4  ,2.1331  ,5
11  ,3.311e+09   ,2.1331  ,2.4  ,5
12  ,2.646e+07   ,2.5  ,-2.4  ,4.9
13  ,1.533e+06   ,2.5  ,-2.4  ,0.1
14  ,2.724e+07   ,2.5  ,2.4  ,0.1
15  ,3.668e+09   ,2.5  ,2.4  ,4.6331
16  ,2.867e+07   ,2.4  ,2.5  ,0.1
17  ,4.738e+06   ,-2.4  ,2.5  ,0.1
18  ,2.538e+07   ,-2.4  ,2.5  ,4.9
19  ,3.568e+09   ,2.4  ,2.5  ,4.6331
20  ,1.979e+06   ,-2.5  ,2.4  ,0.1
21  ,3.659e+03   ,-2.5  ,-2.4  ,0.1
22  ,6.907e+05   ,-2.5  ,-2.4  ,4.9
23  ,1.194e+07   ,-2.5  ,2.4  ,4.9
24  ,1.132e+04   ,-2.3  ,-2.5  ,0.2
25  ,1.129e+06   ,-2.3  ,-2.5  ,4.8
26  ,1.315e+07   ,2.3  ,-2.5  ,4.8
27  ,1.679e+06   ,2.3  ,-2.5  ,0.2
28  ,7.467e+05   ,-2.4  ,-2.5  ,4.9
29  ,1.210e+07   ,2.4  ,-2.5  ,4.9
30  ,5.403e+03   ,-2.4  ,-2.5  ,0.1
31  ,1.277e+06   ,2.4  ,-2.5  ,0.1
32  ,5.787e+05   ,2.4  ,-2.4  ,0
33  ,1.407e+07   ,2.4  ,2.4  ,0
34  ,5.965e+03   ,-2.4  ,-2.4  ,0
35  ,3.501e+06   ,-2.4  ,2.4  ,0
36  ,1.209e+10   ,2.4577  ,2.4577  ,4.6908
37  ,2.778e+07   ,-2.3  ,2.3  ,4.8
38  ,3.602e+09   ,2.1599  ,2.3  ,4.8
39  ,3.598e+09   ,2.3  ,2.1599  ,4.8
40  ,3.521e+09   ,2.3  ,2.3  ,4.6599
41  ,2.688e+07   ,2.3  ,2.3  ,0.2
42  ,4.778e+06   ,-2.3  ,2.3  ,0.2
43  ,2.239e+07   ,-2.4  ,2.2  ,5
44  ,2.328e+07   ,-2.4  ,2  ,5
45  ,1.809e+07   ,-2.4  ,1.8  ,5
46  ,1.794e+07   ,-2.4  ,1.6  ,5
47  ,1.425e+07   ,-2.4  ,1.4  ,5
48  ,1.252e+07   ,-2.4  ,1.2  ,5
49  ,1.230e+07   ,-2.4  ,1  ,5
50  ,1.941e+07   ,-2.4  ,0.8  ,5
51  ,1.537e+07   ,-2.4  ,0.6  ,5
52  ,1.437e+07   ,-2.4  ,0.4  ,5
53  ,1.305e+07   ,-2.4  ,0.2  ,5
54  ,9.473e+06   ,-2.4  ,5.8879E-16  ,5
55  ,1.478e+07   ,-2.4  ,-0.2  ,5
56  ,2.918e+07   ,-2.4  ,-0.4  ,5
57  ,1.740e+07   ,-2.4  ,-0.6  ,5
58  ,8.223e+06   ,-2.4  ,-0.8  ,5
59  ,5.974e+06   ,-2.4  ,-1  ,5
60  ,1.268e+07   ,-2.4  ,-1.2  ,5
61  ,3.096e+06   ,-2.4  ,-1.4  ,5
62  ,3.406e+06   ,-2.4  ,-1.6  ,5
63  ,4.813e+06   ,-2.4  ,-1.8  ,5
64  ,1.055e+06   ,-2.4  ,-2  ,5
65  ,2.593e+06   ,-2.4  ,-2.2  ,5
66  ,2.167e+06   ,-2.2  ,-2.4  ,5
67  ,2.836e+06   ,-2  ,-2.4  ,5
68  ,3.917e+06   ,-1.8  ,-2.4  ,5
69  ,3.938e+06   ,-1.6  ,-2.4  ,5
70  ,3.490e+06   ,-1.4  ,-2.4  ,5
71  ,6.907e+06   ,-1.2  ,-2.4  ,5
72  ,1.079e+07   ,-1  ,-2.4  ,5
73  ,1.111e+07   ,-0.8  ,-2.4  ,5
74  ,6.088e+06   ,-0.6  ,-2.4  ,5
75  ,9.780e+06   ,-0.4  ,-2.4  ,5
76  ,1.738e+07   ,-0.2  ,-2.4  ,5
77  ,1.953e+07   ,-5.8879E-16  ,-2.4  ,5
78  ,2.011e+07   ,0.2  ,-2.4  ,5
79  ,1.950e+07   ,0.4  ,-2.4  ,5
80  ,1.814e+07   ,0.6  ,-2.4  ,5
81  ,1.331e+07   ,0.8  ,-2.4  ,5
82  ,6.281e+06   ,1  ,-2.4  ,5
83  ,6.659e+06   ,1.2  ,-2.4  ,5
84  ,1.420e+07   ,1.4  ,-2.4  ,5
85  ,1.443e+07   ,1.6  ,-2.4  ,5
86  ,1.096e+07   ,1.8  ,-2.4  ,5
87  ,1.257e+07   ,2  ,-2.4  ,5
88  ,2.074e+07   ,2.2  ,-2.4  ,5
89  ,7.445e+07   ,2.4  ,-2.2029  ,5
90  ,1.257e+08   ,2.4  ,-2.0058  ,5
91  ,1.766e+08   ,2.4  ,-1.8087  ,5
92  ,1.802e+08   ,2.4  ,-1.6116  ,5
93  ,2.039e+08   ,2.4  ,-1.4145  ,5
94  ,2.689e+08   ,2.4  ,-1.2175  ,5
95  ,3.726e+08   ,2.4  ,-1.0204  ,5
96  ,3.340e+08   ,2.4  ,-0.82327  ,5
97  ,2.150e+08   ,2.4  ,-0.62618  ,5
98  ,8.004e+07   ,2.4  ,-0.42909  ,5
99  ,1.067e+08   ,2.4  ,-0.232  ,5
100  ,7.596e+07   ,2.4  ,-0.034907  ,5
101  ,1.250e+08   ,2.4  ,0.16218  ,5
102  ,2.539e+08   ,2.4  ,0.35927  ,5
103  ,4.143e+08   ,2.4  ,0.55637  ,5
104  ,6.252e+08   ,2.4  ,0.75346  ,5
105  ,5.199e+08   ,2.4  ,0.95055  ,5
106  ,4.970e+08   ,2.4  ,1.1476  ,5
107  ,7.519e+08   ,2.4  ,1.3447  ,5
108  ,1.143e+09   ,2.4  ,1.5418  ,5
109  ,1.524e+09   ,2.4  ,1.7389  ,5
110  ,2.370e+09   ,2.4  ,1.936  ,5
111  ,3.352e+09   ,2.2665  ,2.2665  ,5
112  ,2.480e+09   ,1.936  ,2.4  ,5
113  ,1.430e+09   ,1.7389  ,2.4  ,5
114  ,1.041e+09   ,1.5418  ,2.4  ,5
115  ,6.655e+08   ,1.3447  ,2.4  ,5
116  ,5.287e+08   ,1.1476  ,2.4  ,5
117  ,4.456e+08   ,0.95055  ,2.4  ,5
118  ,5.950e+08   ,0.75346  ,2.4  ,5
119  ,4.498e+08   ,0.55637  ,2.4  ,5
120  ,2.978e+08   ,0.35927  ,2.4  ,5
121  ,1.722e+08   ,0.16218  ,2.4  ,5
122  ,1.102e+08   ,-0.034907  ,2.4  ,5
123  ,6.894e+07   ,-0.232  ,2.4  ,5
124  ,5.861e+07   ,-0.42909  ,2.4  ,5
125  ,1.406e+08   ,-0.62618  ,2.4  ,5
126  ,3.309e+08   ,-0.82327  ,2.4  ,5
127  ,3.380e+08   ,-1.0204  ,2.4  ,5
128  ,2.617e+08   ,-1.2175  ,2.4  ,5
129  ,2.081e+08   ,-1.4145  ,2.4  ,5
130  ,1.925e+08   ,-1.6116  ,2.4  ,5
131  ,1.584e+08   ,-1.8087  ,2.4  ,5
132  ,1.044e+08   ,-2.0058  ,2.4  ,5
133  ,4.924e+07   ,-2.2029  ,2.4  ,5
294  ,7.835e+07   ,2.5  ,-2.2029  ,4.9
295  ,1.267e+08   ,2.5  ,-2.0058  ,4.9
296  ,1.714e+08   ,2.5  ,-1.8087  ,4.9
297  ,1.909e+08   ,2.5  ,-1.6116  ,4.9
298  ,1.975e+08   ,2.5  ,-1.4145  ,4.9
299  ,2.602e+08   ,2.5  ,-1.2175  ,4.9
300  ,3.683e+08   ,2.5  ,-1.0204  ,4.9
301  ,3.746e+08   ,2.5  ,-0.82327  ,4.9
302  ,1.894e+08   ,2.5  ,-0.62618  ,4.9
303  ,8.058e+07   ,2.5  ,-0.42909  ,4.9
304  ,1.038e+08   ,2.5  ,-0.232  ,4.9
305  ,9.622e+07   ,2.5  ,-0.034907  ,4.9
306  ,1.759e+08   ,2.5  ,0.16218  ,4.9
307  ,2.252e+08   ,2.5  ,0.35927  ,4.9
308  ,3.532e+08   ,2.5  ,0.55637  ,4.9
309  ,6.093e+08   ,2.5  ,0.75346  ,4.9
310  ,5.178e+08   ,2.5  ,0.95055  ,4.9
311  ,6.508e+08   ,2.5  ,1.1476  ,4.9
312  ,7.622e+08   ,2.5  ,1.3447  ,4.9
313  ,1.114e+09   ,2.5  ,1.5418  ,4.9
314  ,1.711e+09   ,2.5  ,1.7389  ,4.9
315  ,2.555e+09   ,2.5  ,1.936  ,4.9
316  ,2.308e+07   ,2.5  ,-2.4  ,4.7
317  ,1.873e+07   ,2.5  ,-2.4  ,4.5
318  ,1.639e+07   ,2.5  ,-2.4  ,4.3
319  ,1.335e+07   ,2.5  ,-2.4  ,4.1
320  ,9.592e+06   ,2.5  ,-2.4  ,3.9
321  ,5.071e+06   ,2.5  ,-2.4  ,3.7
322  ,8.584e+06   ,2.5  ,-2.4  ,3.5
323  ,1.576e+07   ,2.5  ,-2.4  ,3.3
324  ,2.104e+07   ,2.5  ,-2.4  ,3.1
325  ,2.162e+07   ,2.5  ,-2.4  ,2.9
326  ,1.934e+07   ,2.5  ,-2.4  ,2.7
327  ,1.705e+07   ,2.5  ,-2.4  ,2.5
328  ,1.491e+07   ,2.5  ,-2.4  ,2.3
329  ,6.109e+06   ,2.5  ,-2.4  ,2.1
330  ,9.185e+06   ,2.5  ,-2.4  ,1.9
331  ,1.364e+07   ,2.5  ,-2.4  ,1.7
332  ,1.224e+07   ,2.5  ,-2.4  ,1.5
333  ,7.360e+06   ,2.5  ,-2.4  ,1.3
334  ,3.666e+06   ,2.5  ,-2.4  ,1.1
335  ,2.406e+06   ,2.5  ,-2.4  ,0.9
336  ,3.019e+06   ,2.5  ,-2.4  ,0.7
337  ,3.385e+06   ,2.5  ,-2.4  ,0.5
338  ,3.037e+06   ,2.5  ,-2.4  ,0.3
339  ,2.084e+06   ,2.5  ,-2.2  ,0.1
340  ,2.498e+06   ,2.5  ,-2  ,0.1
341  ,7.074e+06   ,2.5  ,-1.8  ,0.1
342  ,3.185e+06   ,2.5  ,-1.6  ,0.1
343  ,7.682e+06   ,2.5  ,-1.4  ,0.1
344  ,1.847e+07   ,2.5  ,-1.2  ,0.1
345  ,6.074e+06   ,2.5  ,-1  ,0.1
346  ,1.349e+07   ,2.5  ,-0.8  ,0.1
347  ,1.771e+07   ,2.5  ,-0.6  ,0.1
348  ,1.921e+07   ,2.5  ,-0.4  ,0.1
349  ,1.311e+07   ,2.5  ,-0.2  ,0.1
350  ,2.093e+07   ,2.5  ,-1.7664E-15  ,0.1
351  ,1.726e+07   ,2.5  ,0.2  ,0.1
352  ,2.108e+07   ,2.5  ,0.4  ,0.1
353  ,2.287e+07   ,2.5  ,0.6  ,0.1
354  ,2.361e+07   ,2.5  ,0.8  ,0.1
355  ,2.163e+07   ,2.5  ,1  ,0.1
356  ,2.263e+07   ,2.5  ,1.2  ,0.1
357  ,2.464e+07   ,2.5  ,1.4  ,0.1
358  ,2.877e+07   ,2.5  ,1.6  ,0.1
359  ,1.985e+07   ,2.5  ,1.8  ,0.1
360  ,1.943e+07   ,2.5  ,2  ,0.1
361  ,2.078e+07   ,2.5  ,2.2  ,0.1
362  ,2.488e+09   ,2.5  ,2.4  ,4.436
363  ,1.578e+09   ,2.5  ,2.4  ,4.2389
364  ,9.919e+08   ,2.5  ,2.4  ,4.0418
365  ,7.780e+08   ,2.5  ,2.4  ,3.8447
366  ,5.397e+08   ,2.5  ,2.4  ,3.6476
367  ,4.751e+08   ,2.5  ,2.4  ,3.4505
368  ,6.278e+08   ,2.5  ,2.4  ,3.2535
369  ,4.790e+08   ,2.5  ,2.4  ,3.0564
370  ,2.773e+08   ,2.5  ,2.4  ,2.8593
371  ,1.922e+08   ,2.5  ,2.4  ,2.6622
372  ,1.009e+08   ,2.5  ,2.4  ,2.4651
373  ,4.627e+07   ,2.5  ,2.4  ,2.268
374  ,5.451e+07   ,2.5  ,2.4  ,2.0709
375  ,1.261e+08   ,2.5  ,2.4  ,1.8738
376  ,3.106e+08   ,2.5  ,2.4  ,1.6767
377  ,3.147e+08   ,2.5  ,2.4  ,1.4796
378  ,2.706e+08   ,2.5  ,2.4  ,1.2825
379  ,2.310e+08   ,2.5  ,2.4  ,1.0855
380  ,2.027e+08   ,2.5  ,2.4  ,0.88836
381  ,1.602e+08   ,2.5  ,2.4  ,0.69127
382  ,1.015e+08   ,2.5  ,2.4  ,0.49418
383  ,4.538e+07   ,2.5  ,2.4  ,0.29709
384  ,3.443e+09   ,2.5  ,2.2665  ,4.7665
544  ,1.926e+07   ,2.2  ,2.5  ,0.1
545  ,2.362e+07   ,2  ,2.5  ,0.1
546  ,1.901e+07   ,1.8  ,2.5  ,0.1
547  ,1.527e+07   ,1.6  ,2.5  ,0.1
548  ,1.207e+07   ,1.4  ,2.5  ,0.1
549  ,1.094e+07   ,1.2  ,2.5  ,0.1
550  ,1.710e+07   ,1  ,2.5  ,0.1
551  ,3.939e+07   ,0.8  ,2.5  ,0.1
552  ,3.362e+07   ,0.6  ,2.5  ,0.1
553  ,1.636e+07   ,0.4  ,2.5  ,0.1
554  ,1.547e+07   ,0.2  ,2.5  ,0.1
555  ,1.173e+07   ,5.8879E-16  ,2.5  ,0.1
556  ,2.439e+07   ,-0.2  ,2.5  ,0.1
557  ,2.518e+07   ,-0.4  ,2.5  ,0.1
558  ,1.820e+07   ,-0.6  ,2.5  ,0.1
559  ,3.697e+07   ,-0.8  ,2.5  ,0.1
560  ,1.617e+07   ,-1  ,2.5  ,0.1
561  ,1.530e+07   ,-1.2  ,2.5  ,0.1
562  ,1.284e+07   ,-1.4  ,2.5  ,0.1
563  ,8.807e+06   ,-1.6  ,2.5  ,0.1
564  ,5.231e+06   ,-1.8  ,2.5  ,0.1
565  ,6.153e+06   ,-2  ,2.5  ,0.1
566  ,9.833e+06   ,-2.2  ,2.5  ,0.1
567  ,2.498e+07   ,-2.4  ,2.5  ,4.7
568  ,2.317e+07   ,-2.4  ,2.5  ,4.5
569  ,1.619e+07   ,-2.4  ,2.5  ,4.3
570  ,1.236e+07   ,-2.4  ,2.5  ,4.1
571  ,1.797e+07   ,-2.4  ,2.5  ,3.9
572  ,2.037e+07   ,-2.4  ,2.5  ,3.7
573  ,2.123e+07   ,-2.4  ,2.5  ,3.5
574  ,1.927e+07   ,-2.4  ,2.5  ,3.3
575  ,1.904e+07   ,-2.4  ,2.5  ,3.1
576  ,1.423e+07   ,-2.4  ,2.5  ,2.9
577  ,1.414e+07   ,-2.4  ,2.5  ,2.7
578  ,2.080e+07   ,-2.4  ,2.5  ,2.5
579  ,1.658e+07   ,-2.4  ,2.5  ,2.3
580  ,1.165e+07   ,-2.4  ,2.5  ,2.1
581  ,9.786e+06   ,-2.4  ,2.5  ,1.9
582  ,2.137e+07   ,-2.4  ,2.5  ,1.7
583  ,1.015e+07   ,-2.4  ,2.5  ,1.5
584  ,8.128e+06   ,-2.4  ,2.5  ,1.3
585  ,7.449e+06   ,-2.4  ,2.5  ,1.1
586  ,5.094e+06   ,-2.4  ,2.5  ,0.9
587  ,6.019e+06   ,-2.4  ,2.5  ,0.7
588  ,9.367e+06   ,-2.4  ,2.5  ,0.5
589  ,1.097e+07   ,-2.4  ,2.5  ,0.3
590  ,2.667e+09   ,1.936  ,2.5  ,4.9
591  ,1.374e+09   ,1.7389  ,2.5  ,4.9
592  ,9.132e+08   ,1.5418  ,2.5  ,4.9
593  ,6.852e+08   ,1.3447  ,2.5  ,4.9
594  ,4.964e+08   ,1.1476  ,2.5  ,4.9
595  ,4.936e+08   ,0.95055  ,2.5  ,4.9
596  ,6.319e+08   ,0.75346  ,2.5  ,4.9
597  ,4.852e+08   ,0.55637  ,2.5  ,4.9
598  ,3.154e+08   ,0.35927  ,2.5  ,4.9
599  ,1.493e+08   ,0.16218  ,2.5  ,4.9
600  ,7.667e+07   ,-0.034907  ,2.5  ,4.9
601  ,6.945e+07   ,-0.232  ,2.5  ,4.9
602  ,7.462e+07   ,-0.42909  ,2.5  ,4.9
603  ,1.059e+08   ,-0.62618  ,2.5  ,4.9
604  ,3.415e+08   ,-0.82327  ,2.5  ,4.9
605  ,3.370e+08   ,-1.0204  ,2.5  ,4.9
606  ,2.579e+08   ,-1.2175  ,2.5  ,4.9
607  ,1.979e+08   ,-1.4145  ,2.5  ,4.9
608  ,1.870e+08   ,-1.6116  ,2.5  ,4.9
609  ,1.567e+08   ,-1.8087  ,2.5  ,4.9
610  ,1.033e+08   ,-2.0058  ,2.5  ,4.9
611  ,4.743e+07   ,-2.2029  ,2.5  ,4.9
612  ,3.354e+09   ,2.2665  ,2.5  ,4.7665
613  ,2.400e+09   ,2.4  ,2.5  ,4.436
614  ,1.464e+09   ,2.4  ,2.5  ,4.2389
615  ,1.015e+09   ,2.4  ,2.5  ,4.0418
616  ,6.581e+08   ,2.4  ,2.5  ,3.8447
617  ,5.485e+08   ,2.4  ,2.5  ,3.6476
618  ,4.889e+08   ,2.4  ,2.5  ,3.4505
619  ,5.977e+08   ,2.4  ,2.5  ,3.2535
620  ,4.628e+08   ,2.4  ,2.5  ,3.0564
621  ,3.056e+08   ,2.4  ,2.5  ,2.8593
622  ,1.990e+08   ,2.4  ,2.5  ,2.6622
623  ,8.735e+07   ,2.4  ,2.5  ,2.4651
624  ,1.753e+07   ,2.4  ,2.5  ,2.268
625  ,4.935e+07   ,2.4  ,2.5  ,2.0709
626  ,1.494e+08   ,2.4  ,2.5  ,1.8738
627  ,2.965e+08   ,2.4  ,2.5  ,1.6767
628  ,3.158e+08   ,2.4  ,2.5  ,1.4796
629  ,2.639e+08   ,2.4  ,2.5  ,1.2825
630  ,2.226e+08   ,2.4  ,2.5  ,1.0855
631  ,1.998e+08   ,2.4  ,2.5  ,0.88836
632  ,1.560e+08   ,2.4  ,2.5  ,0.69127
633  ,9.930e+07   ,2.4  ,2.5  ,0.49418
634  ,4.944e+07   ,2.4  ,2.5  ,0.29709
796  ,3.932e+06   ,-2.5  ,2.2  ,0.1
797  ,2.803e+06   ,-2.5  ,2  ,0.1
798  ,1.886e+06   ,-2.5  ,1.8  ,0.1
799  ,1.154e+06   ,-2.5  ,1.6  ,0.1
800  ,1.844e+06   ,-2.5  ,1.4  ,0.1
801  ,2.335e+06   ,-2.5  ,1.2  ,0.1
802  ,1.623e+06   ,-2.5  ,1  ,0.1
803  ,1.538e+06   ,-2.5  ,0.8  ,0.1
804  ,6.584e+05   ,-2.5  ,0.6  ,0.1
805  ,6.677e+05   ,-2.5  ,0.4  ,0.1
806  ,8.806e+05   ,-2.5  ,0.2  ,0.1
807  ,5.172e+05   ,-2.5  ,5.8879E-16  ,0.1
808  ,7.387e+05   ,-2.5  ,-0.2  ,0.1
809  ,1.310e+06   ,-2.5  ,-0.4  ,0.1
810  ,4.992e+05   ,-2.5  ,-0.6  ,0.1
811  ,4.177e+05   ,-2.5  ,-0.8  ,0.1
812  ,4.948e+05   ,-2.5  ,-1  ,0.1
813  ,9.741e+04   ,-2.5  ,-1.2  ,0.1
814  ,2.450e+05   ,-2.5  ,-1.4  ,0.1
815  ,1.578e+05   ,-2.5  ,-1.6  ,0.1
816  ,1.094e+05   ,-2.5  ,-1.8  ,0.1
817  ,3.197e+04   ,-2.5  ,-2  ,0.1
818  ,1.919e+04   ,-2.5  ,-2.2  ,0.1
819  ,6.612e+05   ,-2.5  ,-2.4  ,4.7
820  ,7.012e+05   ,-2.5  ,-2.4  ,4.5
821  ,5.444e+05   ,-2.5  ,-2.4  ,4.3
822  ,4.260e+05   ,-2.5  ,-2.4  ,4.1
823  ,6.161e+05   ,-2.5  ,-2.4  ,3.9
824  ,5.502e+05   ,-2.5  ,-2.4  ,3.7
825  ,3.920e+05   ,-2.5  ,-2.4  ,3.5
826  ,1.956e+05   ,-2.5  ,-2.4  ,3.3
827  ,1.002e+05   ,-2.5  ,-2.4  ,3.1
828  ,4.770e+04   ,-2.5  ,-2.4  ,2.9
829  ,3.337e+04   ,-2.5  ,-2.4  ,2.7
830  ,5.661e+04   ,-2.5  ,-2.4  ,2.5
831  ,5.717e+04   ,-2.5  ,-2.4  ,2.3
832  ,4.109e+04   ,-2.5  ,-2.4  ,2.1
833  ,6.370e+04   ,-2.5  ,-2.4  ,1.9
834  ,9.435e+04   ,-2.5  ,-2.4  ,1.7
835  ,1.106e+05   ,-2.5  ,-2.4  ,1.5
836  ,9.694e+04   ,-2.5  ,-2.4  ,1.3
837  ,7.209e+04   ,-2.5  ,-2.4  ,1.1
838  ,3.271e+04   ,-2.5  ,-2.4  ,0.9
839  ,2.389e+04   ,-2.5  ,-2.4  ,0.7
840  ,2.912e+04   ,-2.5  ,-2.4  ,0.5
841  ,7.937e+03   ,-2.5  ,-2.4  ,0.3
842  ,2.521e+07   ,-2.5  ,2.2  ,4.9
843  ,9.313e+06   ,-2.5  ,2  ,4.9
844  ,4.702e+06   ,-2.5  ,1.8  ,4.9
845  ,5.397e+06   ,-2.5  ,1.6  ,4.9
846  ,6.373e+06   ,-2.5  ,1.4  ,4.9
847  ,7.803e+06   ,-2.5  ,1.2  ,4.9
848  ,9.774e+06   ,-2.5  ,1  ,4.9
849  ,1.235e+07   ,-2.5  ,0.8  ,4.9
850  ,1.559e+07   ,-2.5  ,0.6  ,4.9
851  ,9.885e+06   ,-2.5  ,0.4  ,4.9
852  ,9.003e+06   ,-2.5  ,0.2  ,4.9
853  ,8.904e+06   ,-2.5  ,5.8879E-16  ,4.9
854  ,1.331e+07   ,-2.5  ,-0.2  ,4.9
855  ,2.328e+07   ,-2.5  ,-0.4  ,4.9
856  ,1.534e+07   ,-2.5  ,-0.6  ,4.9
857  ,6.042e+06   ,-2.5  ,-0.8  ,4.9
858  ,4.308e+06   ,-2.5  ,-1  ,4.9
859  ,8.290e+06   ,-2.5  ,-1.2  ,4.9
860  ,3.017e+06   ,-2.5  ,-1.4  ,4.9
861  ,2.250e+06   ,-2.5  ,-1.6  ,4.9
862  ,3.239e+06   ,-2.5  ,-1.8  ,4.9
863  ,1.625e+06   ,-2.5  ,-2  ,4.9
864  ,1.041e+06   ,-2.5  ,-2.2  ,4.9
865  ,2.749e+07   ,-2.5  ,2.4  ,4.7
866  ,8.146e+06   ,-2.5  ,2.4  ,4.5
867  ,1.401e+07   ,-2.5  ,2.4  ,4.3
868  ,8.301e+06   ,-2.5  ,2.4  ,4.1
869  ,1.489e+07   ,-2.5  ,2.4  ,3.9
870  ,1.733e+07   ,-2.5  ,2.4  ,3.7
871  ,1.206e+07   ,-2.5  ,2.4  ,3.5
872  ,1.987e+07   ,-2.5  ,2.4  ,3.3
873  ,1.695e+07   ,-2.5  ,2.4  ,3.1
874  ,1.915e+07   ,-2.5  ,2.4  ,2.9
875  ,1.910e+07   ,-2.5  ,2.4  ,2.7
876  ,1.565e+07   ,-2.5  ,2.4  ,2.5
877  ,1.064e+07   ,-2.5  ,2.4  ,2.3
878  ,1.049e+07   ,-2.5  ,2.4  ,2.1
879  ,7.439e+06   ,-2.5  ,2.4  ,1.9
880  ,1.177e+07   ,-2.5  ,2.4  ,1.7
881  ,1.098e+07   ,-2.5  ,2.4  ,1.5
882  ,8.103e+06   ,-2.5  ,2.4  ,1.3
883  ,6.343e+06   ,-2.5  ,2.4  ,1.1
884  ,6.614e+06   ,-2.5  ,2.4  ,0.9
885  ,5.388e+06   ,-2.5  ,2.4  ,0.7
886  ,7.162e+06   ,-2.5  ,2.4  ,0.5
887  ,5.566e+06   ,-2.5  ,2.4  ,0.3
1044  ,1.756e+04   ,-2.3  ,-2.5  ,0.44697
1045  ,1.935e+04   ,-2.3  ,-2.5  ,0.68705
1046  ,2.818e+04   ,-2.3  ,-2.5  ,0.92554
1047  ,3.381e+04   ,-2.3  ,-2.5  ,1.1682
1048  ,3.947e+04   ,-2.3  ,-2.5  ,1.4148
1049  ,4.032e+04   ,-2.3  ,-2.5  ,1.6581
1050  ,3.819e+04   ,-2.3  ,-2.5  ,1.8967
1051  ,2.878e+04   ,-2.3  ,-2.5  ,2.1357
1052  ,2.850e+04   ,-2.3  ,-2.5  ,2.3794
1053  ,3.694e+04   ,-2.3  ,-2.5  ,2.6206
1054  ,3.152e+04   ,-2.3  ,-2.5  ,2.8643
1055  ,5.297e+04   ,-2.3  ,-2.5  ,3.1033
1056  ,1.529e+05   ,-2.3  ,-2.5  ,3.342
1057  ,2.315e+05   ,-2.3  ,-2.5  ,3.5852
1058  ,4.148e+05   ,-2.3  ,-2.5  ,3.8318
1059  ,4.699e+05   ,-2.3  ,-2.5  ,4.0745
1060  ,2.274e+05   ,-2.3  ,-2.5  ,4.3129
1061  ,9.616e+05   ,-2.3  ,-2.5  ,4.553
1062  ,2.300e+06   ,-2.053  ,-2.5  ,4.8
1063  ,3.465e+06   ,-1.8129  ,-2.5  ,4.8
1064  ,4.300e+06   ,-1.5745  ,-2.5  ,4.8
1065  ,3.089e+06   ,-1.3318  ,-2.5  ,4.8
1066  ,5.402e+06   ,-1.0852  ,-2.5  ,4.8
1067  ,1.007e+07   ,-0.84195  ,-2.5  ,4.8
1068  ,1.022e+07   ,-0.60329  ,-2.5  ,4.8
1069  ,5.236e+06   ,-0.3643  ,-2.5  ,4.8
1070  ,6.237e+06   ,-0.12055  ,-2.5  ,4.8
1071  ,7.394e+06   ,0.12056  ,-2.5  ,4.8
1072  ,1.146e+07   ,0.3643  ,-2.5  ,4.8
1073  ,1.594e+07   ,0.6033  ,-2.5  ,4.8
1074  ,1.550e+07   ,0.84195  ,-2.5  ,4.8
1075  ,1.010e+07   ,1.0852  ,-2.5  ,4.8
1076  ,1.216e+07   ,1.3318  ,-2.5  ,4.8
1077  ,1.647e+07   ,1.5745  ,-2.5  ,4.8
1078  ,2.674e+07   ,1.8129  ,-2.5  ,4.8
1079  ,2.106e+07   ,2.053  ,-2.5  ,4.8
1080  ,1.736e+07   ,2.3  ,-2.5  ,4.553
1081  ,1.888e+07   ,2.3  ,-2.5  ,4.3129
1082  ,1.198e+07   ,2.3  ,-2.5  ,4.0745
1083  ,9.496e+06   ,2.3  ,-2.5  ,3.8318
1084  ,8.179e+06   ,2.3  ,-2.5  ,3.5852
1085  ,1.490e+07   ,2.3  ,-2.5  ,3.3419
1086  ,1.487e+07   ,2.3  ,-2.5  ,3.1033
1087  ,1.254e+07   ,2.3  ,-2.5  ,2.8643
1088  ,9.409e+06   ,2.3  ,-2.5  ,2.6206
1089  ,6.085e+06   ,2.3  ,-2.5  ,2.3794
1090  ,7.811e+06   ,2.3  ,-2.5  ,2.1357
1091  ,1.217e+07   ,2.3  ,-2.5  ,1.8967
1092  ,1.062e+07   ,2.3  ,-2.5  ,1.658
1093  ,5.695e+06   ,2.3  ,-2.5  ,1.4148
1094  ,3.787e+06   ,2.3  ,-2.5  ,1.1682
1095  ,3.126e+06   ,2.3  ,-2.5  ,0.92554
1096  ,3.186e+06   ,2.3  ,-2.5  ,0.68705
1097  ,2.584e+06   ,2.3  ,-2.5  ,0.44697
1098  ,2.190e+04   ,-2.053  ,-2.5  ,0.2
1099  ,2.622e+04   ,-1.8129  ,-2.5  ,0.2
1100  ,8.970e+04   ,-1.5745  ,-2.5  ,0.2
1101  ,1.503e+05   ,-1.3318  ,-2.5  ,0.2
1102  ,2.473e+05   ,-1.0852  ,-2.5  ,0.2
1103  ,1.243e+05   ,-0.84195  ,-2.5  ,0.2
1104  ,3.318e+05   ,-0.60329  ,-2.5  ,0.2
1105  ,3.321e+05   ,-0.3643  ,-2.5  ,0.2
1106  ,2.923e+05   ,-0.12055  ,-2.5  ,0.2
1107  ,2.615e+05   ,0.12056  ,-2.5  ,0.2
1108  ,2.765e+05   ,0.3643  ,-2.5  ,0.2
1109  ,2.433e+05   ,0.6033  ,-2.5  ,0.2
1110  ,2.839e+05   ,0.84195  ,-2.5  ,0.2
1111  ,5.644e+05   ,1.0852  ,-2.5  ,0.2
1112  ,6.984e+05   ,1.3318  ,-2.5  ,0.2
1113  ,4.115e+05   ,1.5745  ,-2.5  ,0.2
1114  ,4.565e+05   ,1.8129  ,-2.5  ,0.2
1115  ,9.823e+05   ,2.053  ,-2.5  ,0.2
1116  ,8.228e+05   ,-2.2  ,-2.5  ,4.9
1117  ,2.540e+06   ,-2  ,-2.5  ,4.9
1118  ,2.712e+06   ,-1.8  ,-2.5  ,4.9
1119  ,2.946e+06   ,-1.6  ,-2.5  ,4.9
1120  ,3.279e+06   ,-1.4  ,-2.5  ,4.9
1121  ,5.100e+06   ,-1.2  ,-2.5  ,4.9
1122  ,8.619e+06   ,-1  ,-2.5  ,4.9
1123  ,9.410e+06   ,-0.8  ,-2.5  ,4.9
1124  ,6.097e+06   ,-0.6  ,-2.5  ,4.9
1125  ,6.945e+06   ,-0.4  ,-2.5  ,4.9
1126  ,1.154e+07   ,-0.2  ,-2.5  ,4.9
1127  ,1.392e+07   ,-1.7664E-15  ,-2.5  ,4.9
1128  ,1.296e+07   ,0.2  ,-2.5  ,4.9
1129  ,1.491e+07   ,0.4  ,-2.5  ,4.9
1130  ,1.178e+07   ,0.6  ,-2.5  ,4.9
1131  ,1.282e+07   ,0.8  ,-2.5  ,4.9
1132  ,7.763e+06   ,1  ,-2.5  ,4.9
1133  ,7.297e+06   ,1.2  ,-2.5  ,4.9
1134  ,1.404e+07   ,1.4  ,-2.5  ,4.9
1135  ,1.484e+07   ,1.6  ,-2.5  ,4.9
1136  ,1.470e+07   ,1.8  ,-2.5  ,4.9
1137  ,1.274e+07   ,2  ,-2.5  ,4.9
1138  ,1.459e+07   ,2.2  ,-2.5  ,4.9
1139  ,7.587e+05   ,-2.4  ,-2.5  ,4.7
1140  ,4.309e+05   ,-2.4  ,-2.5  ,4.5
1141  ,3.773e+05   ,-2.4  ,-2.5  ,4.3
1142  ,2.781e+05   ,-2.4  ,-2.5  ,4.1
1143  ,4.942e+05   ,-2.4  ,-2.5  ,3.9
1144  ,3.955e+05   ,-2.4  ,-2.5  ,3.7
1145  ,2.718e+05   ,-2.4  ,-2.5  ,3.5
1146  ,1.497e+05   ,-2.4  ,-2.5  ,3.3
1147  ,4.145e+04   ,-2.4  ,-2.5  ,3.1
1148  ,3.442e+04   ,-2.4  ,-2.5  ,2.9
1149  ,1.192e+04   ,-2.4  ,-2.5  ,2.7
1150  ,3.873e+04   ,-2.4  ,-2.5  ,2.5
1151  ,3.446e+04   ,-2.4  ,-2.5  ,2.3
1152  ,2.523e+04   ,-2.4  ,-2.5  ,2.1
1153  ,3.305e+04   ,-2.4  ,-2.5  ,1.9
1154  ,5.438e+04   ,-2.4  ,-2.5  ,1.7
1155  ,6.717e+04   ,-2.4  ,-2.5  ,1.5
1156  ,6.391e+04   ,-2.4  ,-2.5  ,1.3
1157  ,4.826e+04   ,-2.4  ,-2.5  ,1.1
1158  ,2.492e+04   ,-2.4  ,-2.5  ,0.9
1159  ,1.653e+04   ,-2.4  ,-2.5  ,0.7
1160  ,1.869e+04   ,-2.4  ,-2.5  ,0.5
1161  ,1.303e+04   ,-2.4  ,-2.5  ,0.3
1162  ,1.423e+04   ,-2.2  ,-2.5  ,0.1
1163  ,1.347e+04   ,-2  ,-2.5  ,0.1
1164  ,3.487e+04   ,-1.8  ,-2.5  ,0.1
1165  ,5.636e+04   ,-1.6  ,-2.5  ,0.1
1166  ,1.406e+05   ,-1.4  ,-2.5  ,0.1
1167  ,2.019e+05   ,-1.2  ,-2.5  ,0.1
1168  ,1.340e+05   ,-1  ,-2.5  ,0.1
1169  ,2.651e+05   ,-0.8  ,-2.5  ,0.1
1170  ,3.579e+05   ,-0.6  ,-2.5  ,0.1
1171  ,3.444e+05   ,-0.4  ,-2.5  ,0.1
1172  ,2.485e+05   ,-0.2  ,-2.5  ,0.1
1173  ,2.083e+05   ,-1.7664E-15  ,-2.5  ,0.1
1174  ,2.121e+05   ,0.2  ,-2.5  ,0.1
1175  ,2.773e+05   ,0.4  ,-2.5  ,0.1
1176  ,1.524e+05   ,0.6  ,-2.5  ,0.1
1177  ,2.271e+05   ,0.8  ,-2.5  ,0.1
1178  ,6.129e+05   ,1  ,-2.5  ,0.1
1179  ,7.494e+05   ,1.2  ,-2.5  ,0.1
1180  ,4.951e+05   ,1.4  ,-2.5  ,0.1
1181  ,2.195e+05   ,1.6  ,-2.5  ,0.1
1182  ,3.293e+05   ,1.8  ,-2.5  ,0.1
1183  ,2.842e+05   ,2  ,-2.5  ,0.1
1184  ,6.872e+05   ,2.2  ,-2.5  ,0.1
1185  ,1.106e+07   ,2.4  ,-2.5  ,4.7
1186  ,8.823e+06   ,2.4  ,-2.5  ,4.5
1187  ,1.167e+07   ,2.4  ,-2.5  ,4.3
1188  ,7.457e+06   ,2.4  ,-2.5  ,4.1
1189  ,8.461e+06   ,2.4  ,-2.5  ,3.9
1190  ,4.829e+06   ,2.4  ,-2.5  ,3.7
1191  ,8.616e+06   ,2.4  ,-2.5  ,3.5
1192  ,1.170e+07   ,2.4  ,-2.5  ,3.3
1193  ,1.282e+07   ,2.4  ,-2.5  ,3.1
1194  ,1.675e+07   ,2.4  ,-2.5  ,2.9
1195  ,1.359e+07   ,2.4  ,-2.5  ,2.7
1196  ,1.236e+07   ,2.4  ,-2.5  ,2.5
1197  ,1.001e+07   ,2.4  ,-2.5  ,2.3
1198  ,5.331e+06   ,2.4  ,-2.5  ,2.1
1199  ,8.439e+06   ,2.4  ,-2.5  ,1.9
1200  ,1.251e+07   ,2.4  ,-2.5  ,1.7
1201  ,9.017e+06   ,2.4  ,-2.5  ,1.5
1202  ,6.327e+06   ,2.4  ,-2.5  ,1.3
1203  ,3.507e+06   ,2.4  ,-2.5  ,1.1
1204  ,2.268e+06   ,2.4  ,-2.5  ,0.9
1205  ,1.973e+06   ,2.4  ,-2.5  ,0.7
1206  ,2.465e+06   ,2.4  ,-2.5  ,0.5
1207  ,8.689e+05   ,2.4  ,-2.5  ,0.3
1208  ,6.300e+05   ,2.4  ,-2.2  ,0
1209  ,1.864e+06   ,2.4  ,-2  ,0
1210  ,3.397e+06   ,2.4  ,-1.8  ,0
1211  ,4.323e+06   ,2.4  ,-1.6  ,0
1212  ,7.456e+06   ,2.4  ,-1.4  ,0
1213  ,1.176e+07   ,2.4  ,-1.2  ,0
1214  ,7.626e+06   ,2.4  ,-1  ,0
1215  ,1.359e+07   ,2.4  ,-0.8  ,0
1216  ,1.716e+07   ,2.4  ,-0.6  ,0
1217  ,1.487e+07   ,2.4  ,-0.4  ,0
1218  ,1.370e+07   ,2.4  ,-0.2  ,0
1219  ,1.310e+07   ,2.4  ,-1.7664E-15  ,0
1220  ,1.371e+07   ,2.4  ,0.2  ,0
1221  ,1.439e+07   ,2.4  ,0.4  ,0
1222  ,1.530e+07   ,2.4  ,0.6  ,0
1223  ,1.718e+07   ,2.4  ,0.8  ,0
1224  ,1.647e+07   ,2.4  ,1  ,0
1225  ,1.609e+07   ,2.4  ,1.2  ,0
1226  ,1.444e+07   ,2.4  ,1.4  ,0
1227  ,1.145e+07   ,2.4  ,1.6  ,0
1228  ,4.998e+06   ,2.4  ,1.8  ,0
1229  ,7.437e+06   ,2.4  ,2  ,0
1230  ,1.549e+07   ,2.4  ,2.2  ,0
1231  ,1.034e+04   ,-2.2  ,-2.4  ,0
1232  ,1.409e+04   ,-2  ,-2.4  ,0
1233  ,4.310e+04   ,-1.8  ,-2.4  ,0
1234  ,6.682e+04   ,-1.6  ,-2.4  ,0
1235  ,2.088e+05   ,-1.4  ,-2.4  ,0
1236  ,2.543e+05   ,-1.2  ,-2.4  ,0
1237  ,1.270e+05   ,-1  ,-2.4  ,0
1238  ,4.205e+05   ,-0.8  ,-2.4  ,0
1239  ,6.016e+05   ,-0.6  ,-2.4  ,0
1240  ,5.476e+05   ,-0.4  ,-2.4  ,0
1241  ,3.617e+05   ,-0.2  ,-2.4  ,0
1242  ,2.507e+05   ,5.8879E-16  ,-2.4  ,0
1243  ,3.046e+05   ,0.2  ,-2.4  ,0
1244  ,3.770e+05   ,0.4  ,-2.4  ,0
1245  ,1.946e+05   ,0.6  ,-2.4  ,0
1246  ,3.523e+05   ,0.8  ,-2.4  ,0
1247  ,8.966e+05   ,1  ,-2.4  ,0
1248  ,1.007e+06   ,1.2  ,-2.4  ,0
1249  ,6.108e+05   ,1.4  ,-2.4  ,0
1250  ,1.654e+05   ,1.6  ,-2.4  ,0
1251  ,5.400e+05   ,1.8  ,-2.4  ,0
1252  ,6.619e+05   ,2  ,-2.4  ,0
1253  ,6.086e+05   ,2.2  ,-2.4  ,0
1254  ,4.223e+06   ,-2.4  ,2.2  ,0
1255  ,3.717e+06   ,-2.4  ,2  ,0
1256  ,2.747e+06   ,-2.4  ,1.8  ,0
1257  ,1.348e+06   ,-2.4  ,1.6  ,0
1258  ,1.777e+06   ,-2.4  ,1.4  ,0
1259  ,2.522e+06   ,-2.4  ,1.2  ,0
1260  ,2.241e+06   ,-2.4  ,1  ,0
1261  ,1.978e+06   ,-2.4  ,0.8  ,0
1262  ,9.086e+05   ,-2.4  ,0.6  ,0
1263  ,1.133e+06   ,-2.4  ,0.4  ,0
1264  ,1.004e+06   ,-2.4  ,0.2  ,0
1265  ,5.275e+05   ,-2.4  ,5.8879E-16  ,0
1266  ,7.107e+05   ,-2.4  ,-0.2  ,0
1267  ,1.651e+06   ,-2.4  ,-0.4  ,0
1268  ,1.837e+05   ,-2.4  ,-0.6  ,0
1269  ,7.635e+05   ,-2.4  ,-0.8  ,0
1270  ,4.904e+05   ,-2.4  ,-1  ,0
1271  ,1.465e+05   ,-2.4  ,-1.2  ,0
1272  ,3.241e+05   ,-2.4  ,-1.4  ,0
1273  ,8.000e+04   ,-2.4  ,-1.6  ,0
1274  ,1.294e+05   ,-2.4  ,-1.8  ,0
1275  ,2.475e+04   ,-2.4  ,-2  ,0
1276  ,2.893e+04   ,-2.4  ,-2.2  ,0
1277  ,2.329e+07   ,2.2  ,2.4  ,0
1278  ,1.863e+07   ,2  ,2.4  ,0
1279  ,1.848e+07   ,1.8  ,2.4  ,0
1280  ,1.163e+07   ,1.6  ,2.4  ,0
1281  ,9.992e+06   ,1.4  ,2.4  ,0
1282  ,1.659e+07   ,1.2  ,2.4  ,0
1283  ,2.329e+07   ,1  ,2.4  ,0
1284  ,2.134e+07   ,0.8  ,2.4  ,0
1285  ,1.514e+07   ,0.6  ,2.4  ,0
1286  ,9.577e+06   ,0.4  ,2.4  ,0
1287  ,9.787e+06   ,0.2  ,2.4  ,0
1288  ,7.332e+06   ,5.8879E-16  ,2.4  ,0
1289  ,1.101e+07   ,-0.2  ,2.4  ,0
1290  ,2.487e+07   ,-0.4  ,2.4  ,0
1291  ,2.504e+07   ,-0.6  ,2.4  ,0
1292  ,2.021e+07   ,-0.8  ,2.4  ,0
1293  ,2.068e+07   ,-1  ,2.4  ,0
1294  ,1.213e+07   ,-1.2  ,2.4  ,0
1295  ,1.013e+07   ,-1.4  ,2.4  ,0
1296  ,5.927e+06   ,-1.6  ,2.4  ,0
1297  ,4.133e+06   ,-1.8  ,2.4  ,0
1298  ,6.029e+06   ,-2  ,2.4  ,0
1299  ,6.448e+06   ,-2.2  ,2.4  ,0
1460  ,4.444e+09   ,2.3243  ,2.3243  ,4.9577
1461  ,4.171e+09   ,2.4577  ,2.3243  ,4.8243
1462  ,3.379e+09   ,2.3243  ,2.4577  ,4.8243
1463  ,2.205e+06   ,-2.3  ,-2.1759  ,4.8
1464  ,3.274e+06   ,-2.3  ,-1.7631  ,4.8
1465  ,7.405e+06   ,-2.3  ,-1.1827  ,4.8
1466  ,1.355e+07   ,-2.3  ,-0.34986  ,4.8
1467  ,1.980e+07   ,-2.3  ,0.80545  ,4.8
1468  ,2.517e+08   ,-0.81337  ,2.3  ,4.8
1469  ,7.516e+08   ,0.67326  ,2.3  ,4.8
1470  ,6.571e+07   ,2.3  ,-2.1824  ,4.8
1471  ,1.372e+08   ,2.3  ,-1.7784  ,4.8
1472  ,2.971e+08   ,2.3  ,-1.2138  ,4.8
1473  ,2.018e+08   ,2.3  ,-0.40752  ,4.8
1474  ,7.644e+08   ,2.3  ,0.70532  ,4.8
1516  ,2.550e+08   ,2.3  ,2.3  ,1.6866
1517  ,7.399e+08   ,2.3  ,2.3  ,3.1733
1518  ,2.418e+06   ,2.3  ,-2.1759  ,0.2
1519  ,3.479e+06   ,2.3  ,-1.7631  ,0.2
1520  ,6.801e+06   ,2.3  ,-1.1827  ,0.2
1521  ,1.502e+07   ,2.3  ,-0.34986  ,0.2
1522  ,8.683e+06   ,2.3  ,0.80545  ,0.2
1564  ,1.214e+07   ,-0.76667  ,2.3  ,0.2
1565  ,2.605e+07   ,0.76667  ,2.3  ,0.2
1566  ,6.018e+06   ,-2.3  ,2.3  ,1.7333
1567  ,1.373e+07   ,-2.3  ,2.3  ,3.2667
1574  ,1.258e+04   ,-2.3  ,-2.1759  ,0.2
1575  ,1.022e+05   ,-2.3  ,-1.7631  ,0.2
1576  ,2.540e+05   ,-2.3  ,-1.1827  ,0.2
1577  ,5.080e+05   ,-2.3  ,-0.34986  ,0.2
1578  ,3.428e+06   ,-2.3  ,0.80545  ,0.2
1777  ,7.418e+07   ,-0.52764  ,2.5  ,4.9
1801  ,3.331e+06   ,-2.3  ,1.5527  ,0.2
1825  ,6.057e+06   ,-1.5333  ,2.3  ,0.2
1841  ,1.132e+08   ,0.063638  ,2.5  ,4.9
1876  ,2.716e+07   ,-0.5  ,2.4  ,0
1894  ,2.343e+07   ,2.3  ,1.5527  ,0.2
1907  ,2.268e+07   ,2.1  ,2.5  ,0.1
1928  ,1.693e+07   ,1.9  ,2.4  ,0
1974  ,1.580e+07   ,2.4  ,1.1  ,0
1981  ,1.335e+08   ,2.4  ,2.5  ,0.59273
1987  ,1.354e+07   ,-2.5  ,2.4  ,4
2004  ,2.606e+07   ,-2.4  ,2.5  ,4.6
2009  ,1.583e+07   ,2.4  ,1.3  ,0
2020  ,1.721e+07   ,2.5  ,1.1  ,0.1
2035  ,3.879e+05   ,-2.3  ,-0.76628  ,0.2
2070  ,1.249e+09   ,1.6404  ,2.4  ,5
2081  ,8.998e+07   ,2.4  ,2.5  ,1.9724
2095  ,1.797e+08   ,2.4  ,2.5  ,0.78982
2138  ,2.753e+05   ,-2.4  ,-0.1  ,0
2146  ,3.410e+08   ,-0.92182  ,2.4  ,5
2174  ,2.405e+08   ,2.4  ,2.5  ,1.184
2190  ,2.167e+08   ,2.5  ,2.4  ,0.98691
2203  ,1.037e+08   ,2.5  ,-0.13345  ,4.9
2232  ,4.658e+08   ,2.3  ,0.1489  ,4.8
2242  ,3.826e+08   ,2.4  ,2.5  ,2.9578
2293  ,5.263e+05   ,-2.5  ,0.5  ,0.1
2311  ,4.380e+08   ,2.3  ,2.3  ,2.4299
2313  ,1.845e+08   ,2.5  ,2.4  ,0.78982
2329  ,2.324e+07   ,2.4  ,2.5  ,2.1695
2355  ,1.981e+07   ,-2.4  ,2.5  ,4.4
2380  ,2.430e+05   ,-2.5  ,-1.5  ,0.1
2383  ,3.814e+08   ,0.45782  ,2.5  ,4.9
2408  ,2.620e+08   ,2.3  ,-1.4961  ,4.8
2445  ,1.941e+08   ,2.5  ,-1.5131  ,4.9
2484  ,1.054e+05   ,-2.5  ,-2.4  ,1.6
2495  ,1.648e+07   ,-2.4  ,1.7  ,5
2508  ,1.259e+07   ,2.4  ,0.3  ,0
2514  ,1.747e+07   ,2.3  ,0.2278  ,0.2
2570  ,1.505e+07   ,-2.4  ,1.5  ,5
2580  ,1.229e+09   ,1.6404  ,2.5  ,4.9
2603  ,3.060e+08   ,-1.1189  ,2.5  ,4.9
2695  ,1.927e+08   ,2.3  ,2.3  ,0.94331
2705  ,2.927e+08   ,2.4  ,2.5  ,1.3811
2714  ,2.810e+08   ,2.5  ,0.45782  ,4.9
2734  ,1.033e+07   ,2.4  ,-0.9  ,0
2775  ,1.735e+07   ,2.5  ,-0.1  ,0.1
2779  ,1.389e+07   ,2.4  ,-0.1  ,0
2801  ,1.663e+09   ,1.4166  ,2.3  ,4.8
2814  ,7.714e+08   ,1.4433  ,2.5  ,4.9
2863  ,7.737e+06   ,-2.4  ,2.5  ,0.6
2884  ,5.340e+06   ,-2.4  ,2.5  ,0.8
2886  ,8.074e+06   ,-2.4  ,2.5  ,1.2
2967  ,8.048e+06   ,2.4  ,1.7  ,0
2973  ,2.468e+07   ,2.5  ,1.5  ,0.1
2987  ,2.283e+07   ,-0.3  ,2.5  ,0.1
3008  ,8.368e+06   ,-2.3  ,2.3  ,0.96667
3012  ,1.680e+07   ,-2.5  ,2.4  ,2.6
3021  ,1.655e+07   ,-2.5  ,2.4  ,2.8
3025  ,1.327e+07   ,-2.5  ,2.4  ,2.4
3030  ,1.914e+07   ,-2.4  ,2.5  ,2.4
3033  ,1.428e+07   ,-2.4  ,2.5  ,2.2
3047  ,5.684e+07   ,2.4  ,2.5  ,2.3665
3052  ,1.435e+08   ,2.5  ,2.4  ,2.5636
3061  ,1.237e+08   ,2.4  ,2.5  ,2.5636
3081  ,1.289e+07   ,-2.4  ,1.3  ,5
3088  ,1.349e+08   ,-1.9073  ,2.4  ,5
3099  ,1.935e+07   ,-2.4  ,1.9  ,5
3107  ,1.920e+07   ,-2.4  ,2.5  ,3.8
3139  ,1.996e+08   ,-1.5131  ,2.4  ,5
3145  ,1.919e+08   ,-1.5131  ,2.5  ,4.9
3148  ,1.751e+08   ,-1.7102  ,2.5  ,4.9
3168  ,1.332e+06   ,-2.4  ,1.5  ,0
3188  ,5.242e+04   ,-2.5  ,-2.4  ,1
3202  ,2.215e+08   ,0.26073  ,2.5  ,4.9
3212  ,1.273e+09   ,2.5  ,1.6404  ,4.9
3247  ,2.091e+09   ,2.5  ,1.8375  ,4.9
3265  ,1.779e+09   ,2.3  ,1.4326  ,4.8
3271  ,3.334e+09   ,2.2299  ,2.2299  ,4.8
3284  ,9.364e+08   ,2.4  ,1.4433  ,5
3291  ,8.617e+08   ,2.5  ,1.4433  ,4.9
3296  ,9.874e+06   ,-2.3  ,-0.76628  ,4.8
3303  ,5.487e+06   ,-2.4  ,-0.9  ,5
3311  ,1.232e+07   ,-2.4  ,-0.7  ,5
3315  ,2.185e+07   ,1.9  ,2.5  ,0.1
3336  ,1.036e+06   ,-2.4  ,0.3  ,0
3340  ,6.779e+05   ,-2.5  ,0.1  ,0.1
3344  ,7.416e+05   ,-2.4  ,0.1  ,0
3356  ,1.760e+07   ,-0.3  ,2.4  ,0
3361  ,6.218e+07   ,-0.33054  ,2.5  ,4.9
3364  ,5.590e+07   ,-0.13345  ,2.5  ,4.9
3383  ,5.019e+08   ,2.4  ,2.5  ,3.5491
3402  ,2.986e+09   ,2.4  ,2.5  ,4.5345
3421  ,2.187e+08   ,-1.316  ,2.5  ,4.9
3439  ,7.721e+08   ,2.5  ,2.4  ,3.9433
3447  ,8.807e+08   ,2.4  ,2.5  ,3.9433
3451  ,5.679e+08   ,2.4  ,2.5  ,3.7462
3468  ,7.333e+08   ,1.4433  ,2.4  ,5
3480  ,4.761e+08   ,1.0491  ,2.4  ,5
3519  ,6.504e+06   ,1.5  ,2.4  ,0
3527  ,5.616e+06   ,2.3  ,-1.4729  ,0.2
3550  ,4.411e+06   ,-1.7  ,2.4  ,0
3554  ,6.806e+06   ,-1.7  ,2.5  ,0.1
3558  ,8.587e+06   ,-1.5  ,2.4  ,0
3562  ,1.134e+07   ,-1.5  ,2.5  ,0.1
3574  ,2.440e+07   ,-2.4  ,2.1  ,5
3581  ,1.363e+06   ,-2.5  ,1.7  ,0.1
3583  ,2.496e+06   ,-2.5  ,1.9  ,0.1
3584  ,1.336e+08   ,-1.9073  ,2.5  ,4.9
3591  ,1.587e+07   ,2.5  ,0.3  ,0.1
3595  ,1.802e+07   ,2.5  ,0.1  ,0.1
3603  ,6.558e+09   ,2.4577  ,2.391  ,4.7576
3663  ,9.697e+03   ,-1.933  ,-2.5  ,0.2
3669  ,1.151e+04   ,-2.1765  ,-2.5  ,0.2
3672  ,1.690e+04   ,-2.3  ,-2.3379  ,0.2
3682  ,1.739e+04   ,-1.9  ,-2.4  ,0
3700  ,1.059e+07   ,2.3  ,-2.5  ,2.7424
3712  ,1.514e+06   ,-2.1  ,-2.5  ,4.9
3715  ,2.712e+06   ,-1.9  ,-2.5  ,4.9
3740  ,5.335e+06   ,-1.3  ,-2.4  ,5
3746  ,2.811e+06   ,-1.2085  ,-2.5  ,4.8
3755  ,4.111e+06   ,-1.5  ,-2.4  ,5
3760  ,3.001e+06   ,-1.7  ,-2.5  ,4.9
3786  ,3.226e+08   ,2.4  ,2.5  ,1.5782
3813  ,2.393e+08   ,0.26073  ,2.4  ,5
3858  ,1.063e+07   ,-0.9  ,-2.4  ,5
3863  ,1.054e+07   ,-2.5  ,0.9  ,4.9
3875  ,3.401e+06   ,-1.9  ,-2.4  ,5
3885  ,2.903e+08   ,2.4  ,-0.72473  ,5
3910  ,2.458e+05   ,-2.4  ,-2.5  ,3.4
3959  ,1.250e+09   ,2.5  ,2.4  ,4.1404
3969  ,5.508e+08   ,2.5  ,1.0491  ,4.9
3992  ,7.564e+09   ,2.391  ,2.2576  ,4.9577
3993  ,6.524e+09   ,2.4577  ,2.2576  ,4.891
4016  ,3.539e+07   ,-2.3015  ,2.5  ,4.9
4018  ,2.372e+07   ,-2.4  ,2.5  ,4.8
4021  ,5.980e+08   ,1.2462  ,2.4  ,5
4042  ,8.692e+06   ,2.4  ,-1.1  ,0
4046  ,2.202e+07   ,-0.9  ,2.4  ,0
4055  ,1.587e+07   ,1.7  ,-2.5  ,4.9
4087  ,1.763e+07   ,1.7  ,2.4  ,0
4114  ,9.276e+07   ,2.5  ,-0.33054  ,4.9
4120  ,1.339e+07   ,2.4  ,-2.5  ,1.8
4125  ,2.110e+08   ,2.4  ,2.5  ,0.98691
4144  ,1.863e+09   ,2.4  ,2.5  ,4.3375
4161  ,1.309e+07   ,-2.4  ,0.3  ,5
4201  ,4.960e+05   ,1.933  ,-2.5  ,0.2
4225  ,6.921e+03   ,-2.3  ,-2.4  ,0
4230  ,1.797e+04   ,-2.3  ,-2.5  ,0.56701
4269  ,1.024e+07   ,-0.9  ,-2.5  ,4.9
4277  ,7.808e+06   ,-1.1  ,-2.4  ,5
4288  ,4.219e+08   ,-0.070055  ,2.3  ,4.8
4328  ,4.614e+05   ,-2.5  ,-2.4  ,4.2
4336  ,6.232e+05   ,-2.5  ,-2.4  ,4.4
4342  ,7.222e+05   ,-2.5  ,-2.4  ,4.6
4348  ,6.418e+05   ,-2.4  ,-2.4707  ,4.9707
4352  ,8.823e+05   ,-2.3  ,-2.5  ,4.9
4354  ,1.346e+06   ,-2.1765  ,-2.5  ,4.8
4355  ,1.136e+06   ,-2.3  ,-2.3379  ,4.8
4362  ,1.319e+08   ,2.5  ,2.4  ,0.59273
4364  ,1.612e+07   ,2.5  ,-2.4  ,2.4
4366  ,1.077e+07   ,2.5  ,-2.4  ,2.2
4372  ,9.322e+06   ,2.4  ,-2.5  ,2.2
4385  ,7.260e+04   ,-2.5  ,-1.9  ,0.1
4399  ,3.636e+06   ,-2.5  ,2.1  ,0.1
4407  ,4.837e+05   ,-0.7  ,-2.4  ,0
4436  ,3.932e+05   ,-2.5  ,-0.1  ,0.1
4462  ,1.938e+07   ,-2.3  ,2.3  ,4.0333
4491  ,7.993e+07   ,2.5  ,-0.52764  ,4.9
4494  ,8.958e+06   ,2.5  ,-2.4  ,1.4
4503  ,6.951e+06   ,2.4  ,-2.5  ,1.4
4508  ,5.545e+06   ,2.4  ,-2.5  ,1.2
4515  ,1.348e+07   ,2.5  ,-2.4  ,1.8
4517  ,1.101e+07   ,2.4  ,-2.5  ,1.6
4522  ,1.094e+05   ,0.7  ,-2.4  ,0
4538  ,3.147e+08   ,-1.1189  ,2.4  ,5
4546  ,1.203e+09   ,2.4  ,2.5  ,4.1404
4559  ,3.238e+05   ,1.7  ,-2.4  ,0
4590  ,3.073e+05   ,0.5  ,-2.4  ,0
4631  ,1.175e+07   ,2.4  ,-2.5  ,2.6
4634  ,2.034e+07   ,2.5  ,-2.4  ,2.8
4657  ,5.426e+04   ,-2.5  ,-2.4  ,2
4660  ,8.006e+04   ,-2.5  ,-2.4  ,1.8
4664  ,4.448e+05   ,-0.3  ,-2.4  ,0
4675  ,8.087e+05   ,-2.4  ,-2.5  ,4.8
4681  ,1.018e+06   ,-2.5  ,-0.3  ,0.1
4684  ,8.381e+06   ,1.7  ,-2.4  ,5
4703  ,1.919e+07   ,-2.4  ,0.7  ,5
4707  ,8.413e+06   ,-2.5  ,0.3  ,4.9
4714  ,8.103e+07   ,2.4  ,-0.33054  ,5
4723  ,1.935e+08   ,-1.5567  ,2.3  ,4.8
4739  ,7.118e+07   ,-2.1044  ,2.5  ,4.9
4763  ,4.337e+06   ,-1.9  ,2.4  ,0
4780  ,6.302e+04   ,-2.3  ,-1.9695  ,0.2
4782  ,4.273e+03   ,-2.4707  ,-2.4  ,0.029289
4784  ,7.451e+04   ,-2.4  ,-1.9  ,0
4791  ,4.662e+04   ,-2.4  ,-2.5  ,1.8
4796  ,1.131e+07   ,2.4707  ,-2.4707  ,4.9
4799  ,2.294e+07   ,2.5  ,-2.4  ,4.8
4806  ,8.989e+06   ,2.3  ,-2.5  ,4.9
4809  ,1.728e+09   ,2.3  ,2.3  ,3.9166
4833  ,9.717e+06   ,-2.4  ,2.5  ,0.4
4841  ,1.609e+07   ,-2.4  ,2.5  ,2.6
4846  ,1.454e+07   ,-2.5  ,2.1  ,4.9
4848  ,1.690e+07   ,-2.5  ,2.3  ,4.9
4849  ,2.079e+07   ,-2.5  ,2.4  ,4.8
4893  ,9.827e+06   ,-2.4  ,2.5  ,4.2
4897  ,3.075e+09   ,2.3333  ,2.1998  ,5
4900  ,6.300e+09   ,2.391  ,2.4577  ,4.7576
4908  ,6.288e+09   ,2.2576  ,2.391  ,4.9577
4911  ,6.350e+09   ,2.2576  ,2.4577  ,4.891
4926  ,6.337e+06   ,-2.5  ,2.4  ,1
4932  ,1.708e+07   ,-2.4  ,2.5  ,1.6
4937  ,1.477e+07   ,-1.1  ,2.5  ,0.1
4939  ,3.335e+09   ,2.3  ,2.2299  ,4.7299
4944  ,1.551e+08   ,2.5  ,-1.9073  ,4.9
4987  ,1.582e+07   ,-2.3  ,1.5527  ,4.8
5010  ,3.719e+09   ,2.4973  ,2.1331  ,4.923
5013  ,2.805e+09   ,2.5  ,2.0345  ,4.9
5017  ,3.049e+09   ,2.4  ,2.0345  ,5
5035  ,7.958e+05   ,1.3  ,-2.4  ,0
5038  ,4.620e+05   ,1.2085  ,-2.5  ,0.2
5092  ,6.092e+04   ,-2.4  ,-2.5  ,1.2
5123  ,3.230e+06   ,2.5  ,-2.4  ,0.6
5151  ,9.566e+05   ,-2.5  ,-0.5  ,0.1
5160  ,2.999e+05   ,-2.5  ,-0.7  ,0.1
5164  ,1.440e+07   ,-2.4  ,0.9  ,5
5168  ,1.351e+07   ,-2.4  ,0.5  ,5
5176  ,1.561e+07   ,2.5  ,-0.7  ,0.1
5179  ,1.608e+07   ,2.4  ,-0.5  ,0
5189  ,1.156e+07   ,2.4  ,-2.5  ,2.4
5194  ,6.258e+06   ,2.3  ,-2.5  ,2.2576
5198  ,1.766e+04   ,-2.3  ,-2.5  ,0.32348
5205  ,1.263e+04   ,-2.4  ,-2.5  ,0.2
5207  ,1.872e+04   ,-2.1  ,-2.5  ,0.1
5246  ,1.957e+07   ,-2.5  ,2.4  ,3.2
5257  ,7.661e+06   ,-2.5  ,1.5  ,4.9
5263  ,4.969e+05   ,-2.3  ,0.2278  ,0.2
5272  ,7.782e+05   ,-2.5  ,0.3  ,0.1
5275  ,1.194e+07   ,-2.5  ,0.5  ,4.9
5281  ,1.715e+09   ,1.8375  ,2.5  ,4.9
5297  ,2.924e+07   ,-0.9  ,2.5  ,0.1
5306  ,1.848e+07   ,-0.7  ,2.4  ,0
5309  ,1.970e+07   ,-0.5  ,2.5  ,0.1
5324  ,2.661e+08   ,2.4  ,2.5  ,2.7607
5332  ,2.700e+06   ,2.5  ,-2.4  ,0.8
5334  ,3.473e+06   ,2.4  ,-2.5  ,1
5360  ,1.815e+08   ,2.4  ,-1.7102  ,5
5362  ,1.865e+08   ,2.4  ,-1.5131  ,5
5368  ,1.804e+09   ,2.4  ,1.8375  ,5
5371  ,1.124e+10   ,2.4325  ,2.4888  ,4.6656
5372  ,3.092e+09   ,2.3333  ,2.5  ,4.6998
5376  ,2.688e+09   ,2.4707  ,2.4707  ,4.6331
5377  ,3.156e+09   ,2.5  ,2.4  ,4.5345
5379  ,4.267e+06   ,-1.5  ,-2.5  ,4.9
5406  ,2.988e+05   ,-2.5  ,-2.4  ,3.4
5420  ,1.000e+05   ,-2.3  ,-2.5  ,3.2226
5423  ,4.435e+05   ,1.5  ,-2.4  ,0
5502  ,1.089e+04   ,-2.5  ,-2.3  ,0.1
5504  ,4.152e+03   ,-2.5  ,-2.4  ,0.2
5506  ,1.524e+04   ,-2.4  ,-2.3  ,0
5511  ,1.734e+04   ,-2.5  ,-2.1  ,0.1
5513  ,1.033e+06   ,-2.4  ,0.5  ,0
5517  ,1.834e+05   ,-0.9  ,-2.5  ,0.1
5532  ,1.200e+07   ,-2.4707  ,2.4707  ,4.9
5534  ,1.452e+07   ,2.4  ,-0.7  ,0
5551  ,7.188e+06   ,2.5  ,-2.4  ,3.8
5566  ,2.959e+08   ,2.5  ,2.4  ,1.3811
5603  ,1.110e+07   ,2.4  ,-0.3  ,0
5617  ,7.849e+06   ,-2.1  ,2.5  ,0.1
5637  ,2.919e+06   ,-2.3  ,-1.9695  ,4.8
5641  ,1.291e+07   ,2.3  ,-2.5  ,3.4636
5645  ,3.076e+04   ,-2.4  ,-2.5  ,2
5649  ,3.178e+04   ,-2.4  ,-2.5  ,2.2
5659  ,3.897e+04   ,-2.3  ,-2.5  ,1.7774
5662  ,1.690e+07   ,2.1765  ,-2.5  ,4.8
5666  ,9.115e+06   ,2.4  ,-2.5  ,4.8
5669  ,3.274e+07   ,2.3  ,-2.3412  ,4.8
5695  ,1.187e+06   ,-2.4  ,0.7  ,0
5701  ,1.168e+07   ,-2.5  ,2.4  ,1.6
5715  ,1.636e+07   ,-2.4  ,2.5  ,1.8
5726  ,2.559e+07   ,-0.7  ,2.5  ,0.1
5727  ,1.497e+07   ,-1.1  ,2.4  ,0
5730  ,1.225e+07   ,2.3  ,-2.5  ,1.7774
5746  ,2.173e+08   ,2.5  ,2.4  ,1.7753
5755  ,1.882e+07   ,2.5  ,-2.4  ,4.4
5763  ,1.230e+07   ,2.4  ,-2.5  ,4.4
5773  ,4.480e+08   ,1.0491  ,2.5  ,4.9
5791  ,2.322e+08   ,-0.72473  ,2.4  ,5
5795  ,1.795e+09   ,1.8375  ,2.4  ,5
5803  ,1.339e+07   ,-0.3  ,-2.4  ,5
5810  ,1.224e+09   ,2.4  ,1.6404  ,5
5836  ,6.722e+06   ,-2.5  ,1.3  ,4.9
5860  ,1.213e+07   ,2.5  ,-2.4  ,1.6
5866  ,4.860e+05   ,1.5  ,-2.5  ,0.1
5884  ,2.298e+07   ,-2.4  ,-0.3  ,5
5888  ,2.060e+07   ,-2.5  ,-0.5  ,4.9
5901  ,6.628e+06   ,2.3  ,-2.5  ,2.5
5908  ,6.139e+06   ,2.5  ,-2.4  ,1.2
5909  ,7.364e+06   ,2.5  ,-2.4  ,2
5934  ,1.571e+07   ,1.9  ,-2.5  ,4.9
5938  ,2.625e+07   ,1.933  ,-2.5  ,4.8
5948  ,4.631e+05   ,-2.4  ,-2.5  ,4.6
5950  ,5.867e+05   ,-2.4707  ,-2.4707  ,4.9
5951  ,3.663e+05   ,-2.5  ,-2.4  ,4.8
5952  ,8.164e+05   ,-2.5  ,-2.3  ,4.9
5986  ,7.533e+06   ,2.3  ,-2.5  ,3.7085
5990  ,3.497e+08   ,-0.92182  ,2.5  ,4.9
6019  ,1.832e+07   ,2.5  ,1.9  ,0.1
6025  ,1.054e+07   ,2.4  ,-1.3  ,0
6035  ,8.091e+06   ,-2.5  ,1.9  ,4.9
6044  ,1.376e+07   ,0.1  ,2.5  ,0.1
6054  ,1.234e+07   ,2.4  ,0.1  ,0
6070  ,3.948e+06   ,-2.4  ,2.3  ,0
6071  ,5.418e+06   ,-2.3  ,2.4  ,0
6076  ,3.722e+06   ,-2.4  ,2.1  ,0
6083  ,5.077e+05   ,2.1  ,-2.4  ,0
6084  ,1.343e+07   ,2.4  ,2.3  ,0
6087  ,1.603e+07   ,2.3  ,2.4  ,0
6092  ,8.070e+03   ,-2.4  ,-2.5  ,0.4
6096  ,6.227e+03   ,-2.3  ,-2.5  ,0.1
6099  ,2.218e+05   ,0.7  ,-2.5  ,0.1
6149  ,7.259e+05   ,-2.4  ,-0.9  ,0
6159  ,4.492e+04   ,-2.5  ,-2.4  ,2.6
6183  ,6.109e+08   ,1.2462  ,2.5  ,4.9
6224  ,1.021e+07   ,2.5  ,-2.4  ,4
6228  ,5.460e+06   ,2.4  ,-2.5  ,3.8
6237  ,2.160e+07   ,2.5  ,0.7  ,0.1
6241  ,3.265e+09   ,2.5  ,2.3333  ,4.6998
6245  ,3.299e+08   ,2.5  ,2.4  ,1.5782
6259  ,9.804e+07   ,2.5  ,-2.1044  ,4.9
6265  ,9.099e+07   ,2.3  ,-1.9804  ,4.8
6267  ,5.169e+07   ,2.5  ,-2.3015  ,4.9
6268  ,2.498e+07   ,2.4707  ,-2.4  ,4.9707
6270  ,9.531e+07   ,2.4  ,-2.1044  ,5
6317  ,2.813e+07   ,-2.3  ,0.2278  ,4.8
6349  ,8.143e+07   ,-0.52764  ,2.4  ,5
6391  ,2.269e+08   ,2.4  ,2.5  ,1.7753
6440  ,1.577e+07   ,-2.5  ,2.4  ,3.8
6471  ,3.974e+08   ,2.5  ,-0.92182  ,4.9
6489  ,7.129e+08   ,2.5  ,1.2462  ,4.9
6523  ,1.734e+05   ,-1.1  ,-2.4  ,0
6528  ,1.697e+05   ,-1.1  ,-2.5  ,0.1
6535  ,2.508e+05   ,-0.9  ,-2.4  ,0
6538  ,1.367e+07   ,1.5  ,-2.4  ,5
6541  ,1.400e+07   ,1.5  ,-2.5  ,4.9
6551  ,3.048e+08   ,2.5  ,-0.72473  ,4.9
6564  ,3.778e+09   ,2.1331  ,2.4973  ,4.923
6565  ,2.897e+09   ,2.0345  ,2.5  ,4.9
6572  ,3.920e+06   ,2.4  ,-1.7  ,0
6581  ,1.039e+07   ,0  ,2.3  ,0.2
6592  ,2.898e+06   ,2.3  ,-1.9695  ,0.2
6594  ,1.107e+07   ,0.3  ,2.4  ,0
6601  ,2.820e+07   ,0.5  ,2.5  ,0.1
6605  ,2.939e+05   ,-2.4  ,-1.3  ,0
6606  ,1.759e+05   ,-2.4  ,-1.1  ,0
6615  ,1.398e+06   ,-2.4  ,-0.3  ,0
6634  ,1.734e+07   ,2.1  ,-2.5  ,4.9
6635  ,1.093e+07   ,2.4  ,-2.4707  ,4.9707
6636  ,2.080e+07   ,2.3  ,-2.4  ,5
6647  ,2.493e+05   ,0.5  ,-2.5  ,0.1
6704  ,2.220e+06   ,-2.4707  ,2.4707  ,0.1
6708  ,4.592e+06   ,-2.5  ,2.4  ,0.2
6712  ,2.082e+07   ,-2.4  ,2.5  ,3.6
6715  ,2.021e+07   ,-2.4  ,2.5  ,3.4
6728  ,1.422e+07   ,-2.5  ,0.7  ,4.9
6753  ,6.639e+07   ,-2.1044  ,2.4  ,5
6788  ,1.877e+09   ,2.5  ,2.4  ,4.3375
6791  ,3.282e+06   ,-1.933  ,-2.5  ,4.8
6795  ,2.728e+09   ,2.1998  ,2.5  ,4.8333
6837  ,3.025e+04   ,-2.3  ,-2.5  ,0.8063
6869  ,1.803e+08   ,2.5  ,-1.7102  ,4.9
6873  ,1.576e+08   ,2.4  ,-1.9073  ,5
6880  ,3.717e+08   ,2.4  ,-0.92182  ,5
6885  ,1.200e+08   ,2.4  ,-0.52764  ,5
6893  ,6.812e+08   ,2.4  ,1.2462  ,5
6914  ,3.627e+07   ,0.7  ,2.5  ,0.1
6920  ,2.652e+07   ,0.9  ,2.4  ,0
6923  ,1.726e+07   ,0.7  ,2.4  ,0
6936  ,1.375e+07   ,2.4  ,-2.5  ,3.4
6939  ,1.445e+07   ,2.3  ,-2.5  ,3.2226
6961  ,1.321e+07   ,-0.1  ,-2.5  ,4.9
6967  ,1.163e+06   ,-2.5  ,-1.5  ,4.9
6975  ,1.254e+07   ,-2.4  ,1.1  ,5
6978  ,7.469e+06   ,-2.4  ,2.5  ,0.2
6987  ,2.260e+08   ,2.4  ,-1.316  ,5
6994  ,5.657e+06   ,2.4  ,-1.5  ,0
7004  ,7.920e+06   ,2.4  ,-2.5  ,3.6
7011  ,5.288e+08   ,2.4  ,0.65491  ,5
7016  ,3.385e+08   ,2.4  ,0.45782  ,5
7019  ,5.120e+07   ,2.5  ,2.4  ,2.1695
7021  ,7.746e+07   ,2.5  ,2.4  ,1.9724
7052  ,1.379e+07   ,-1.3  ,2.5  ,0.1
7054  ,2.225e+04   ,-2.4  ,-2.5  ,0.8
7057  ,2.902e+05   ,0.3  ,-2.5  ,0.1
7065  ,2.605e+05   ,0.24243  ,-2.5  ,0.2
7075  ,1.124e+10   ,2.4888  ,2.4325  ,4.6656
7113  ,2.378e+04   ,-2.4  ,-2.5  ,2.6
7121  ,1.885e+04   ,-2.4  ,-2.5  ,2.8
7126  ,3.467e+04   ,-2.5  ,-2.4  ,2.8
7128  ,5.401e+03   ,-2.4707  ,-2.4707  ,0.1
7129  ,4.229e+03   ,-2.4  ,-2.4707  ,0.029289
7141  ,4.340e+06   ,-1.7  ,-2.4  ,5
7145  ,1.751e+07   ,1.1  ,2.4  ,0
7163  ,1.808e+08   ,-1.7102  ,2.4  ,5
7172  ,1.941e+07   ,2.5  ,-2.4  ,3.2
7174  ,1.506e+07   ,-2.5  ,2.4  ,3.6
7183  ,4.612e+06   ,-1.4531  ,-2.5  ,4.8
7204  ,2.130e+08   ,2.3  ,-0.81068  ,4.8
7220  ,9.785e+07   ,2.5  ,0.063638  ,4.9
7227  ,4.841e+06   ,2.5  ,-1.9  ,0.1
7256  ,1.845e+07   ,-0.1  ,-2.4  ,5
7280  ,5.422e+07   ,-0.33054  ,2.4  ,5
7299  ,3.188e+08   ,2.5  ,-1.1189  ,4.9
7316  ,2.267e+04   ,-2.5  ,-2.4  ,0.8
7323  ,4.563e+04   ,-2.4  ,-2.5  ,1
7396  ,6.824e+06   ,1.1  ,-2.4  ,5
7400  ,9.779e+05   ,-2.5  ,0.7  ,0.1
7409  ,9.195e+06   ,1.3  ,-2.4  ,5
7420  ,2.092e+07   ,2.5  ,2.1  ,0.1
7429  ,7.247e+06   ,2.4  ,1.9  ,0
7436  ,5.469e+06   ,2.5  ,-1.7  ,0.1
7438  ,1.596e+07   ,2.4  ,-2.5  ,2.8
7445  ,1.022e+10   ,2.4325  ,2.1656  ,4.9888
7464  ,2.879e+06   ,2.5  ,-1.5  ,0.1
7480  ,2.105e+06   ,2.5  ,-2.4  ,0.2
7482  ,2.210e+05   ,1.9  ,-2.5  ,0.1
7483  ,3.227e+05   ,1.7  ,-2.5  ,0.1
7486  ,1.112e+07   ,1.9  ,-2.4  ,5
7488  ,1.357e+07   ,1.6937  ,-2.5  ,4.8
7492  ,1.214e+07   ,2.1  ,-2.4  ,5
7495  ,2.276e+05   ,0.1  ,-2.5  ,0.1
7504  ,3.538e+05   ,0.3  ,-2.4  ,0
7507  ,5.660e+05   ,0.9  ,-2.5  ,0.1
7533  ,9.252e+05   ,-2.5  ,0.9  ,0.1
7536  ,1.132e+05   ,-2.4  ,-2.5  ,3.2
7540  ,4.452e+04   ,-2.4  ,-2.5  ,3
7545  ,7.491e+04   ,-2.5  ,-2.4  ,3
7582  ,1.259e+07   ,1.3  ,2.5  ,0.1
7588  ,6.847e+07   ,2.5  ,2.4  ,2.3665
7598  ,1.616e+07   ,-2.5  ,2.4  ,4.2
7607  ,2.852e+07   ,1.5333  ,2.3  ,0.2
7627  ,8.046e+06   ,-2.5  ,1.1  ,4.9
7651  ,2.492e+06   ,2.4  ,-1.9  ,0
7656  ,6.817e+07   ,2.5  ,2.4  ,0.39564
7660  ,3.239e+09   ,2.2299  ,2.3  ,4.7299
7668  ,1.005e+07   ,1.4531  ,-2.5  ,4.8
7676  ,1.275e+07   ,0.1  ,-2.5  ,4.9
7683  ,1.829e+07   ,0.1  ,-2.4  ,5
7686  ,1.027e+07   ,-2.4  ,-1.1  ,5
7702  ,5.394e+05   ,-2.3  ,-2.5  ,4.433
7710  ,1.259e+06   ,-2.3  ,-2.5  ,4.6765
7752  ,1.015e+07   ,0.9  ,-2.4  ,5
7763  ,7.964e+06   ,0.24243  ,-2.5  ,4.8
7767  ,1.616e+05   ,-2.5  ,-2.4  ,3.2
7768  ,2.294e+04   ,-2.4  ,-2.1  ,0
7776  ,1.345e+06   ,-2.4  ,0.9  ,0
7786  ,8.710e+06   ,-0.4838  ,-2.5  ,4.8
7800  ,1.925e+07   ,2.5  ,-2.4  ,4.6
7805  ,5.932e+06   ,-2.5  ,-1.3  ,4.9
7811  ,6.115e+06   ,-2.5  ,-1.1  ,4.9
7820  ,6.581e+05   ,2.5  ,-2.1  ,0.1
7824  ,1.218e+06   ,2.4  ,-2.1  ,0
7828  ,7.494e+06   ,2.4  ,-2.5  ,4.2
7831  ,7.161e+06   ,2.4  ,-2.5  ,4
7838  ,1.161e+07   ,2.5  ,-2.4  ,4.2
7839  ,2.328e+08   ,2.5  ,2.4  ,2.7607
7840  ,3.631e+08   ,2.5  ,2.4  ,2.9578
7863  ,2.235e+05   ,-2.4  ,-1.5  ,0
7890  ,1.736e+07   ,2.4  ,0.9  ,0
7897  ,5.535e+05   ,-2.4  ,-0.7  ,0
7912  ,1.207e+05   ,-1.5  ,-2.4  ,0
7917  ,1.939e+05   ,-1.3  ,-2.5  ,0.1
7931  ,1.382e+07   ,0.5  ,2.4  ,0
7934  ,9.156e+05   ,1.1  ,-2.4  ,0
7937  ,2.233e+06   ,2.4  ,-2.5  ,0.8
7941  ,1.859e+04   ,-2.4  ,-2.5  ,0.6
7969  ,2.780e+06   ,-2.5  ,2.3  ,0.1
7971  ,3.088e+06   ,-2.4  ,1.9  ,0
7972  ,6.054e+06   ,-1.9  ,2.5  ,0.1
7978  ,2.609e+06   ,-2.4  ,1.1  ,0
7996  ,2.498e+07   ,-2.4  ,-0.5  ,5
8000  ,2.362e+04   ,-2.5  ,-2.4  ,0.6
8003  ,1.800e+04   ,-2.5  ,-2.4  ,0.4
8025  ,2.507e+07   ,0.9  ,2.5  ,0.1
8035  ,1.254e+07   ,0.3  ,2.5  ,0.1
8039  ,1.618e+06   ,2.3  ,-2.5  ,0.32348
8041  ,1.709e+06   ,2.3  ,-2.3379  ,0.2
8043  ,1.680e+06   ,2.1765  ,-2.5  ,0.2
8045  ,2.451e+05   ,-0.96359  ,-2.5  ,0.2
8054  ,1.269e+07   ,1.3  ,2.4  ,0
8058  ,7.255e+06   ,1.1  ,2.5  ,0.1
8062  ,8.950e+06   ,-2.5  ,2.4  ,1.4
8067  ,6.058e+06   ,-2.5  ,2.4  ,0.8
8087  ,1.499e+06   ,-2.5  ,1.5  ,0.1
8132  ,7.945e+07   ,-0.13345  ,2.4  ,5
8183  ,8.809e+06   ,2.5  ,-0.9  ,0.1
8184  ,1.917e+05   ,1.6937  ,-2.5  ,0.2
8214  ,1.026e+06   ,-2.4707  ,-2.4  ,4.9707
8217  ,2.179e+06   ,-2.1  ,-2.4  ,5
8219  ,4.994e+05   ,-2.4  ,-2.5  ,4.4
8227  ,5.781e+08   ,2.5  ,2.4  ,3.1549
8242  ,1.437e+07   ,0.7  ,-2.5  ,4.9
8248  ,5.592e+06   ,2.5  ,-2.4  ,3.6
8254  ,1.291e+07   ,2.5  ,-0.3  ,0.1
8256  ,1.936e+07   ,2.5  ,-0.5  ,0.1
8258  ,1.078e+07   ,-0.3  ,-2.5  ,4.9
8263  ,6.963e+06   ,-0.5  ,-2.5  ,4.9
8268  ,2.302e+05   ,-2.3  ,-2.5  ,3.7085
8277  ,2.052e+05   ,-0.1  ,-2.5  ,0.1
8285  ,7.896e+06   ,1.1  ,-2.5  ,4.9
8307  ,6.453e+06   ,0.1  ,2.4  ,0
8308  ,1.956e+07   ,-0.1  ,2.5  ,0.1
8309  ,1.004e+07   ,-0.1  ,2.4  ,0
8313  ,1.989e+06   ,2.5  ,-2.3  ,0.1
8318  ,2.196e+07   ,2.5  ,-2.4  ,3
8338  ,5.492e+08   ,2.5  ,2.4  ,3.352
8339  ,5.346e+08   ,2.4  ,2.5  ,3.1549
8344  ,1.594e+07   ,-2.5  ,2.4  ,3.4
8357  ,9.942e+09   ,2.4888  ,2.1656  ,4.9325
8358  ,2.672e+09   ,2.5  ,2.1998  ,4.8333
8383  ,5.940e+04   ,-1.7  ,-2.4  ,0
8396  ,7.335e+05   ,1.1  ,-2.5  ,0.1
8399  ,2.978e+09   ,2.4526  ,2.1331  ,4.9851
8405  ,3.180e+06   ,2.5  ,-2.4  ,1
8412  ,2.848e+06   ,2.3  ,-2.5  ,0.8063
8417  ,3.354e+04   ,-2.3  ,-2.5  ,2.5
8434  ,1.328e+07   ,0.9636  ,-2.5  ,4.8
8438  ,3.156e+05   ,-0.3  ,-2.5  ,0.1
8452  ,9.467e+06   ,-2.4  ,-0.1  ,5
8468  ,6.511e+08   ,2.5  ,2.4  ,3.7462
8471  ,4.333e+06   ,-1.3  ,-2.5  ,4.9
8493  ,5.904e+06   ,-1.1  ,-2.5  ,4.9
8509  ,7.766e+04   ,-2.5  ,-1.7  ,0.1
8517  ,1.377e+07   ,-2.4  ,2.5  ,3
8531  ,1.985e+06   ,-2.4  ,1.7  ,0
8556  ,5.023e+08   ,2.5  ,2.4  ,3.5491
8573  ,2.222e+08   ,-1.316  ,2.4  ,5
8576  ,2.072e+06   ,-2.4  ,1.3  ,0
8611  ,5.621e+06   ,2.3  ,-2.5  ,1.2915
8618  ,1.181e+07   ,-2.4  ,2.5  ,4
8646  ,2.107e+06   ,-2.5  ,1.1  ,0.1
8656  ,1.348e+07   ,2.5  ,-1.3  ,0.1
8657  ,1.276e+07   ,2.4  ,2.1  ,0
8673  ,1.135e+07   ,-1.3  ,2.4  ,0
8692  ,1.552e+07   ,0.72263  ,-2.5  ,4.8
8696  ,3.639e+06   ,2.3  ,-2.5  ,1.0469
8706  ,4.907e+08   ,2.5  ,0.65491  ,4.9
8721  ,6.838e+04   ,-2.4  ,-2.5  ,1.6
8725  ,5.481e+08   ,0.65491  ,2.4  ,5
8739  ,1.047e+10   ,2.1656  ,2.4325  ,4.9888
8741  ,2.998e+09   ,2.1998  ,2.3333  ,5
8746  ,1.520e+04   ,-2.1  ,-2.4  ,0
8748  ,8.144e+04   ,-2.5  ,-2.4  ,1.2
8752  ,3.087e+09   ,2.1331  ,2.4526  ,4.9851
8759  ,3.032e+04   ,-2.3  ,-2.5  ,1.0469
8787  ,2.866e+05   ,-0.1  ,-2.4  ,0
8793  ,2.397e+04   ,-2.3  ,-2.5  ,2.2576
8795  ,4.310e+04   ,-2.4  ,-2.5  ,2.4
8798  ,4.111e+05   ,-2.3  ,-2.5  ,4.1937
8808  ,4.300e+05   ,-2.3  ,-2.5  ,3.9531
8814  ,2.409e+06   ,-2.4  ,-1.5  ,5
8849  ,1.365e+07   ,0.4838  ,-2.5  ,4.8
8851  ,4.043e+05   ,-2.4  ,-2.5  ,4.2
8868  ,1.667e+07   ,2.4  ,-2.5  ,3
8874  ,5.511e+08   ,0.852  ,2.4  ,5
8883  ,6.916e+06   ,-0.5  ,-2.4  ,5
8886  ,1.100e+07   ,-0.72262  ,-2.5  ,4.8
8893  ,8.968e+06   ,-0.7  ,-2.5  ,4.9
8897  ,4.660e+05   ,-2.5  ,-2.4  ,3.6
8899  ,2.176e+05   ,-2.3  ,-2.5  ,3.4636
8900  ,4.900e+04   ,-2.3  ,-1.4729  ,0.2
8906  ,1.741e+05   ,-2.5  ,-1.3  ,0.1
8910  ,5.735e+08   ,0.852  ,2.5  ,4.9
8925  ,8.078e+06   ,-2.4  ,2.5  ,1.4
8941  ,1.476e+07   ,2.4707  ,2.4  ,0.029289
8942  ,2.377e+07   ,2.5  ,2.3  ,0.1
8945  ,6.325e+06   ,-2.5  ,0.1  ,4.9
8950  ,2.599e+07   ,2.4707  ,2.4707  ,0.1
8951  ,1.720e+07   ,2.4  ,2.4707  ,0.029289
8959  ,1.889e+08   ,2.4  ,0.26073  ,5
8965  ,3.810e+08   ,0.45782  ,2.4  ,5
8978  ,5.451e+08   ,2.4  ,0.852  ,5
8983  ,1.242e+07   ,2.5  ,-1.1  ,0.1
8991  ,5.177e+06   ,-2.5  ,2.4  ,0.6
9008  ,5.520e+08   ,2.5  ,0.852  ,4.9
9011  ,7.745e+05   ,-2.4  ,-0.5  ,0
9025  ,1.067e+05   ,-1.5  ,-2.5  ,0.1
9038  ,9.437e+06   ,2.4  ,-2.5  ,2
9041  ,2.531e+07   ,2.5  ,0.9  ,0.1
9050  ,1.768e+07   ,2.5  ,0.5  ,0.1
9054  ,6.642e+05   ,0.9  ,-2.4  ,0
9060  ,9.019e+05   ,2.4  ,-2.5  ,0.4
9062  ,3.201e+06   ,2.3  ,-2.5  ,0.56701
9064  ,3.213e+06   ,2.5  ,-2.4  ,0.4
9069  ,2.879e+06   ,2.4  ,-2.5  ,0.6
9071  ,6.887e+05   ,1.4531  ,-2.5  ,0.2
9082  ,2.844e+04   ,-2.3  ,-2.5  ,1.2915
9086  ,6.310e+04   ,-2.4  ,-2.5  ,1.4
9091  ,9.443e+04   ,-2.5  ,-2.4  ,1.4
9094  ,9.387e+06   ,1.3  ,-2.5  ,4.9
9097  ,3.531e+05   ,-0.7  ,-2.5  ,0.1
9137  ,1.058e+07   ,-2.5  ,-0.7  ,4.9
9143  ,9.488e+06   ,-2.5  ,-0.1  ,4.9
9146  ,7.241e+06   ,-2.1  ,2.4  ,0
9148  ,5.530e+06   ,-2.5  ,1.7  ,4.9
9173  ,1.913e+07   ,-2.5  ,2.4  ,3
9192  ,1.010e+07   ,-0.7  ,-2.4  ,5
9195  ,3.269e+05   ,0.72263  ,-2.5  ,0.2
9209  ,1.340e+07   ,2.5  ,-2.4  ,3.4
9215  ,3.975e+05   ,0.9636  ,-2.5  ,0.2
9217  ,1.535e+07   ,2.4  ,-2.5  ,3.2
9218  ,7.310e+06   ,-0.96359  ,-2.5  ,4.8
9229  ,1.283e+07   ,-2.4  ,2.5  ,2.8
9248  ,1.506e+07   ,2.3  ,-2.5  ,4.433
9255  ,2.305e+07   ,2.5  ,1.3  ,0.1
9257  ,1.342e+07   ,2.4  ,1.5  ,0
9262  ,2.049e+07   ,0.5  ,-2.4  ,5
9264  ,1.011e+08   ,2.4  ,-0.13345  ,5
9272  ,1.321e+08   ,0.063638  ,2.4  ,5
9277  ,6.767e+06   ,-2.5  ,2.4  ,1.2
9279  ,2.180e+08   ,2.5  ,0.26073  ,4.9
9282  ,8.377e+06   ,1.2085  ,-2.5  ,4.8
9286  ,1.210e+07   ,0.9  ,-2.5  ,4.9
9292  ,2.205e+07   ,-2.4  ,2.4707  ,4.9707
9293  ,3.533e+07   ,-2.3015  ,2.4  ,5
9296  ,1.203e+06   ,-2.4  ,-2.1  ,5
9303  ,2.973e+06   ,-2.4  ,-1.9  ,5
9311  ,2.183e+07   ,-2.4  ,2.3  ,5
9313  ,1.124e+07   ,-2.4  ,0.1  ,5
9319  ,6.174e+05   ,-0.5  ,-2.4  ,0
9328  ,3.537e+04   ,-2.3  ,-2.5  ,1.5364
9334  ,7.929e+06   ,-2.3  ,2.5  ,0.1
9338  ,5.398e+04   ,-2.5  ,-2.4  ,2.4
9339  ,2.047e+06   ,-2.5  ,1.3  ,0.1
9341  ,2.273e+04   ,-2.3  ,-2.5  ,2.7424
9344  ,5.038e+04   ,-2.5  ,-2.4  ,2.2
9358  ,1.404e+07   ,-2.3  ,2.3  ,2.5
9364  ,1.467e+06   ,-2.5  ,-2.1  ,4.9
9367  ,2.183e+06   ,-2.4  ,-2.3  ,5
9374  ,7.695e+06   ,-2.4  ,-1.3  ,5
9378  ,8.902e+06   ,-2.5  ,2.4  ,1.8
9384  ,1.168e+07   ,2.3  ,-2.5  ,2.0162
9385  ,1.090e+07   ,-2.5  ,2.4  ,4.4
9389  ,8.852e+06   ,-2.5  ,2.4  ,2
9395  ,5.258e+07   ,2.4  ,-2.3015  ,5
9396  ,7.145e+04   ,-2.4  ,-1.7  ,0
9407  ,5.721e+06   ,-2.3  ,-1.4729  ,4.8
9411  ,2.894e+06   ,-2.5  ,-1.7  ,4.9
9423  ,3.667e+05   ,-2.4  ,-2.5  ,3.6
9432  ,1.664e+07   ,0.7  ,-2.4  ,5
9438  ,3.893e+06   ,-2.5  ,-0.9  ,4.9
9443  ,1.949e+07   ,-2.5  ,-0.3  ,4.9
9445  ,1.182e+07   ,-2.4707  ,2.4  ,4.9707
9448  ,3.256e+08   ,2.4  ,-1.1189  ,5
9453  ,1.710e+07   ,2.4  ,0.7  ,0
9455  ,1.641e+07   ,2.5  ,-2.4  ,2.6
9457  ,1.240e+07   ,2.3  ,-2.5  ,2.9838
9494  ,6.663e+06   ,-2.4  ,2.5  ,1
9500  ,1.387e+07   ,0.3  ,-2.5  ,4.9
9504  ,1.846e+07   ,0.3  ,-2.4  ,5
9506  ,2.632e+05   ,2.1  ,-2.5  ,0.1
9518  ,1.219e+04   ,-1.9  ,-2.5  ,0.1
9528  ,1.094e+06   ,2.3  ,-2.5  ,0.1
9531  ,9.383e+05   ,2.4707  ,-2.4707  ,0.1
9533  ,9.661e+05   ,2.4707  ,-2.4  ,0.029289
9534  ,8.850e+05   ,2.4  ,-2.4707  ,0.029289
9541  ,1.570e+07   ,0.5  ,-2.5  ,4.9
9544  ,4.148e+05   ,-0.5  ,-2.5  ,0.1
9559  ,2.298e+06   ,-2.5  ,-1.9  ,4.9
9562  ,1.447e+07   ,-2.5  ,2.4  ,4.6
9565  ,9.429e+06   ,-2.4  ,2.5  ,2
9571  ,5.332e+05   ,-2.5  ,-2.4  ,3.8
9574  ,4.369e+05   ,-2.4  ,-2.5  ,3.8
9577  ,6.016e+05   ,1.3  ,-2.5  ,0.1
9582  ,5.429e+05   ,-2.5  ,-0.9  ,0.1
9596  ,1.983e+07   ,2.1  ,2.4  ,0
9598  ,1.985e+07   ,-2.4  ,2.5  ,3.2
9602  ,1.287e+07   ,1.5  ,2.5  ,0.1
9610  ,6.441e+07   ,2.4  ,2.5  ,0.39564
9612  ,2.313e+08   ,-0.72473  ,2.5  ,4.9
9614  ,1.403e+07   ,1.7  ,2.5  ,0.1
9635  ,2.413e+07   ,2.5  ,1.7  ,0.1
9646  ,2.304e+07   ,2.3  ,2.5  ,0.1
9651  ,9.812e+09   ,2.1656  ,2.4888  ,4.9325
9653  ,2.189e+08   ,2.5  ,-1.316  ,4.9
9656  ,4.834e+06   ,-2.4  ,-1.7  ,5
9659  ,1.277e+07   ,2.3  ,-2.5  ,4.6765
9661  ,7.245e+06   ,2.3  ,-2.5  ,3.9531
9664  ,1.859e+06   ,-2.3  ,-2.4  ,5
9666  ,6.041e+05   ,1.9  ,-2.4  ,0
9677  ,1.370e+07   ,2.4  ,0.5  ,0
9678  ,3.145e+05   ,-2.5  ,-1.1  ,0.1
9680  ,2.475e+08   ,2.5  ,2.4  ,1.184
9681  ,3.444e+07   ,2.5  ,2.4  ,0.19855
9696  ,3.318e+04   ,-2.3  ,-2.5  ,2.0162
9698  ,3.127e+05   ,2.4  ,-2.3  ,0
9699  ,3.212e+05   ,-0.24243  ,-2.5  ,0.2
9701  ,2.791e+05   ,0.1  ,-2.4  ,0
9704  ,3.034e+05   ,-0.4838  ,-2.5  ,0.2
9718  ,1.822e+05   ,-0.72262  ,-2.5  ,0.2
9726  ,1.065e+07   ,2.3  ,-0.76628  ,0.2
9727  ,6.716e+06   ,-2.5  ,2.4  ,0.4
9730  ,6.368e+06   ,1.9433E-06  ,-2.5  ,4.8
9731  ,4.961e+06   ,-0.24243  ,-2.5  ,4.8
9732  ,9.845e+06   ,-2.5  ,2.4  ,2.2
9738  ,6.616e+05   ,-2.5  ,-2.4  ,4
9743  ,3.171e+06   ,-1.6937  ,-2.5  ,4.8
9744  ,5.152e+05   ,-2.4  ,-2.5  ,4
9750  ,5.941e+04   ,-1.7  ,-2.5  ,0.1
9752  ,7.178e+04   ,-1.6937  ,-2.5  ,0.2
9754  ,2.227e+05   ,-1.3  ,-2.4  ,0
9759  ,7.396e+05   ,-2.4707  ,2.4  ,0.029289
9760  ,2.420e+06   ,-2.4  ,2.4707  ,0.029289
9768  ,1.125e+07   ,2.3  ,-2.5  ,4.1937
9770  ,2.426e+05   ,1.9433E-06  ,-2.5  ,0.2
9771  ,2.056e+05   ,0.4838  ,-2.5  ,0.2
9772  ,1.117e+06   ,2.4  ,-2.5  ,0.2
9773  ,1.177e+07   ,2.4  ,-2.5  ,4.6
9776  ,8.154e+07   ,2.4  ,0.063638  ,5
9780  ,5.756e+08   ,0.65491  ,2.5  ,4.9
9781  ,3.761e+07   ,2.4  ,2.5  ,0.19855
9782  ,5.506e+04   ,-2.3  ,-2.5  ,2.9838
9786  ,1.729e+05   ,-1.2085  ,-2.5  ,0.2
9787  ,8.281e+04   ,-1.4531  ,-2.5  ,0.2
9790  ,3.136e+05   ,2.3  ,-2.4  ,0
9793  ,3.038e+09   ,2.0345  ,2.4  ,5
9797  ,4.814e+06   ,2.3  ,-2.5  ,1.5364
9798  ,5.476e+08   ,2.4  ,1.0491  ,5
9809  ,5.420e+08   ,2.4  ,2.5  ,3.352
