Date:  11:30, Monday, July 10, 2023
Model name: Hollow_DropBox
Study name: Drop Test_hollow_draft1(-Default-)
Plot type:  Stress1
Plot step: 25   time : 131.2 Microseconds
Result Type: von Mises 


Node  ,Value (N/m^2)  ,X (in)  ,Y (in)  ,Z (in)
1  ,1.412e+09   ,2.5  ,2.1331  ,4.9
2  ,4.209e+09   ,2.4577  ,2.1908  ,4.9577
3  ,1.408e+09   ,2.4894  ,2.1331  ,4.9447
4  ,4.236e+09   ,2.1331  ,2.5  ,4.9
5  ,7.315e+09   ,2.1331  ,2.4894  ,4.9447
6  ,1.744e+10   ,2.1908  ,2.4577  ,4.9577
7  ,1.145e+08   ,-2.4  ,2.4  ,5
8  ,8.485e+08   ,-2.4  ,-2.4  ,5
9  ,1.909e+09   ,2.4  ,-2.4  ,5
10  ,1.356e+09   ,2.4  ,2.1331  ,5
11  ,4.002e+09   ,2.1331  ,2.4  ,5
12  ,2.085e+09   ,2.5  ,-2.4  ,4.9
13  ,7.581e+08   ,2.5  ,-2.4  ,0.1
14  ,8.546e+07   ,2.5  ,2.4  ,0.1
15  ,4.310e+09   ,2.5  ,2.4  ,4.6331
16  ,1.707e+08   ,2.4  ,2.5  ,0.1
17  ,3.355e+08   ,-2.4  ,2.5  ,0.1
18  ,1.906e+08   ,-2.4  ,2.5  ,4.9
19  ,4.830e+09   ,2.4  ,2.5  ,4.6331
20  ,2.458e+08   ,-2.5  ,2.4  ,0.1
21  ,4.403e+08   ,-2.5  ,-2.4  ,0.1
22  ,5.282e+08   ,-2.5  ,-2.4  ,4.9
23  ,2.157e+08   ,-2.5  ,2.4  ,4.9
24  ,3.628e+08   ,-2.3  ,-2.5  ,0.2
25  ,4.734e+08   ,-2.3  ,-2.5  ,4.8
26  ,1.460e+09   ,2.3  ,-2.5  ,4.8
27  ,3.967e+08   ,2.3  ,-2.5  ,0.2
28  ,7.121e+08   ,-2.4  ,-2.5  ,4.9
29  ,2.143e+09   ,2.4  ,-2.5  ,4.9
30  ,5.473e+08   ,-2.4  ,-2.5  ,0.1
31  ,7.364e+08   ,2.4  ,-2.5  ,0.1
32  ,5.723e+08   ,2.4  ,-2.4  ,0
33  ,2.208e+08   ,2.4  ,2.4  ,0
34  ,4.634e+08   ,-2.4  ,-2.4  ,0
35  ,2.767e+08   ,-2.4  ,2.4  ,0
36  ,1.772e+10   ,2.4577  ,2.4577  ,4.6908
37  ,2.799e+08   ,-2.3  ,2.3  ,4.8
38  ,4.222e+09   ,2.1599  ,2.3  ,4.8
39  ,3.330e+09   ,2.3  ,2.1599  ,4.8
40  ,4.152e+09   ,2.3  ,2.3  ,4.6599
41  ,2.013e+08   ,2.3  ,2.3  ,0.2
42  ,5.624e+08   ,-2.3  ,2.3  ,0.2
43  ,3.315e+08   ,-2.4  ,2.2  ,5
44  ,5.624e+08   ,-2.4  ,2  ,5
45  ,6.135e+08   ,-2.4  ,1.8  ,5
46  ,6.385e+08   ,-2.4  ,1.6  ,5
47  ,6.805e+08   ,-2.4  ,1.4  ,5
48  ,7.742e+08   ,-2.4  ,1.2  ,5
49  ,8.861e+08   ,-2.4  ,1  ,5
50  ,1.015e+09   ,-2.4  ,0.8  ,5
51  ,7.121e+08   ,-2.4  ,0.6  ,5
52  ,6.961e+08   ,-2.4  ,0.4  ,5
53  ,7.852e+08   ,-2.4  ,0.2  ,5
54  ,7.857e+08   ,-2.4  ,5.8879E-16  ,5
55  ,6.413e+08   ,-2.4  ,-0.2  ,5
56  ,4.914e+08   ,-2.4  ,-0.4  ,5
57  ,3.407e+08   ,-2.4  ,-0.6  ,5
58  ,3.041e+08   ,-2.4  ,-0.8  ,5
59  ,3.390e+08   ,-2.4  ,-1  ,5
60  ,3.153e+08   ,-2.4  ,-1.2  ,5
61  ,4.577e+08   ,-2.4  ,-1.4  ,5
62  ,4.044e+08   ,-2.4  ,-1.6  ,5
63  ,3.555e+08   ,-2.4  ,-1.8  ,5
64  ,5.566e+08   ,-2.4  ,-2  ,5
65  ,4.959e+08   ,-2.4  ,-2.2  ,5
66  ,1.200e+09   ,-2.2  ,-2.4  ,5
67  ,1.147e+09   ,-2  ,-2.4  ,5
68  ,1.064e+09   ,-1.8  ,-2.4  ,5
69  ,8.691e+08   ,-1.6  ,-2.4  ,5
70  ,7.905e+08   ,-1.4  ,-2.4  ,5
71  ,7.996e+08   ,-1.2  ,-2.4  ,5
72  ,8.028e+08   ,-1  ,-2.4  ,5
73  ,9.019e+08   ,-0.8  ,-2.4  ,5
74  ,1.058e+09   ,-0.6  ,-2.4  ,5
75  ,1.444e+09   ,-0.4  ,-2.4  ,5
76  ,1.371e+09   ,-0.2  ,-2.4  ,5
77  ,1.607e+09   ,-5.8879E-16  ,-2.4  ,5
78  ,1.578e+09   ,0.2  ,-2.4  ,5
79  ,1.543e+09   ,0.4  ,-2.4  ,5
80  ,1.736e+09   ,0.6  ,-2.4  ,5
81  ,1.475e+09   ,0.8  ,-2.4  ,5
82  ,9.346e+08   ,1  ,-2.4  ,5
83  ,5.464e+08   ,1.2  ,-2.4  ,5
84  ,4.403e+08   ,1.4  ,-2.4  ,5
85  ,1.096e+09   ,1.6  ,-2.4  ,5
86  ,2.005e+09   ,1.8  ,-2.4  ,5
87  ,2.326e+09   ,2  ,-2.4  ,5
88  ,3.637e+09   ,2.2  ,-2.4  ,5
89  ,1.775e+09   ,2.4  ,-2.2029  ,5
90  ,2.085e+09   ,2.4  ,-2.0058  ,5
91  ,1.617e+09   ,2.4  ,-1.8087  ,5
92  ,1.520e+09   ,2.4  ,-1.6116  ,5
93  ,1.725e+09   ,2.4  ,-1.4145  ,5
94  ,1.429e+09   ,2.4  ,-1.2175  ,5
95  ,1.426e+09   ,2.4  ,-1.0204  ,5
96  ,1.241e+09   ,2.4  ,-0.82327  ,5
97  ,1.241e+09   ,2.4  ,-0.62618  ,5
98  ,1.052e+09   ,2.4  ,-0.42909  ,5
99  ,9.718e+08   ,2.4  ,-0.232  ,5
100  ,8.146e+08   ,2.4  ,-0.034907  ,5
101  ,7.257e+08   ,2.4  ,0.16218  ,5
102  ,6.746e+08   ,2.4  ,0.35927  ,5
103  ,7.287e+08   ,2.4  ,0.55637  ,5
104  ,6.358e+08   ,2.4  ,0.75346  ,5
105  ,4.613e+08   ,2.4  ,0.95055  ,5
106  ,5.646e+08   ,2.4  ,1.1476  ,5
107  ,8.397e+08   ,2.4  ,1.3447  ,5
108  ,9.746e+08   ,2.4  ,1.5418  ,5
109  ,1.265e+09   ,2.4  ,1.7389  ,5
110  ,1.695e+09   ,2.4  ,1.936  ,5
111  ,2.782e+09   ,2.2665  ,2.2665  ,5
112  ,2.906e+09   ,1.936  ,2.4  ,5
113  ,1.768e+09   ,1.7389  ,2.4  ,5
114  ,1.341e+09   ,1.5418  ,2.4  ,5
115  ,9.851e+08   ,1.3447  ,2.4  ,5
116  ,7.112e+08   ,1.1476  ,2.4  ,5
117  ,7.047e+08   ,0.95055  ,2.4  ,5
118  ,7.196e+08   ,0.75346  ,2.4  ,5
119  ,7.492e+08   ,0.55637  ,2.4  ,5
120  ,6.796e+08   ,0.35927  ,2.4  ,5
121  ,7.418e+08   ,0.16218  ,2.4  ,5
122  ,8.924e+08   ,-0.034907  ,2.4  ,5
123  ,1.096e+09   ,-0.232  ,2.4  ,5
124  ,1.082e+09   ,-0.42909  ,2.4  ,5
125  ,9.844e+08   ,-0.62618  ,2.4  ,5
126  ,1.379e+09   ,-0.82327  ,2.4  ,5
127  ,1.412e+09   ,-1.0204  ,2.4  ,5
128  ,1.320e+09   ,-1.2175  ,2.4  ,5
129  ,1.047e+09   ,-1.4145  ,2.4  ,5
130  ,8.029e+08   ,-1.6116  ,2.4  ,5
131  ,5.313e+08   ,-1.8087  ,2.4  ,5
132  ,4.196e+08   ,-2.0058  ,2.4  ,5
133  ,2.709e+08   ,-2.2029  ,2.4  ,5
294  ,1.551e+09   ,2.5  ,-2.2029  ,4.9
295  ,2.081e+09   ,2.5  ,-2.0058  ,4.9
296  ,1.685e+09   ,2.5  ,-1.8087  ,4.9
297  ,1.757e+09   ,2.5  ,-1.6116  ,4.9
298  ,1.464e+09   ,2.5  ,-1.4145  ,4.9
299  ,1.377e+09   ,2.5  ,-1.2175  ,4.9
300  ,1.520e+09   ,2.5  ,-1.0204  ,4.9
301  ,1.099e+09   ,2.5  ,-0.82327  ,4.9
302  ,1.208e+09   ,2.5  ,-0.62618  ,4.9
303  ,1.056e+09   ,2.5  ,-0.42909  ,4.9
304  ,1.237e+09   ,2.5  ,-0.232  ,4.9
305  ,1.339e+09   ,2.5  ,-0.034907  ,4.9
306  ,8.889e+08   ,2.5  ,0.16218  ,4.9
307  ,7.094e+08   ,2.5  ,0.35927  ,4.9
308  ,7.231e+08   ,2.5  ,0.55637  ,4.9
309  ,5.966e+08   ,2.5  ,0.75346  ,4.9
310  ,6.804e+08   ,2.5  ,0.95055  ,4.9
311  ,8.123e+08   ,2.5  ,1.1476  ,4.9
312  ,8.849e+08   ,2.5  ,1.3447  ,4.9
313  ,1.131e+09   ,2.5  ,1.5418  ,4.9
314  ,1.361e+09   ,2.5  ,1.7389  ,4.9
315  ,1.724e+09   ,2.5  ,1.936  ,4.9
316  ,3.603e+09   ,2.5  ,-2.4  ,4.7
317  ,2.273e+09   ,2.5  ,-2.4  ,4.5
318  ,1.986e+09   ,2.5  ,-2.4  ,4.3
319  ,1.148e+09   ,2.5  ,-2.4  ,4.1
320  ,5.663e+08   ,2.5  ,-2.4  ,3.9
321  ,7.360e+08   ,2.5  ,-2.4  ,3.7
322  ,1.079e+09   ,2.5  ,-2.4  ,3.5
323  ,1.470e+09   ,2.5  ,-2.4  ,3.3
324  ,1.609e+09   ,2.5  ,-2.4  ,3.1
325  ,1.476e+09   ,2.5  ,-2.4  ,2.9
326  ,1.540e+09   ,2.5  ,-2.4  ,2.7
327  ,1.669e+09   ,2.5  ,-2.4  ,2.5
328  ,1.479e+09   ,2.5  ,-2.4  ,2.3
329  ,1.584e+09   ,2.5  ,-2.4  ,2.1
330  ,1.198e+09   ,2.5  ,-2.4  ,1.9
331  ,8.840e+08   ,2.5  ,-2.4  ,1.7
332  ,6.570e+08   ,2.5  ,-2.4  ,1.5
333  ,6.182e+08   ,2.5  ,-2.4  ,1.3
334  ,6.976e+08   ,2.5  ,-2.4  ,1.1
335  ,8.584e+08   ,2.5  ,-2.4  ,0.9
336  ,1.130e+09   ,2.5  ,-2.4  ,0.7
337  ,1.129e+09   ,2.5  ,-2.4  ,0.5
338  ,1.229e+09   ,2.5  ,-2.4  ,0.3
339  ,5.075e+08   ,2.5  ,-2.2  ,0.1
340  ,5.840e+08   ,2.5  ,-2  ,0.1
341  ,4.113e+08   ,2.5  ,-1.8  ,0.1
342  ,4.039e+08   ,2.5  ,-1.6  ,0.1
343  ,2.919e+08   ,2.5  ,-1.4  ,0.1
344  ,2.723e+08   ,2.5  ,-1.2  ,0.1
345  ,2.930e+08   ,2.5  ,-1  ,0.1
346  ,2.370e+08   ,2.5  ,-0.8  ,0.1
347  ,2.969e+08   ,2.5  ,-0.6  ,0.1
348  ,3.982e+08   ,2.5  ,-0.4  ,0.1
349  ,5.392e+08   ,2.5  ,-0.2  ,0.1
350  ,6.028e+08   ,2.5  ,-1.7664E-15  ,0.1
351  ,6.287e+08   ,2.5  ,0.2  ,0.1
352  ,6.926e+08   ,2.5  ,0.4  ,0.1
353  ,9.182e+08   ,2.5  ,0.6  ,0.1
354  ,1.208e+09   ,2.5  ,0.8  ,0.1
355  ,9.227e+08   ,2.5  ,1  ,0.1
356  ,8.429e+08   ,2.5  ,1.2  ,0.1
357  ,6.884e+08   ,2.5  ,1.4  ,0.1
358  ,6.215e+08   ,2.5  ,1.6  ,0.1
359  ,5.559e+08   ,2.5  ,1.8  ,0.1
360  ,5.055e+08   ,2.5  ,2  ,0.1
361  ,3.686e+08   ,2.5  ,2.2  ,0.1
362  ,3.002e+09   ,2.5  ,2.4  ,4.436
363  ,1.981e+09   ,2.5  ,2.4  ,4.2389
364  ,1.273e+09   ,2.5  ,2.4  ,4.0418
365  ,1.027e+09   ,2.5  ,2.4  ,3.8447
366  ,7.962e+08   ,2.5  ,2.4  ,3.6476
367  ,6.717e+08   ,2.5  ,2.4  ,3.4505
368  ,6.325e+08   ,2.5  ,2.4  ,3.2535
369  ,7.509e+08   ,2.5  ,2.4  ,3.0564
370  ,7.453e+08   ,2.5  ,2.4  ,2.8593
371  ,7.486e+08   ,2.5  ,2.4  ,2.6622
372  ,9.008e+08   ,2.5  ,2.4  ,2.4651
373  ,9.748e+08   ,2.5  ,2.4  ,2.268
374  ,1.027e+09   ,2.5  ,2.4  ,2.0709
375  ,1.006e+09   ,2.5  ,2.4  ,1.8738
376  ,1.196e+09   ,2.5  ,2.4  ,1.6767
377  ,1.044e+09   ,2.5  ,2.4  ,1.4796
378  ,1.081e+09   ,2.5  ,2.4  ,1.2825
379  ,1.038e+09   ,2.5  ,2.4  ,1.0855
380  ,9.175e+08   ,2.5  ,2.4  ,0.88836
381  ,7.057e+08   ,2.5  ,2.4  ,0.69127
382  ,4.105e+08   ,2.5  ,2.4  ,0.49418
383  ,2.311e+08   ,2.5  ,2.4  ,0.29709
384  ,2.668e+09   ,2.5  ,2.2665  ,4.7665
544  ,5.399e+08   ,2.2  ,2.5  ,0.1
545  ,7.580e+08   ,2  ,2.5  ,0.1
546  ,7.692e+08   ,1.8  ,2.5  ,0.1
547  ,8.200e+08   ,1.6  ,2.5  ,0.1
548  ,7.130e+08   ,1.4  ,2.5  ,0.1
549  ,8.639e+08   ,1.2  ,2.5  ,0.1
550  ,9.598e+08   ,1  ,2.5  ,0.1
551  ,1.229e+09   ,0.8  ,2.5  ,0.1
552  ,9.072e+08   ,0.6  ,2.5  ,0.1
553  ,3.588e+08   ,0.4  ,2.5  ,0.1
554  ,2.920e+08   ,0.2  ,2.5  ,0.1
555  ,1.479e+08   ,5.8879E-16  ,2.5  ,0.1
556  ,3.105e+08   ,-0.2  ,2.5  ,0.1
557  ,3.063e+08   ,-0.4  ,2.5  ,0.1
558  ,2.944e+08   ,-0.6  ,2.5  ,0.1
559  ,6.196e+08   ,-0.8  ,2.5  ,0.1
560  ,6.871e+08   ,-1  ,2.5  ,0.1
561  ,7.656e+08   ,-1.2  ,2.5  ,0.1
562  ,7.423e+08   ,-1.4  ,2.5  ,0.1
563  ,7.619e+08   ,-1.6  ,2.5  ,0.1
564  ,7.679e+08   ,-1.8  ,2.5  ,0.1
565  ,7.047e+08   ,-2  ,2.5  ,0.1
566  ,5.928e+08   ,-2.2  ,2.5  ,0.1
567  ,5.281e+08   ,-2.4  ,2.5  ,4.7
568  ,7.387e+08   ,-2.4  ,2.5  ,4.5
569  ,7.676e+08   ,-2.4  ,2.5  ,4.3
570  ,8.537e+08   ,-2.4  ,2.5  ,4.1
571  ,7.473e+08   ,-2.4  ,2.5  ,3.9
572  ,7.682e+08   ,-2.4  ,2.5  ,3.7
573  ,9.143e+08   ,-2.4  ,2.5  ,3.5
574  ,1.141e+09   ,-2.4  ,2.5  ,3.3
575  ,7.175e+08   ,-2.4  ,2.5  ,3.1
576  ,4.860e+08   ,-2.4  ,2.5  ,2.9
577  ,4.140e+08   ,-2.4  ,2.5  ,2.7
578  ,2.940e+08   ,-2.4  ,2.5  ,2.5
579  ,2.753e+08   ,-2.4  ,2.5  ,2.3
580  ,2.660e+08   ,-2.4  ,2.5  ,2.1
581  ,3.086e+08   ,-2.4  ,2.5  ,1.9
582  ,6.098e+08   ,-2.4  ,2.5  ,1.7
583  ,6.843e+08   ,-2.4  ,2.5  ,1.5
584  ,8.015e+08   ,-2.4  ,2.5  ,1.3
585  ,8.010e+08   ,-2.4  ,2.5  ,1.1
586  ,8.022e+08   ,-2.4  ,2.5  ,0.9
587  ,7.371e+08   ,-2.4  ,2.5  ,0.7
588  ,6.882e+08   ,-2.4  ,2.5  ,0.5
589  ,5.785e+08   ,-2.4  ,2.5  ,0.3
590  ,3.455e+09   ,1.936  ,2.5  ,4.9
591  ,1.715e+09   ,1.7389  ,2.5  ,4.9
592  ,1.170e+09   ,1.5418  ,2.5  ,4.9
593  ,9.189e+08   ,1.3447  ,2.5  ,4.9
594  ,6.676e+08   ,1.1476  ,2.5  ,4.9
595  ,6.890e+08   ,0.95055  ,2.5  ,4.9
596  ,7.542e+08   ,0.75346  ,2.5  ,4.9
597  ,7.296e+08   ,0.55637  ,2.5  ,4.9
598  ,7.453e+08   ,0.35927  ,2.5  ,4.9
599  ,6.957e+08   ,0.16218  ,2.5  ,4.9
600  ,7.100e+08   ,-0.034907  ,2.5  ,4.9
601  ,8.159e+08   ,-0.232  ,2.5  ,4.9
602  ,1.446e+09   ,-0.42909  ,2.5  ,4.9
603  ,1.451e+09   ,-0.62618  ,2.5  ,4.9
604  ,1.407e+09   ,-0.82327  ,2.5  ,4.9
605  ,1.595e+09   ,-1.0204  ,2.5  ,4.9
606  ,1.452e+09   ,-1.2175  ,2.5  ,4.9
607  ,1.127e+09   ,-1.4145  ,2.5  ,4.9
608  ,8.550e+08   ,-1.6116  ,2.5  ,4.9
609  ,6.428e+08   ,-1.8087  ,2.5  ,4.9
610  ,4.509e+08   ,-2.0058  ,2.5  ,4.9
611  ,3.414e+08   ,-2.2029  ,2.5  ,4.9
612  ,4.548e+09   ,2.2665  ,2.5  ,4.7665
613  ,3.026e+09   ,2.4  ,2.5  ,4.436
614  ,1.890e+09   ,2.4  ,2.5  ,4.2389
615  ,1.214e+09   ,2.4  ,2.5  ,4.0418
616  ,9.567e+08   ,2.4  ,2.5  ,3.8447
617  ,7.842e+08   ,2.4  ,2.5  ,3.6476
618  ,6.539e+08   ,2.4  ,2.5  ,3.4505
619  ,7.199e+08   ,2.4  ,2.5  ,3.2535
620  ,7.114e+08   ,2.4  ,2.5  ,3.0564
621  ,6.707e+08   ,2.4  ,2.5  ,2.8593
622  ,6.783e+08   ,2.4  ,2.5  ,2.6622
623  ,7.154e+08   ,2.4  ,2.5  ,2.4651
624  ,7.745e+08   ,2.4  ,2.5  ,2.268
625  ,8.804e+08   ,2.4  ,2.5  ,2.0709
626  ,1.053e+09   ,2.4  ,2.5  ,1.8738
627  ,1.253e+09   ,2.4  ,2.5  ,1.6767
628  ,1.434e+09   ,2.4  ,2.5  ,1.4796
629  ,1.525e+09   ,2.4  ,2.5  ,1.2825
630  ,1.060e+09   ,2.4  ,2.5  ,1.0855
631  ,7.779e+08   ,2.4  ,2.5  ,0.88836
632  ,5.711e+08   ,2.4  ,2.5  ,0.69127
633  ,4.766e+08   ,2.4  ,2.5  ,0.49418
634  ,2.717e+08   ,2.4  ,2.5  ,0.29709
796  ,4.225e+08   ,-2.5  ,2.2  ,0.1
797  ,4.820e+08   ,-2.5  ,2  ,0.1
798  ,6.291e+08   ,-2.5  ,1.8  ,0.1
799  ,6.514e+08   ,-2.5  ,1.6  ,0.1
800  ,7.315e+08   ,-2.5  ,1.4  ,0.1
801  ,8.340e+08   ,-2.5  ,1.2  ,0.1
802  ,7.866e+08   ,-2.5  ,1  ,0.1
803  ,8.169e+08   ,-2.5  ,0.8  ,0.1
804  ,8.587e+08   ,-2.5  ,0.6  ,0.1
805  ,9.154e+08   ,-2.5  ,0.4  ,0.1
806  ,8.112e+08   ,-2.5  ,0.2  ,0.1
807  ,7.428e+08   ,-2.5  ,5.8879E-16  ,0.1
808  ,7.328e+08   ,-2.5  ,-0.2  ,0.1
809  ,7.376e+08   ,-2.5  ,-0.4  ,0.1
810  ,7.097e+08   ,-2.5  ,-0.6  ,0.1
811  ,5.788e+08   ,-2.5  ,-0.8  ,0.1
812  ,6.360e+08   ,-2.5  ,-1  ,0.1
813  ,5.118e+08   ,-2.5  ,-1.2  ,0.1
814  ,5.685e+08   ,-2.5  ,-1.4  ,0.1
815  ,5.049e+08   ,-2.5  ,-1.6  ,0.1
816  ,4.365e+08   ,-2.5  ,-1.8  ,0.1
817  ,5.460e+08   ,-2.5  ,-2  ,0.1
818  ,4.167e+08   ,-2.5  ,-2.2  ,0.1
819  ,7.845e+08   ,-2.5  ,-2.4  ,4.7
820  ,5.775e+08   ,-2.5  ,-2.4  ,4.5
821  ,3.254e+08   ,-2.5  ,-2.4  ,4.3
822  ,4.246e+08   ,-2.5  ,-2.4  ,4.1
823  ,7.808e+08   ,-2.5  ,-2.4  ,3.9
824  ,1.088e+09   ,-2.5  ,-2.4  ,3.7
825  ,1.563e+09   ,-2.5  ,-2.4  ,3.5
826  ,1.617e+09   ,-2.5  ,-2.4  ,3.3
827  ,1.941e+09   ,-2.5  ,-2.4  ,3.1
828  ,1.941e+09   ,-2.5  ,-2.4  ,2.9
829  ,1.739e+09   ,-2.5  ,-2.4  ,2.7
830  ,1.788e+09   ,-2.5  ,-2.4  ,2.5
831  ,1.436e+09   ,-2.5  ,-2.4  ,2.3
832  ,1.341e+09   ,-2.5  ,-2.4  ,2.1
833  ,8.780e+08   ,-2.5  ,-2.4  ,1.9
834  ,5.214e+08   ,-2.5  ,-2.4  ,1.7
835  ,8.117e+07   ,-2.5  ,-2.4  ,1.5
836  ,2.678e+08   ,-2.5  ,-2.4  ,1.3
837  ,3.994e+08   ,-2.5  ,-2.4  ,1.1
838  ,4.494e+08   ,-2.5  ,-2.4  ,0.9
839  ,5.029e+08   ,-2.5  ,-2.4  ,0.7
840  ,6.218e+08   ,-2.5  ,-2.4  ,0.5
841  ,8.909e+08   ,-2.5  ,-2.4  ,0.3
842  ,4.090e+08   ,-2.5  ,2.2  ,4.9
843  ,5.925e+08   ,-2.5  ,2  ,4.9
844  ,6.484e+08   ,-2.5  ,1.8  ,4.9
845  ,6.443e+08   ,-2.5  ,1.6  ,4.9
846  ,6.215e+08   ,-2.5  ,1.4  ,4.9
847  ,6.411e+08   ,-2.5  ,1.2  ,4.9
848  ,6.718e+08   ,-2.5  ,1  ,4.9
849  ,8.626e+08   ,-2.5  ,0.8  ,4.9
850  ,8.523e+08   ,-2.5  ,0.6  ,4.9
851  ,8.603e+08   ,-2.5  ,0.4  ,4.9
852  ,8.237e+08   ,-2.5  ,0.2  ,4.9
853  ,6.480e+08   ,-2.5  ,5.8879E-16  ,4.9
854  ,6.588e+08   ,-2.5  ,-0.2  ,4.9
855  ,4.922e+08   ,-2.5  ,-0.4  ,4.9
856  ,3.826e+08   ,-2.5  ,-0.6  ,4.9
857  ,3.214e+08   ,-2.5  ,-0.8  ,4.9
858  ,3.316e+08   ,-2.5  ,-1  ,4.9
859  ,3.051e+08   ,-2.5  ,-1.2  ,4.9
860  ,3.306e+08   ,-2.5  ,-1.4  ,4.9
861  ,3.044e+08   ,-2.5  ,-1.6  ,4.9
862  ,3.199e+08   ,-2.5  ,-1.8  ,4.9
863  ,4.118e+08   ,-2.5  ,-2  ,4.9
864  ,3.991e+08   ,-2.5  ,-2.2  ,4.9
865  ,5.640e+08   ,-2.5  ,2.4  ,4.7
866  ,7.607e+08   ,-2.5  ,2.4  ,4.5
867  ,7.796e+08   ,-2.5  ,2.4  ,4.3
868  ,6.349e+08   ,-2.5  ,2.4  ,4.1
869  ,7.551e+08   ,-2.5  ,2.4  ,3.9
870  ,7.594e+08   ,-2.5  ,2.4  ,3.7
871  ,8.349e+08   ,-2.5  ,2.4  ,3.5
872  ,1.045e+09   ,-2.5  ,2.4  ,3.3
873  ,8.428e+08   ,-2.5  ,2.4  ,3.1
874  ,4.440e+08   ,-2.5  ,2.4  ,2.9
875  ,3.639e+08   ,-2.5  ,2.4  ,2.7
876  ,3.075e+08   ,-2.5  ,2.4  ,2.5
877  ,2.836e+08   ,-2.5  ,2.4  ,2.3
878  ,3.076e+08   ,-2.5  ,2.4  ,2.1
879  ,2.122e+08   ,-2.5  ,2.4  ,1.9
880  ,5.726e+08   ,-2.5  ,2.4  ,1.7
881  ,8.224e+08   ,-2.5  ,2.4  ,1.5
882  ,8.908e+08   ,-2.5  ,2.4  ,1.3
883  ,7.964e+08   ,-2.5  ,2.4  ,1.1
884  ,7.834e+08   ,-2.5  ,2.4  ,0.9
885  ,7.288e+08   ,-2.5  ,2.4  ,0.7
886  ,7.217e+08   ,-2.5  ,2.4  ,0.5
887  ,5.644e+08   ,-2.5  ,2.4  ,0.3
1044  ,8.481e+08   ,-2.3  ,-2.5  ,0.44697
1045  ,7.468e+08   ,-2.3  ,-2.5  ,0.68705
1046  ,6.975e+08   ,-2.3  ,-2.5  ,0.92554
1047  ,6.160e+08   ,-2.3  ,-2.5  ,1.1682
1048  ,3.298e+08   ,-2.3  ,-2.5  ,1.4148
1049  ,1.537e+08   ,-2.3  ,-2.5  ,1.6581
1050  ,5.148e+08   ,-2.3  ,-2.5  ,1.8967
1051  ,7.996e+08   ,-2.3  ,-2.5  ,2.1357
1052  ,1.003e+09   ,-2.3  ,-2.5  ,2.3794
1053  ,1.206e+09   ,-2.3  ,-2.5  ,2.6206
1054  ,1.413e+09   ,-2.3  ,-2.5  ,2.8643
1055  ,1.395e+09   ,-2.3  ,-2.5  ,3.1033
1056  ,1.355e+09   ,-2.3  ,-2.5  ,3.342
1057  ,1.070e+09   ,-2.3  ,-2.5  ,3.5852
1058  ,6.388e+08   ,-2.3  ,-2.5  ,3.8318
1059  ,2.961e+08   ,-2.3  ,-2.5  ,4.0745
1060  ,2.679e+08   ,-2.3  ,-2.5  ,4.3129
1061  ,5.618e+08   ,-2.3  ,-2.5  ,4.553
1062  ,1.155e+09   ,-2.053  ,-2.5  ,4.8
1063  ,9.944e+08   ,-1.8129  ,-2.5  ,4.8
1064  ,9.446e+08   ,-1.5745  ,-2.5  ,4.8
1065  ,9.196e+08   ,-1.3318  ,-2.5  ,4.8
1066  ,9.285e+08   ,-1.0852  ,-2.5  ,4.8
1067  ,9.382e+08   ,-0.84195  ,-2.5  ,4.8
1068  ,1.073e+09   ,-0.60329  ,-2.5  ,4.8
1069  ,1.324e+09   ,-0.3643  ,-2.5  ,4.8
1070  ,1.389e+09   ,-0.12055  ,-2.5  ,4.8
1071  ,1.342e+09   ,0.12056  ,-2.5  ,4.8
1072  ,1.228e+09   ,0.3643  ,-2.5  ,4.8
1073  ,1.038e+09   ,0.6033  ,-2.5  ,4.8
1074  ,7.658e+08   ,0.84195  ,-2.5  ,4.8
1075  ,2.721e+08   ,1.0852  ,-2.5  ,4.8
1076  ,5.461e+08   ,1.3318  ,-2.5  ,4.8
1077  ,1.252e+09   ,1.5745  ,-2.5  ,4.8
1078  ,1.952e+09   ,1.8129  ,-2.5  ,4.8
1079  ,2.948e+09   ,2.053  ,-2.5  ,4.8
1080  ,3.019e+09   ,2.3  ,-2.5  ,4.553
1081  ,2.032e+09   ,2.3  ,-2.5  ,4.3129
1082  ,1.421e+09   ,2.3  ,-2.5  ,4.0745
1083  ,7.077e+08   ,2.3  ,-2.5  ,3.8318
1084  ,4.167e+08   ,2.3  ,-2.5  ,3.5852
1085  ,8.140e+08   ,2.3  ,-2.5  ,3.3419
1086  ,1.035e+09   ,2.3  ,-2.5  ,3.1033
1087  ,1.094e+09   ,2.3  ,-2.5  ,2.8643
1088  ,1.243e+09   ,2.3  ,-2.5  ,2.6206
1089  ,1.401e+09   ,2.3  ,-2.5  ,2.3794
1090  ,1.397e+09   ,2.3  ,-2.5  ,2.1357
1091  ,1.137e+09   ,2.3  ,-2.5  ,1.8967
1092  ,9.020e+08   ,2.3  ,-2.5  ,1.658
1093  ,8.478e+08   ,2.3  ,-2.5  ,1.4148
1094  ,8.406e+08   ,2.3  ,-2.5  ,1.1682
1095  ,9.259e+08   ,2.3  ,-2.5  ,0.92554
1096  ,1.065e+09   ,2.3  ,-2.5  ,0.68705
1097  ,1.100e+09   ,2.3  ,-2.5  ,0.44697
1098  ,7.828e+08   ,-2.053  ,-2.5  ,0.2
1099  ,8.023e+08   ,-1.8129  ,-2.5  ,0.2
1100  ,6.846e+08   ,-1.5745  ,-2.5  ,0.2
1101  ,5.619e+08   ,-1.3318  ,-2.5  ,0.2
1102  ,2.666e+08   ,-1.0852  ,-2.5  ,0.2
1103  ,2.385e+08   ,-0.84195  ,-2.5  ,0.2
1104  ,5.722e+08   ,-0.60329  ,-2.5  ,0.2
1105  ,7.566e+08   ,-0.3643  ,-2.5  ,0.2
1106  ,1.003e+09   ,-0.12055  ,-2.5  ,0.2
1107  ,1.248e+09   ,0.12056  ,-2.5  ,0.2
1108  ,1.496e+09   ,0.3643  ,-2.5  ,0.2
1109  ,1.405e+09   ,0.6033  ,-2.5  ,0.2
1110  ,1.273e+09   ,0.84195  ,-2.5  ,0.2
1111  ,1.133e+09   ,1.0852  ,-2.5  ,0.2
1112  ,7.538e+08   ,1.3318  ,-2.5  ,0.2
1113  ,3.246e+08   ,1.5745  ,-2.5  ,0.2
1114  ,2.556e+08   ,1.8129  ,-2.5  ,0.2
1115  ,6.590e+08   ,2.053  ,-2.5  ,0.2
1116  ,4.549e+08   ,-2.2  ,-2.5  ,4.9
1117  ,1.909e+08   ,-2  ,-2.5  ,4.9
1118  ,2.472e+08   ,-1.8  ,-2.5  ,4.9
1119  ,2.127e+08   ,-1.6  ,-2.5  ,4.9
1120  ,2.176e+08   ,-1.4  ,-2.5  ,4.9
1121  ,2.444e+08   ,-1.2  ,-2.5  ,4.9
1122  ,1.398e+08   ,-1  ,-2.5  ,4.9
1123  ,4.874e+07   ,-0.8  ,-2.5  ,4.9
1124  ,2.204e+08   ,-0.6  ,-2.5  ,4.9
1125  ,1.831e+08   ,-0.4  ,-2.5  ,4.9
1126  ,2.013e+08   ,-0.2  ,-2.5  ,4.9
1127  ,9.408e+07   ,-1.7664E-15  ,-2.5  ,4.9
1128  ,1.738e+08   ,0.2  ,-2.5  ,4.9
1129  ,3.790e+08   ,0.4  ,-2.5  ,4.9
1130  ,3.685e+08   ,0.6  ,-2.5  ,4.9
1131  ,6.372e+08   ,0.8  ,-2.5  ,4.9
1132  ,6.666e+08   ,1  ,-2.5  ,4.9
1133  ,6.153e+08   ,1.2  ,-2.5  ,4.9
1134  ,6.140e+08   ,1.4  ,-2.5  ,4.9
1135  ,6.064e+08   ,1.6  ,-2.5  ,4.9
1136  ,5.392e+08   ,1.8  ,-2.5  ,4.9
1137  ,3.985e+08   ,2  ,-2.5  ,4.9
1138  ,7.757e+08   ,2.2  ,-2.5  ,4.9
1139  ,3.235e+08   ,-2.4  ,-2.5  ,4.7
1140  ,2.716e+08   ,-2.4  ,-2.5  ,4.5
1141  ,3.338e+08   ,-2.4  ,-2.5  ,4.3
1142  ,4.024e+08   ,-2.4  ,-2.5  ,4.1
1143  ,5.163e+08   ,-2.4  ,-2.5  ,3.9
1144  ,6.814e+08   ,-2.4  ,-2.5  ,3.7
1145  ,4.740e+08   ,-2.4  ,-2.5  ,3.5
1146  ,3.921e+08   ,-2.4  ,-2.5  ,3.3
1147  ,1.910e+08   ,-2.4  ,-2.5  ,3.1
1148  ,3.438e+08   ,-2.4  ,-2.5  ,2.9
1149  ,4.458e+08   ,-2.4  ,-2.5  ,2.7
1150  ,2.936e+08   ,-2.4  ,-2.5  ,2.5
1151  ,4.079e+08   ,-2.4  ,-2.5  ,2.3
1152  ,3.118e+08   ,-2.4  ,-2.5  ,2.1
1153  ,3.990e+08   ,-2.4  ,-2.5  ,1.9
1154  ,3.077e+08   ,-2.4  ,-2.5  ,1.7
1155  ,1.774e+08   ,-2.4  ,-2.5  ,1.5
1156  ,5.342e+07   ,-2.4  ,-2.5  ,1.3
1157  ,2.190e+08   ,-2.4  ,-2.5  ,1.1
1158  ,2.640e+08   ,-2.4  ,-2.5  ,0.9
1159  ,1.609e+08   ,-2.4  ,-2.5  ,0.7
1160  ,7.443e+07   ,-2.4  ,-2.5  ,0.5
1161  ,2.388e+08   ,-2.4  ,-2.5  ,0.3
1162  ,1.804e+08   ,-2.2  ,-2.5  ,0.1
1163  ,1.628e+08   ,-2  ,-2.5  ,0.1
1164  ,1.216e+08   ,-1.8  ,-2.5  ,0.1
1165  ,1.630e+08   ,-1.6  ,-2.5  ,0.1
1166  ,7.776e+07   ,-1.4  ,-2.5  ,0.1
1167  ,1.612e+08   ,-1.2  ,-2.5  ,0.1
1168  ,2.630e+08   ,-1  ,-2.5  ,0.1
1169  ,3.219e+08   ,-0.8  ,-2.5  ,0.1
1170  ,3.111e+08   ,-0.6  ,-2.5  ,0.1
1171  ,3.262e+08   ,-0.4  ,-2.5  ,0.1
1172  ,3.472e+08   ,-0.2  ,-2.5  ,0.1
1173  ,4.005e+08   ,-1.7664E-15  ,-2.5  ,0.1
1174  ,3.444e+08   ,0.2  ,-2.5  ,0.1
1175  ,3.051e+08   ,0.4  ,-2.5  ,0.1
1176  ,4.720e+08   ,0.6  ,-2.5  ,0.1
1177  ,3.057e+08   ,0.8  ,-2.5  ,0.1
1178  ,4.335e+08   ,1  ,-2.5  ,0.1
1179  ,6.267e+08   ,1.2  ,-2.5  ,0.1
1180  ,5.754e+08   ,1.4  ,-2.5  ,0.1
1181  ,4.288e+08   ,1.6  ,-2.5  ,0.1
1182  ,3.689e+08   ,1.8  ,-2.5  ,0.1
1183  ,3.242e+08   ,2  ,-2.5  ,0.1
1184  ,4.105e+08   ,2.2  ,-2.5  ,0.1
1185  ,6.967e+08   ,2.4  ,-2.5  ,4.7
1186  ,2.911e+08   ,2.4  ,-2.5  ,4.5
1187  ,4.103e+08   ,2.4  ,-2.5  ,4.3
1188  ,6.573e+08   ,2.4  ,-2.5  ,4.1
1189  ,7.015e+08   ,2.4  ,-2.5  ,3.9
1190  ,8.107e+08   ,2.4  ,-2.5  ,3.7
1191  ,7.036e+08   ,2.4  ,-2.5  ,3.5
1192  ,5.225e+08   ,2.4  ,-2.5  ,3.3
1193  ,3.848e+08   ,2.4  ,-2.5  ,3.1
1194  ,3.776e+08   ,2.4  ,-2.5  ,2.9
1195  ,2.457e+08   ,2.4  ,-2.5  ,2.7
1196  ,1.294e+08   ,2.4  ,-2.5  ,2.5
1197  ,2.129e+08   ,2.4  ,-2.5  ,2.3
1198  ,1.369e+08   ,2.4  ,-2.5  ,2.1
1199  ,2.609e+08   ,2.4  ,-2.5  ,1.9
1200  ,1.202e+08   ,2.4  ,-2.5  ,1.7
1201  ,6.929e+07   ,2.4  ,-2.5  ,1.5
1202  ,2.389e+08   ,2.4  ,-2.5  ,1.3
1203  ,2.869e+08   ,2.4  ,-2.5  ,1.1
1204  ,3.192e+08   ,2.4  ,-2.5  ,0.9
1205  ,2.579e+08   ,2.4  ,-2.5  ,0.7
1206  ,2.761e+08   ,2.4  ,-2.5  ,0.5
1207  ,3.954e+08   ,2.4  ,-2.5  ,0.3
1208  ,4.101e+08   ,2.4  ,-2.2  ,0
1209  ,4.627e+08   ,2.4  ,-2  ,0
1210  ,3.672e+08   ,2.4  ,-1.8  ,0
1211  ,3.528e+08   ,2.4  ,-1.6  ,0
1212  ,3.734e+08   ,2.4  ,-1.4  ,0
1213  ,3.161e+08   ,2.4  ,-1.2  ,0
1214  ,3.176e+08   ,2.4  ,-1  ,0
1215  ,3.182e+08   ,2.4  ,-0.8  ,0
1216  ,3.502e+08   ,2.4  ,-0.6  ,0
1217  ,4.130e+08   ,2.4  ,-0.4  ,0
1218  ,5.453e+08   ,2.4  ,-0.2  ,0
1219  ,5.929e+08   ,2.4  ,-1.7664E-15  ,0
1220  ,6.690e+08   ,2.4  ,0.2  ,0
1221  ,7.722e+08   ,2.4  ,0.4  ,0
1222  ,9.312e+08   ,2.4  ,0.6  ,0
1223  ,9.910e+08   ,2.4  ,0.8  ,0
1224  ,7.801e+08   ,2.4  ,1  ,0
1225  ,7.064e+08   ,2.4  ,1.2  ,0
1226  ,6.651e+08   ,2.4  ,1.4  ,0
1227  ,6.170e+08   ,2.4  ,1.6  ,0
1228  ,7.023e+08   ,2.4  ,1.8  ,0
1229  ,6.442e+08   ,2.4  ,2  ,0
1230  ,4.802e+08   ,2.4  ,2.2  ,0
1231  ,8.145e+08   ,-2.2  ,-2.4  ,0
1232  ,7.341e+08   ,-2  ,-2.4  ,0
1233  ,5.851e+08   ,-1.8  ,-2.4  ,0
1234  ,5.064e+08   ,-1.6  ,-2.4  ,0
1235  ,4.023e+08   ,-1.4  ,-2.4  ,0
1236  ,2.575e+08   ,-1.2  ,-2.4  ,0
1237  ,1.841e+08   ,-1  ,-2.4  ,0
1238  ,6.156e+08   ,-0.8  ,-2.4  ,0
1239  ,1.038e+09   ,-0.6  ,-2.4  ,0
1240  ,1.289e+09   ,-0.4  ,-2.4  ,0
1241  ,1.491e+09   ,-0.2  ,-2.4  ,0
1242  ,1.731e+09   ,5.8879E-16  ,-2.4  ,0
1243  ,1.868e+09   ,0.2  ,-2.4  ,0
1244  ,1.976e+09   ,0.4  ,-2.4  ,0
1245  ,1.734e+09   ,0.6  ,-2.4  ,0
1246  ,1.700e+09   ,0.8  ,-2.4  ,0
1247  ,1.409e+09   ,1  ,-2.4  ,0
1248  ,1.150e+09   ,1.2  ,-2.4  ,0
1249  ,7.552e+08   ,1.4  ,-2.4  ,0
1250  ,4.254e+08   ,1.6  ,-2.4  ,0
1251  ,4.059e+08   ,1.8  ,-2.4  ,0
1252  ,5.940e+08   ,2  ,-2.4  ,0
1253  ,9.899e+08   ,2.2  ,-2.4  ,0
1254  ,4.210e+08   ,-2.4  ,2.2  ,0
1255  ,5.763e+08   ,-2.4  ,2  ,0
1256  ,5.618e+08   ,-2.4  ,1.8  ,0
1257  ,6.771e+08   ,-2.4  ,1.6  ,0
1258  ,7.982e+08   ,-2.4  ,1.4  ,0
1259  ,9.414e+08   ,-2.4  ,1.2  ,0
1260  ,8.612e+08   ,-2.4  ,1  ,0
1261  ,8.593e+08   ,-2.4  ,0.8  ,0
1262  ,8.100e+08   ,-2.4  ,0.6  ,0
1263  ,7.959e+08   ,-2.4  ,0.4  ,0
1264  ,8.044e+08   ,-2.4  ,0.2  ,0
1265  ,8.382e+08   ,-2.4  ,5.8879E-16  ,0
1266  ,9.462e+08   ,-2.4  ,-0.2  ,0
1267  ,7.063e+08   ,-2.4  ,-0.4  ,0
1268  ,7.471e+08   ,-2.4  ,-0.6  ,0
1269  ,5.973e+08   ,-2.4  ,-0.8  ,0
1270  ,6.529e+08   ,-2.4  ,-1  ,0
1271  ,5.767e+08   ,-2.4  ,-1.2  ,0
1272  ,5.088e+08   ,-2.4  ,-1.4  ,0
1273  ,5.134e+08   ,-2.4  ,-1.6  ,0
1274  ,4.881e+08   ,-2.4  ,-1.8  ,0
1275  ,5.511e+08   ,-2.4  ,-2  ,0
1276  ,3.579e+08   ,-2.4  ,-2.2  ,0
1277  ,5.397e+08   ,2.2  ,2.4  ,0
1278  ,7.231e+08   ,2  ,2.4  ,0
1279  ,7.499e+08   ,1.8  ,2.4  ,0
1280  ,6.126e+08   ,1.6  ,2.4  ,0
1281  ,5.463e+08   ,1.4  ,2.4  ,0
1282  ,7.275e+08   ,1.2  ,2.4  ,0
1283  ,8.270e+08   ,1  ,2.4  ,0
1284  ,1.088e+09   ,0.8  ,2.4  ,0
1285  ,8.768e+08   ,0.6  ,2.4  ,0
1286  ,4.499e+08   ,0.4  ,2.4  ,0
1287  ,3.630e+08   ,0.2  ,2.4  ,0
1288  ,3.269e+08   ,5.8879E-16  ,2.4  ,0
1289  ,2.863e+08   ,-0.2  ,2.4  ,0
1290  ,2.903e+08   ,-0.4  ,2.4  ,0
1291  ,1.490e+08   ,-0.6  ,2.4  ,0
1292  ,5.636e+08   ,-0.8  ,2.4  ,0
1293  ,7.967e+08   ,-1  ,2.4  ,0
1294  ,8.596e+08   ,-1.2  ,2.4  ,0
1295  ,7.619e+08   ,-1.4  ,2.4  ,0
1296  ,7.412e+08   ,-1.6  ,2.4  ,0
1297  ,7.323e+08   ,-1.8  ,2.4  ,0
1298  ,6.418e+08   ,-2  ,2.4  ,0
1299  ,6.296e+08   ,-2.2  ,2.4  ,0
1460  ,3.658e+09   ,2.3243  ,2.3243  ,4.9577
1461  ,3.651e+09   ,2.4577  ,2.3243  ,4.8243
1462  ,6.307e+09   ,2.3243  ,2.4577  ,4.8243
1463  ,4.016e+08   ,-2.3  ,-2.1759  ,4.8
1464  ,3.172e+08   ,-2.3  ,-1.7631  ,4.8
1465  ,3.664e+08   ,-2.3  ,-1.1827  ,4.8
1466  ,6.867e+08   ,-2.3  ,-0.34986  ,4.8
1467  ,8.546e+08   ,-2.3  ,0.80545  ,4.8
1468  ,9.936e+08   ,-0.81337  ,2.3  ,4.8
1469  ,1.070e+09   ,0.67326  ,2.3  ,4.8
1470  ,1.326e+09   ,2.3  ,-2.1824  ,4.8
1471  ,1.006e+09   ,2.3  ,-1.7784  ,4.8
1472  ,1.095e+09   ,2.3  ,-1.2138  ,4.8
1473  ,1.002e+09   ,2.3  ,-0.40752  ,4.8
1474  ,9.041e+08   ,2.3  ,0.70532  ,4.8
1516  ,9.636e+08   ,2.3  ,2.3  ,1.6866
1517  ,1.094e+09   ,2.3  ,2.3  ,3.1733
1518  ,3.873e+08   ,2.3  ,-2.1759  ,0.2
1519  ,2.636e+08   ,2.3  ,-1.7631  ,0.2
1520  ,3.378e+08   ,2.3  ,-1.1827  ,0.2
1521  ,6.891e+08   ,2.3  ,-0.34986  ,0.2
1522  ,8.779e+08   ,2.3  ,0.80545  ,0.2
1564  ,5.108e+08   ,-0.76667  ,2.3  ,0.2
1565  ,8.487e+08   ,0.76667  ,2.3  ,0.2
1566  ,5.214e+08   ,-2.3  ,2.3  ,1.7333
1567  ,8.526e+08   ,-2.3  ,2.3  ,3.2667
1574  ,3.740e+08   ,-2.3  ,-2.1759  ,0.2
1575  ,2.914e+08   ,-2.3  ,-1.7631  ,0.2
1576  ,3.453e+08   ,-2.3  ,-1.1827  ,0.2
1577  ,3.144e+08   ,-2.3  ,-0.34986  ,0.2
1578  ,3.046e+08   ,-2.3  ,0.80545  ,0.2
1777  ,1.520e+09   ,-0.52764  ,2.5  ,4.9
1801  ,1.050e+09   ,-2.3  ,1.5527  ,0.2
1825  ,8.759e+08   ,-1.5333  ,2.3  ,0.2
1841  ,7.339e+08   ,0.063638  ,2.5  ,4.9
1876  ,2.089e+08   ,-0.5  ,2.4  ,0
1894  ,7.160e+08   ,2.3  ,1.5527  ,0.2
1907  ,6.497e+08   ,2.1  ,2.5  ,0.1
1928  ,7.026e+08   ,1.9  ,2.4  ,0
1974  ,6.632e+08   ,2.4  ,1.1  ,0
1981  ,5.352e+08   ,2.4  ,2.5  ,0.59273
1987  ,7.092e+08   ,-2.5  ,2.4  ,4
2004  ,6.352e+08   ,-2.4  ,2.5  ,4.6
2009  ,6.466e+08   ,2.4  ,1.3  ,0
2020  ,8.045e+08   ,2.5  ,1.1  ,0.1
2035  ,6.945e+08   ,-2.3  ,-0.76628  ,0.2
2070  ,1.551e+09   ,1.6404  ,2.4  ,5
2081  ,9.111e+08   ,2.4  ,2.5  ,1.9724
2095  ,7.175e+08   ,2.4  ,2.5  ,0.78982
2138  ,7.499e+08   ,-2.4  ,-0.1  ,0
2146  ,1.385e+09   ,-0.92182  ,2.4  ,5
2174  ,1.230e+09   ,2.4  ,2.5  ,1.184
2190  ,9.681e+08   ,2.5  ,2.4  ,0.98691
2203  ,1.416e+09   ,2.5  ,-0.13345  ,4.9
2232  ,1.745e+09   ,2.3  ,0.1489  ,4.8
2242  ,7.120e+08   ,2.4  ,2.5  ,2.9578
2293  ,9.603e+08   ,-2.5  ,0.5  ,0.1
2311  ,2.063e+09   ,2.3  ,2.3  ,2.4299
2313  ,8.649e+08   ,2.5  ,2.4  ,0.78982
2329  ,8.304e+08   ,2.4  ,2.5  ,2.1695
2355  ,7.348e+08   ,-2.4  ,2.5  ,4.4
2380  ,5.063e+08   ,-2.5  ,-1.5  ,0.1
2383  ,6.650e+08   ,0.45782  ,2.5  ,4.9
2408  ,1.551e+09   ,2.3  ,-1.4961  ,4.8
2445  ,1.553e+09   ,2.5  ,-1.5131  ,4.9
2484  ,2.532e+08   ,-2.5  ,-2.4  ,1.6
2495  ,6.057e+08   ,-2.4  ,1.7  ,5
2508  ,6.889e+08   ,2.4  ,0.3  ,0
2514  ,1.169e+09   ,2.3  ,0.2278  ,0.2
2570  ,6.415e+08   ,-2.4  ,1.5  ,5
2580  ,1.433e+09   ,1.6404  ,2.5  ,4.9
2603  ,1.612e+09   ,-1.1189  ,2.5  ,4.9
2695  ,8.532e+08   ,2.3  ,2.3  ,0.94331
2705  ,1.568e+09   ,2.4  ,2.5  ,1.3811
2714  ,6.962e+08   ,2.5  ,0.45782  ,4.9
2734  ,3.137e+08   ,2.4  ,-0.9  ,0
2775  ,5.458e+08   ,2.5  ,-0.1  ,0.1
2779  ,5.512e+08   ,2.4  ,-0.1  ,0
2801  ,1.811e+09   ,1.4166  ,2.3  ,4.8
2814  ,1.096e+09   ,1.4433  ,2.5  ,4.9
2863  ,6.847e+08   ,-2.4  ,2.5  ,0.6
2884  ,7.717e+08   ,-2.4  ,2.5  ,0.8
2886  ,8.039e+08   ,-2.4  ,2.5  ,1.2
2967  ,6.461e+08   ,2.4  ,1.7  ,0
2973  ,6.089e+08   ,2.5  ,1.5  ,0.1
2987  ,2.750e+08   ,-0.3  ,2.5  ,0.1
3008  ,9.625e+08   ,-2.3  ,2.3  ,0.96667
3012  ,3.360e+08   ,-2.5  ,2.4  ,2.6
3021  ,3.960e+08   ,-2.5  ,2.4  ,2.8
3025  ,2.741e+08   ,-2.5  ,2.4  ,2.4
3030  ,2.625e+08   ,-2.4  ,2.5  ,2.4
3033  ,2.651e+08   ,-2.4  ,2.5  ,2.2
3047  ,7.030e+08   ,2.4  ,2.5  ,2.3665
3052  ,8.237e+08   ,2.5  ,2.4  ,2.5636
3061  ,6.910e+08   ,2.4  ,2.5  ,2.5636
3081  ,7.272e+08   ,-2.4  ,1.3  ,5
3088  ,4.612e+08   ,-1.9073  ,2.4  ,5
3099  ,5.959e+08   ,-2.4  ,1.9  ,5
3107  ,7.381e+08   ,-2.4  ,2.5  ,3.8
3139  ,9.233e+08   ,-1.5131  ,2.4  ,5
3145  ,9.801e+08   ,-1.5131  ,2.5  ,4.9
3148  ,7.409e+08   ,-1.7102  ,2.5  ,4.9
3168  ,6.989e+08   ,-2.4  ,1.5  ,0
3188  ,4.031e+08   ,-2.5  ,-2.4  ,1
3202  ,6.309e+08   ,0.26073  ,2.5  ,4.9
3212  ,1.259e+09   ,2.5  ,1.6404  ,4.9
3247  ,1.519e+09   ,2.5  ,1.8375  ,4.9
3265  ,1.731e+09   ,2.3  ,1.4326  ,4.8
3271  ,3.665e+09   ,2.2299  ,2.2299  ,4.8
3284  ,8.983e+08   ,2.4  ,1.4433  ,5
3291  ,9.254e+08   ,2.5  ,1.4433  ,4.9
3296  ,5.364e+08   ,-2.3  ,-0.76628  ,4.8
3303  ,3.178e+08   ,-2.4  ,-0.9  ,5
3311  ,3.072e+08   ,-2.4  ,-0.7  ,5
3315  ,7.443e+08   ,1.9  ,2.5  ,0.1
3336  ,7.868e+08   ,-2.4  ,0.3  ,0
3340  ,7.592e+08   ,-2.5  ,0.1  ,0.1
3344  ,8.068e+08   ,-2.4  ,0.1  ,0
3356  ,2.886e+08   ,-0.3  ,2.4  ,0
3361  ,9.313e+08   ,-0.33054  ,2.5  ,4.9
3364  ,7.347e+08   ,-0.13345  ,2.5  ,4.9
3383  ,7.161e+08   ,2.4  ,2.5  ,3.5491
3402  ,3.776e+09   ,2.4  ,2.5  ,4.5345
3421  ,1.268e+09   ,-1.316  ,2.5  ,4.9
3439  ,1.079e+09   ,2.5  ,2.4  ,3.9433
3447  ,1.102e+09   ,2.4  ,2.5  ,3.9433
3451  ,7.926e+08   ,2.4  ,2.5  ,3.7462
3468  ,1.107e+09   ,1.4433  ,2.4  ,5
3480  ,7.124e+08   ,1.0491  ,2.4  ,5
3519  ,6.639e+08   ,1.5  ,2.4  ,0
3527  ,2.853e+08   ,2.3  ,-1.4729  ,0.2
3550  ,7.188e+08   ,-1.7  ,2.4  ,0
3554  ,7.352e+08   ,-1.7  ,2.5  ,0.1
3558  ,7.519e+08   ,-1.5  ,2.4  ,0
3562  ,7.407e+08   ,-1.5  ,2.5  ,0.1
3574  ,4.010e+08   ,-2.4  ,2.1  ,5
3581  ,6.358e+08   ,-2.5  ,1.7  ,0.1
3583  ,5.379e+08   ,-2.5  ,1.9  ,0.1
3584  ,5.127e+08   ,-1.9073  ,2.5  ,4.9
3591  ,6.659e+08   ,2.5  ,0.3  ,0.1
3595  ,5.556e+08   ,2.5  ,0.1  ,0.1
3603  ,7.983e+09   ,2.4577  ,2.391  ,4.7576
3663  ,8.395e+08   ,-1.933  ,-2.5  ,0.2
3669  ,6.942e+08   ,-2.1765  ,-2.5  ,0.2
3672  ,4.038e+08   ,-2.3  ,-2.3379  ,0.2
3682  ,6.057e+08   ,-1.9  ,-2.4  ,0
3700  ,1.160e+09   ,2.3  ,-2.5  ,2.7424
3712  ,2.842e+08   ,-2.1  ,-2.5  ,4.9
3715  ,1.597e+08   ,-1.9  ,-2.5  ,4.9
3740  ,7.239e+08   ,-1.3  ,-2.4  ,5
3746  ,9.201e+08   ,-1.2085  ,-2.5  ,4.8
3755  ,7.562e+08   ,-1.5  ,-2.4  ,5
3760  ,1.749e+08   ,-1.7  ,-2.5  ,4.9
3786  ,1.248e+09   ,2.4  ,2.5  ,1.5782
3813  ,7.323e+08   ,0.26073  ,2.4  ,5
3858  ,7.831e+08   ,-0.9  ,-2.4  ,5
3863  ,7.464e+08   ,-2.5  ,0.9  ,4.9
3875  ,1.044e+09   ,-1.9  ,-2.4  ,5
3885  ,1.179e+09   ,2.4  ,-0.72473  ,5
3910  ,3.319e+08   ,-2.4  ,-2.5  ,3.4
3959  ,1.590e+09   ,2.5  ,2.4  ,4.1404
3969  ,7.587e+08   ,2.5  ,1.0491  ,4.9
3992  ,3.276e+09   ,2.391  ,2.2576  ,4.9577
3993  ,3.406e+09   ,2.4577  ,2.2576  ,4.891
4016  ,2.647e+08   ,-2.3015  ,2.5  ,4.9
4018  ,3.552e+08   ,-2.4  ,2.5  ,4.8
4021  ,8.243e+08   ,1.2462  ,2.4  ,5
4042  ,3.164e+08   ,2.4  ,-1.1  ,0
4046  ,6.845e+08   ,-0.9  ,2.4  ,0
4055  ,4.635e+08   ,1.7  ,-2.5  ,4.9
4087  ,7.000e+08   ,1.7  ,2.4  ,0
4114  ,1.133e+09   ,2.5  ,-0.33054  ,4.9
4120  ,2.378e+08   ,2.4  ,-2.5  ,1.8
4125  ,7.717e+08   ,2.4  ,2.5  ,0.98691
4144  ,2.506e+09   ,2.4  ,2.5  ,4.3375
4161  ,7.384e+08   ,-2.4  ,0.3  ,5
4201  ,3.706e+08   ,1.933  ,-2.5  ,0.2
4225  ,5.516e+08   ,-2.3  ,-2.4  ,0
4230  ,7.665e+08   ,-2.3  ,-2.5  ,0.56701
4269  ,1.593e+08   ,-0.9  ,-2.5  ,4.9
4277  ,7.405e+08   ,-1.1  ,-2.4  ,5
4288  ,1.642e+09   ,-0.070055  ,2.3  ,4.8
4328  ,3.115e+08   ,-2.5  ,-2.4  ,4.2
4336  ,4.458e+08   ,-2.5  ,-2.4  ,4.4
4342  ,6.380e+08   ,-2.5  ,-2.4  ,4.6
4348  ,7.876e+08   ,-2.4  ,-2.4707  ,4.9707
4352  ,4.486e+08   ,-2.3  ,-2.5  ,4.9
4354  ,1.139e+09   ,-2.1765  ,-2.5  ,4.8
4355  ,5.204e+08   ,-2.3  ,-2.3379  ,4.8
4362  ,4.869e+08   ,2.5  ,2.4  ,0.59273
4364  ,1.502e+09   ,2.5  ,-2.4  ,2.4
4366  ,1.484e+09   ,2.5  ,-2.4  ,2.2
4372  ,1.152e+08   ,2.4  ,-2.5  ,2.2
4385  ,5.105e+08   ,-2.5  ,-1.9  ,0.1
4399  ,4.520e+08   ,-2.5  ,2.1  ,0.1
4407  ,8.095e+08   ,-0.7  ,-2.4  ,0
4436  ,7.788e+08   ,-2.5  ,-0.1  ,0.1
4462  ,7.061e+08   ,-2.3  ,2.3  ,4.0333
4491  ,1.043e+09   ,2.5  ,-0.52764  ,4.9
4494  ,6.045e+08   ,2.5  ,-2.4  ,1.4
4503  ,1.860e+08   ,2.4  ,-2.5  ,1.4
4508  ,3.140e+08   ,2.4  ,-2.5  ,1.2
4515  ,9.910e+08   ,2.5  ,-2.4  ,1.8
4517  ,1.478e+08   ,2.4  ,-2.5  ,1.6
4522  ,1.672e+09   ,0.7  ,-2.4  ,0
4538  ,1.338e+09   ,-1.1189  ,2.4  ,5
4546  ,1.361e+09   ,2.4  ,2.5  ,4.1404
4559  ,3.732e+08   ,1.7  ,-2.4  ,0
4590  ,1.855e+09   ,0.5  ,-2.4  ,0
4631  ,2.117e+08   ,2.4  ,-2.5  ,2.6
4634  ,1.473e+09   ,2.5  ,-2.4  ,2.8
4657  ,1.060e+09   ,-2.5  ,-2.4  ,2
4660  ,6.957e+08   ,-2.5  ,-2.4  ,1.8
4664  ,1.305e+09   ,-0.3  ,-2.4  ,0
4675  ,4.005e+08   ,-2.4  ,-2.5  ,4.8
4681  ,7.132e+08   ,-2.5  ,-0.3  ,0.1
4684  ,1.447e+09   ,1.7  ,-2.4  ,5
4703  ,8.826e+08   ,-2.4  ,0.7  ,5
4707  ,7.925e+08   ,-2.5  ,0.3  ,4.9
4714  ,1.036e+09   ,2.4  ,-0.33054  ,5
4723  ,1.270e+09   ,-1.5567  ,2.3  ,4.8
4739  ,3.340e+08   ,-2.1044  ,2.5  ,4.9
4763  ,7.082e+08   ,-1.9  ,2.4  ,0
4780  ,3.202e+08   ,-2.3  ,-1.9695  ,0.2
4782  ,3.425e+08   ,-2.4707  ,-2.4  ,0.029289
4784  ,4.926e+08   ,-2.4  ,-1.9  ,0
4791  ,3.104e+08   ,-2.4  ,-2.5  ,1.8
4796  ,1.894e+09   ,2.4707  ,-2.4707  ,4.9
4799  ,2.475e+09   ,2.5  ,-2.4  ,4.8
4806  ,1.567e+09   ,2.3  ,-2.5  ,4.9
4809  ,1.884e+09   ,2.3  ,2.3  ,3.9166
4833  ,5.868e+08   ,-2.4  ,2.5  ,0.4
4841  ,3.368e+08   ,-2.4  ,2.5  ,2.6
4846  ,4.706e+08   ,-2.5  ,2.1  ,4.9
4848  ,3.013e+08   ,-2.5  ,2.3  ,4.9
4849  ,3.658e+08   ,-2.5  ,2.4  ,4.8
4893  ,7.870e+08   ,-2.4  ,2.5  ,4.2
4897  ,1.726e+09   ,2.3333  ,2.1998  ,5
4900  ,1.014e+10   ,2.391  ,2.4577  ,4.7576
4908  ,7.706e+09   ,2.2576  ,2.391  ,4.9577
4911  ,1.005e+10   ,2.2576  ,2.4577  ,4.891
4926  ,7.729e+08   ,-2.5  ,2.4  ,1
4932  ,6.777e+08   ,-2.4  ,2.5  ,1.6
4937  ,7.520e+08   ,-1.1  ,2.5  ,0.1
4939  ,3.674e+09   ,2.3  ,2.2299  ,4.7299
4944  ,1.819e+09   ,2.5  ,-1.9073  ,4.9
4987  ,7.136e+08   ,-2.3  ,1.5527  ,4.8
5010  ,1.431e+09   ,2.4973  ,2.1331  ,4.923
5013  ,1.642e+09   ,2.5  ,2.0345  ,4.9
5017  ,1.620e+09   ,2.4  ,2.0345  ,5
5035  ,8.999e+08   ,1.3  ,-2.4  ,0
5038  ,9.757e+08   ,1.2085  ,-2.5  ,0.2
5092  ,1.251e+08   ,-2.4  ,-2.5  ,1.2
5123  ,1.115e+09   ,2.5  ,-2.4  ,0.6
5151  ,6.973e+08   ,-2.5  ,-0.5  ,0.1
5160  ,6.076e+08   ,-2.5  ,-0.7  ,0.1
5164  ,9.128e+08   ,-2.4  ,0.9  ,5
5168  ,7.165e+08   ,-2.4  ,0.5  ,5
5176  ,2.627e+08   ,2.5  ,-0.7  ,0.1
5179  ,3.512e+08   ,2.4  ,-0.5  ,0
5189  ,1.004e+08   ,2.4  ,-2.5  ,2.4
5194  ,1.420e+09   ,2.3  ,-2.5  ,2.2576
5198  ,7.723e+08   ,-2.3  ,-2.5  ,0.32348
5205  ,4.410e+08   ,-2.4  ,-2.5  ,0.2
5207  ,1.962e+08   ,-2.1  ,-2.5  ,0.1
5246  ,9.789e+08   ,-2.5  ,2.4  ,3.2
5257  ,6.188e+08   ,-2.5  ,1.5  ,4.9
5263  ,9.598e+08   ,-2.3  ,0.2278  ,0.2
5272  ,7.741e+08   ,-2.5  ,0.3  ,0.1
5275  ,8.012e+08   ,-2.5  ,0.5  ,4.9
5281  ,2.030e+09   ,1.8375  ,2.5  ,4.9
5297  ,6.789e+08   ,-0.9  ,2.5  ,0.1
5306  ,3.373e+08   ,-0.7  ,2.4  ,0
5309  ,2.751e+08   ,-0.5  ,2.5  ,0.1
5324  ,6.371e+08   ,2.4  ,2.5  ,2.7607
5332  ,8.940e+08   ,2.5  ,-2.4  ,0.8
5334  ,3.649e+08   ,2.4  ,-2.5  ,1
5360  ,1.556e+09   ,2.4  ,-1.7102  ,5
5362  ,1.636e+09   ,2.4  ,-1.5131  ,5
5368  ,1.508e+09   ,2.4  ,1.8375  ,5
5371  ,1.638e+10   ,2.4325  ,2.4888  ,4.6656
5372  ,4.211e+09   ,2.3333  ,2.5  ,4.6998
5376  ,3.408e+09   ,2.4707  ,2.4707  ,4.6331
5377  ,3.705e+09   ,2.5  ,2.4  ,4.5345
5379  ,1.840e+08   ,-1.5  ,-2.5  ,4.9
5406  ,1.624e+09   ,-2.5  ,-2.4  ,3.4
5420  ,1.379e+09   ,-2.3  ,-2.5  ,3.2226
5423  ,5.371e+08   ,1.5  ,-2.4  ,0
5502  ,3.676e+08   ,-2.5  ,-2.3  ,0.1
5504  ,5.867e+08   ,-2.5  ,-2.4  ,0.2
5506  ,3.852e+08   ,-2.4  ,-2.3  ,0
5511  ,4.413e+08   ,-2.5  ,-2.1  ,0.1
5513  ,7.734e+08   ,-2.4  ,0.5  ,0
5517  ,3.213e+08   ,-0.9  ,-2.5  ,0.1
5532  ,1.152e+08   ,-2.4707  ,2.4707  ,4.9
5534  ,3.126e+08   ,2.4  ,-0.7  ,0
5551  ,6.032e+08   ,2.5  ,-2.4  ,3.8
5566  ,1.080e+09   ,2.5  ,2.4  ,1.3811
5603  ,4.618e+08   ,2.4  ,-0.3  ,0
5617  ,6.309e+08   ,-2.1  ,2.5  ,0.1
5637  ,3.149e+08   ,-2.3  ,-1.9695  ,4.8
5641  ,6.214e+08   ,2.3  ,-2.5  ,3.4636
5645  ,3.872e+08   ,-2.4  ,-2.5  ,2
5649  ,2.882e+08   ,-2.4  ,-2.5  ,2.2
5659  ,3.484e+08   ,-2.3  ,-2.5  ,1.7774
5662  ,2.877e+09   ,2.1765  ,-2.5  ,4.8
5666  ,1.535e+09   ,2.4  ,-2.5  ,4.8
5669  ,1.482e+09   ,2.3  ,-2.3412  ,4.8
5695  ,8.003e+08   ,-2.4  ,0.7  ,0
5701  ,7.156e+08   ,-2.5  ,2.4  ,1.6
5715  ,4.359e+08   ,-2.4  ,2.5  ,1.8
5726  ,4.094e+08   ,-0.7  ,2.5  ,0.1
5727  ,8.159e+08   ,-1.1  ,2.4  ,0
5730  ,9.991e+08   ,2.3  ,-2.5  ,1.7774
5746  ,1.108e+09   ,2.5  ,2.4  ,1.7753
5755  ,2.074e+09   ,2.5  ,-2.4  ,4.4
5763  ,2.441e+08   ,2.4  ,-2.5  ,4.4
5773  ,6.677e+08   ,1.0491  ,2.5  ,4.9
5791  ,1.159e+09   ,-0.72473  ,2.4  ,5
5795  ,2.142e+09   ,1.8375  ,2.4  ,5
5803  ,1.371e+09   ,-0.3  ,-2.4  ,5
5810  ,1.171e+09   ,2.4  ,1.6404  ,5
5836  ,6.024e+08   ,-2.5  ,1.3  ,4.9
5860  ,7.338e+08   ,2.5  ,-2.4  ,1.6
5866  ,5.212e+08   ,1.5  ,-2.5  ,0.1
5884  ,5.495e+08   ,-2.4  ,-0.3  ,5
5888  ,3.946e+08   ,-2.5  ,-0.5  ,4.9
5901  ,1.338e+09   ,2.3  ,-2.5  ,2.5
5908  ,6.185e+08   ,2.5  ,-2.4  ,1.2
5909  ,1.305e+09   ,2.5  ,-2.4  ,2
5934  ,3.184e+08   ,1.9  ,-2.5  ,4.9
5938  ,2.313e+09   ,1.933  ,-2.5  ,4.8
5948  ,3.236e+08   ,-2.4  ,-2.5  ,4.6
5950  ,5.798e+08   ,-2.4707  ,-2.4707  ,4.9
5951  ,6.207e+08   ,-2.5  ,-2.4  ,4.8
5952  ,4.248e+08   ,-2.5  ,-2.3  ,4.9
5986  ,5.125e+08   ,2.3  ,-2.5  ,3.7085
5990  ,1.381e+09   ,-0.92182  ,2.5  ,4.9
6019  ,5.360e+08   ,2.5  ,1.9  ,0.1
6025  ,3.179e+08   ,2.4  ,-1.3  ,0
6035  ,6.150e+08   ,-2.5  ,1.9  ,4.9
6044  ,2.305e+08   ,0.1  ,2.5  ,0.1
6054  ,5.974e+08   ,2.4  ,0.1  ,0
6070  ,3.023e+08   ,-2.4  ,2.3  ,0
6071  ,4.324e+08   ,-2.3  ,2.4  ,0
6076  ,4.832e+08   ,-2.4  ,2.1  ,0
6083  ,8.779e+08   ,2.1  ,-2.4  ,0
6084  ,3.126e+08   ,2.4  ,2.3  ,0
6087  ,3.791e+08   ,2.3  ,2.4  ,0
6092  ,1.237e+08   ,-2.4  ,-2.5  ,0.4
6096  ,3.822e+08   ,-2.3  ,-2.5  ,0.1
6099  ,2.905e+08   ,0.7  ,-2.5  ,0.1
6149  ,6.277e+08   ,-2.4  ,-0.9  ,0
6159  ,1.705e+09   ,-2.5  ,-2.4  ,2.6
6183  ,7.603e+08   ,1.2462  ,2.5  ,4.9
6224  ,7.595e+08   ,2.5  ,-2.4  ,4
6228  ,7.897e+08   ,2.4  ,-2.5  ,3.8
6237  ,1.015e+09   ,2.5  ,0.7  ,0.1
6241  ,3.039e+09   ,2.5  ,2.3333  ,4.6998
6245  ,1.070e+09   ,2.5  ,2.4  ,1.5782
6259  ,1.810e+09   ,2.5  ,-2.1044  ,4.9
6265  ,1.257e+09   ,2.3  ,-1.9804  ,4.8
6267  ,1.754e+09   ,2.5  ,-2.3015  ,4.9
6268  ,1.569e+09   ,2.4707  ,-2.4  ,4.9707
6270  ,1.789e+09   ,2.4  ,-2.1044  ,5
6317  ,9.077e+08   ,-2.3  ,0.2278  ,4.8
6349  ,1.187e+09   ,-0.52764  ,2.4  ,5
6391  ,1.146e+09   ,2.4  ,2.5  ,1.7753
6440  ,7.512e+08   ,-2.5  ,2.4  ,3.8
6471  ,1.343e+09   ,2.5  ,-0.92182  ,4.9
6489  ,8.375e+08   ,2.5  ,1.2462  ,4.9
6523  ,1.541e+08   ,-1.1  ,-2.4  ,0
6528  ,2.406e+08   ,-1.1  ,-2.5  ,0.1
6535  ,3.568e+08   ,-0.9  ,-2.4  ,0
6538  ,6.330e+08   ,1.5  ,-2.4  ,5
6541  ,6.016e+08   ,1.5  ,-2.5  ,4.9
6551  ,1.176e+09   ,2.5  ,-0.72473  ,4.9
6564  ,5.809e+09   ,2.1331  ,2.4973  ,4.923
6565  ,3.844e+09   ,2.0345  ,2.5  ,4.9
6572  ,3.406e+08   ,2.4  ,-1.7  ,0
6581  ,7.594e+08   ,0  ,2.3  ,0.2
6592  ,2.890e+08   ,2.3  ,-1.9695  ,0.2
6594  ,3.719e+08   ,0.3  ,2.4  ,0
6601  ,6.597e+08   ,0.5  ,2.5  ,0.1
6605  ,5.206e+08   ,-2.4  ,-1.3  ,0
6606  ,5.565e+08   ,-2.4  ,-1.1  ,0
6615  ,8.557e+08   ,-2.4  ,-0.3  ,0
6634  ,6.862e+08   ,2.1  ,-2.5  ,4.9
6635  ,1.906e+09   ,2.4  ,-2.4707  ,4.9707
6636  ,2.443e+09   ,2.3  ,-2.4  ,5
6647  ,3.412e+08   ,0.5  ,-2.5  ,0.1
6704  ,2.216e+08   ,-2.4707  ,2.4707  ,0.1
6708  ,3.857e+08   ,-2.5  ,2.4  ,0.2
6712  ,8.210e+08   ,-2.4  ,2.5  ,3.6
6715  ,1.005e+09   ,-2.4  ,2.5  ,3.4
6728  ,8.228e+08   ,-2.5  ,0.7  ,4.9
6753  ,3.528e+08   ,-2.1044  ,2.4  ,5
6788  ,2.345e+09   ,2.5  ,2.4  ,4.3375
6791  ,1.070e+09   ,-1.933  ,-2.5  ,4.8
6795  ,3.758e+09   ,2.1998  ,2.5  ,4.8333
6837  ,7.232e+08   ,-2.3  ,-2.5  ,0.8063
6869  ,1.687e+09   ,2.5  ,-1.7102  ,4.9
6873  ,1.896e+09   ,2.4  ,-1.9073  ,5
6880  ,1.281e+09   ,2.4  ,-0.92182  ,5
6885  ,1.086e+09   ,2.4  ,-0.52764  ,5
6893  ,7.412e+08   ,2.4  ,1.2462  ,5
6914  ,1.053e+09   ,0.7  ,2.5  ,0.1
6920  ,9.603e+08   ,0.9  ,2.4  ,0
6923  ,9.973e+08   ,0.7  ,2.4  ,0
6936  ,5.969e+08   ,2.4  ,-2.5  ,3.4
6939  ,9.645e+08   ,2.3  ,-2.5  ,3.2226
6961  ,1.477e+08   ,-0.1  ,-2.5  ,4.9
6967  ,3.668e+08   ,-2.5  ,-1.5  ,4.9
6975  ,7.832e+08   ,-2.4  ,1.1  ,5
6978  ,4.302e+08   ,-2.4  ,2.5  ,0.2
6987  ,1.526e+09   ,2.4  ,-1.316  ,5
6994  ,3.846e+08   ,2.4  ,-1.5  ,0
7004  ,8.043e+08   ,2.4  ,-2.5  ,3.6
7011  ,7.366e+08   ,2.4  ,0.65491  ,5
7016  ,6.416e+08   ,2.4  ,0.45782  ,5
7019  ,9.307e+08   ,2.5  ,2.4  ,2.1695
7021  ,9.707e+08   ,2.5  ,2.4  ,1.9724
7052  ,7.314e+08   ,-1.3  ,2.5  ,0.1
7054  ,2.186e+08   ,-2.4  ,-2.5  ,0.8
7057  ,2.551e+08   ,0.3  ,-2.5  ,0.1
7065  ,1.392e+09   ,0.24243  ,-2.5  ,0.2
7075  ,1.599e+10   ,2.4888  ,2.4325  ,4.6656
7113  ,3.003e+08   ,-2.4  ,-2.5  ,2.6
7121  ,3.438e+08   ,-2.4  ,-2.5  ,2.8
7126  ,1.856e+09   ,-2.5  ,-2.4  ,2.8
7128  ,4.659e+08   ,-2.4707  ,-2.4707  ,0.1
7129  ,4.526e+08   ,-2.4  ,-2.4707  ,0.029289
7141  ,8.984e+08   ,-1.7  ,-2.4  ,5
7145  ,7.540e+08   ,1.1  ,2.4  ,0
7163  ,5.971e+08   ,-1.7102  ,2.4  ,5
7172  ,1.484e+09   ,2.5  ,-2.4  ,3.2
7174  ,7.712e+08   ,-2.5  ,2.4  ,3.6
7183  ,9.390e+08   ,-1.4531  ,-2.5  ,4.8
7204  ,2.392e+09   ,2.3  ,-0.81068  ,4.8
7220  ,9.477e+08   ,2.5  ,0.063638  ,4.9
7227  ,4.960e+08   ,2.5  ,-1.9  ,0.1
7256  ,1.403e+09   ,-0.1  ,-2.4  ,5
7280  ,1.050e+09   ,-0.33054  ,2.4  ,5
7299  ,1.401e+09   ,2.5  ,-1.1189  ,4.9
7316  ,4.346e+08   ,-2.5  ,-2.4  ,0.8
7323  ,2.331e+08   ,-2.4  ,-2.5  ,1
7396  ,7.343e+08   ,1.1  ,-2.4  ,5
7400  ,8.149e+08   ,-2.5  ,0.7  ,0.1
7409  ,4.074e+08   ,1.3  ,-2.4  ,5
7420  ,4.685e+08   ,2.5  ,2.1  ,0.1
7429  ,6.537e+08   ,2.4  ,1.9  ,0
7436  ,4.098e+08   ,2.5  ,-1.7  ,0.1
7438  ,2.541e+08   ,2.4  ,-2.5  ,2.8
7445  ,2.726e+09   ,2.4325  ,2.1656  ,4.9888
7464  ,2.825e+08   ,2.5  ,-1.5  ,0.1
7480  ,8.637e+08   ,2.5  ,-2.4  ,0.2
7482  ,3.596e+08   ,1.9  ,-2.5  ,0.1
7483  ,3.434e+08   ,1.7  ,-2.5  ,0.1
7486  ,2.106e+09   ,1.9  ,-2.4  ,5
7488  ,1.692e+09   ,1.6937  ,-2.5  ,4.8
7492  ,3.155e+09   ,2.1  ,-2.4  ,5
7495  ,3.084e+08   ,0.1  ,-2.5  ,0.1
7504  ,1.880e+09   ,0.3  ,-2.4  ,0
7507  ,4.227e+08   ,0.9  ,-2.5  ,0.1
7533  ,7.830e+08   ,-2.5  ,0.9  ,0.1
7536  ,2.485e+08   ,-2.4  ,-2.5  ,3.2
7540  ,2.620e+08   ,-2.4  ,-2.5  ,3
7545  ,1.844e+09   ,-2.5  ,-2.4  ,3
7582  ,7.173e+08   ,1.3  ,2.5  ,0.1
7588  ,9.409e+08   ,2.5  ,2.4  ,2.3665
7598  ,7.267e+08   ,-2.5  ,2.4  ,4.2
7607  ,6.599e+08   ,1.5333  ,2.3  ,0.2
7627  ,6.330e+08   ,-2.5  ,1.1  ,4.9
7651  ,4.343e+08   ,2.4  ,-1.9  ,0
7656  ,3.557e+08   ,2.5  ,2.4  ,0.39564
7660  ,3.915e+09   ,2.2299  ,2.3  ,4.7299
7668  ,8.963e+08   ,1.4531  ,-2.5  ,4.8
7676  ,7.407e+07   ,0.1  ,-2.5  ,4.9
7683  ,1.479e+09   ,0.1  ,-2.4  ,5
7686  ,3.320e+08   ,-2.4  ,-1.1  ,5
7702  ,3.561e+08   ,-2.3  ,-2.5  ,4.433
7710  ,6.690e+08   ,-2.3  ,-2.5  ,4.6765
7752  ,1.283e+09   ,0.9  ,-2.4  ,5
7763  ,1.312e+09   ,0.24243  ,-2.5  ,4.8
7767  ,1.708e+09   ,-2.5  ,-2.4  ,3.2
7768  ,4.593e+08   ,-2.4  ,-2.1  ,0
7776  ,8.448e+08   ,-2.4  ,0.9  ,0
7786  ,1.207e+09   ,-0.4838  ,-2.5  ,4.8
7800  ,3.117e+09   ,2.5  ,-2.4  ,4.6
7805  ,2.880e+08   ,-2.5  ,-1.3  ,4.9
7811  ,3.327e+08   ,-2.5  ,-1.1  ,4.9
7820  ,5.436e+08   ,2.5  ,-2.1  ,0.1
7824  ,4.010e+08   ,2.4  ,-2.1  ,0
7828  ,4.064e+08   ,2.4  ,-2.5  ,4.2
7831  ,7.942e+08   ,2.4  ,-2.5  ,4
7838  ,1.477e+09   ,2.5  ,-2.4  ,4.2
7839  ,7.396e+08   ,2.5  ,2.4  ,2.7607
7840  ,6.811e+08   ,2.5  ,2.4  ,2.9578
7863  ,5.209e+08   ,-2.4  ,-1.5  ,0
7890  ,8.509e+08   ,2.4  ,0.9  ,0
7897  ,6.436e+08   ,-2.4  ,-0.7  ,0
7912  ,4.581e+08   ,-1.5  ,-2.4  ,0
7917  ,1.366e+08   ,-1.3  ,-2.5  ,0.1
7931  ,5.829e+08   ,0.5  ,2.4  ,0
7934  ,1.273e+09   ,1.1  ,-2.4  ,0
7937  ,3.647e+08   ,2.4  ,-2.5  ,0.8
7941  ,1.323e+08   ,-2.4  ,-2.5  ,0.6
7969  ,3.169e+08   ,-2.5  ,2.3  ,0.1
7971  ,5.535e+08   ,-2.4  ,1.9  ,0
7972  ,7.384e+08   ,-1.9  ,2.5  ,0.1
7978  ,8.170e+08   ,-2.4  ,1.1  ,0
7996  ,4.028e+08   ,-2.4  ,-0.5  ,5
8000  ,5.266e+08   ,-2.5  ,-2.4  ,0.6
8003  ,7.718e+08   ,-2.5  ,-2.4  ,0.4
8025  ,1.080e+09   ,0.9  ,2.5  ,0.1
8035  ,3.140e+08   ,0.3  ,2.5  ,0.1
8039  ,9.920e+08   ,2.3  ,-2.5  ,0.32348
8041  ,4.465e+08   ,2.3  ,-2.3379  ,0.2
8043  ,6.964e+08   ,2.1765  ,-2.5  ,0.2
8045  ,1.275e+08   ,-0.96359  ,-2.5  ,0.2
8054  ,6.078e+08   ,1.3  ,2.4  ,0
8058  ,8.832e+08   ,1.1  ,2.5  ,0.1
8062  ,8.631e+08   ,-2.5  ,2.4  ,1.4
8067  ,7.158e+08   ,-2.5  ,2.4  ,0.8
8087  ,6.870e+08   ,-2.5  ,1.5  ,0.1
8132  ,9.850e+08   ,-0.13345  ,2.4  ,5
8183  ,2.751e+08   ,2.5  ,-0.9  ,0.1
8184  ,2.483e+08   ,1.6937  ,-2.5  ,0.2
8214  ,5.020e+08   ,-2.4707  ,-2.4  ,4.9707
8217  ,1.170e+09   ,-2.1  ,-2.4  ,5
8219  ,2.910e+08   ,-2.4  ,-2.5  ,4.4
8227  ,7.011e+08   ,2.5  ,2.4  ,3.1549
8242  ,5.611e+08   ,0.7  ,-2.5  ,4.9
8248  ,8.529e+08   ,2.5  ,-2.4  ,3.6
8254  ,4.427e+08   ,2.5  ,-0.3  ,0.1
8256  ,3.002e+08   ,2.5  ,-0.5  ,0.1
8258  ,1.080e+08   ,-0.3  ,-2.5  ,4.9
8263  ,2.683e+08   ,-0.5  ,-2.5  ,4.9
8268  ,8.471e+08   ,-2.3  ,-2.5  ,3.7085
8277  ,2.866e+08   ,-0.1  ,-2.5  ,0.1
8285  ,6.584e+08   ,1.1  ,-2.5  ,4.9
8307  ,3.064e+08   ,0.1  ,2.4  ,0
8308  ,2.928e+08   ,-0.1  ,2.5  ,0.1
8309  ,2.913e+08   ,-0.1  ,2.4  ,0
8313  ,5.132e+08   ,2.5  ,-2.3  ,0.1
8318  ,1.516e+09   ,2.5  ,-2.4  ,3
8338  ,6.290e+08   ,2.5  ,2.4  ,3.352
8339  ,7.123e+08   ,2.4  ,2.5  ,3.1549
8344  ,9.122e+08   ,-2.5  ,2.4  ,3.4
8357  ,2.757e+09   ,2.4888  ,2.1656  ,4.9325
8358  ,1.669e+09   ,2.5  ,2.1998  ,4.8333
8383  ,5.066e+08   ,-1.7  ,-2.4  ,0
8396  ,5.795e+08   ,1.1  ,-2.5  ,0.1
8399  ,1.120e+09   ,2.4526  ,2.1331  ,4.9851
8405  ,7.245e+08   ,2.5  ,-2.4  ,1
8412  ,1.001e+09   ,2.3  ,-2.5  ,0.8063
8417  ,1.095e+09   ,-2.3  ,-2.5  ,2.5
8434  ,5.154e+08   ,0.9636  ,-2.5  ,4.8
8438  ,2.684e+08   ,-0.3  ,-2.5  ,0.1
8452  ,6.859e+08   ,-2.4  ,-0.1  ,5
8468  ,8.937e+08   ,2.5  ,2.4  ,3.7462
8471  ,2.221e+08   ,-1.3  ,-2.5  ,4.9
8493  ,2.188e+08   ,-1.1  ,-2.5  ,4.9
8509  ,4.806e+08   ,-2.5  ,-1.7  ,0.1
8517  ,5.671e+08   ,-2.4  ,2.5  ,3
8531  ,6.086e+08   ,-2.4  ,1.7  ,0
8556  ,7.212e+08   ,2.5  ,2.4  ,3.5491
8573  ,1.088e+09   ,-1.316  ,2.4  ,5
8576  ,7.980e+08   ,-2.4  ,1.3  ,0
8611  ,8.426e+08   ,2.3  ,-2.5  ,1.2915
8618  ,7.433e+08   ,-2.4  ,2.5  ,4
8646  ,8.399e+08   ,-2.5  ,1.1  ,0.1
8656  ,3.235e+08   ,2.5  ,-1.3  ,0.1
8657  ,5.659e+08   ,2.4  ,2.1  ,0
8673  ,7.658e+08   ,-1.3  ,2.4  ,0
8692  ,9.101e+08   ,0.72263  ,-2.5  ,4.8
8696  ,8.856e+08   ,2.3  ,-2.5  ,1.0469
8706  ,6.873e+08   ,2.5  ,0.65491  ,4.9
8721  ,2.725e+08   ,-2.4  ,-2.5  ,1.6
8725  ,7.529e+08   ,0.65491  ,2.4  ,5
8739  ,1.424e+10   ,2.1656  ,2.4325  ,4.9888
8741  ,3.021e+09   ,2.1998  ,2.3333  ,5
8746  ,7.432e+08   ,-2.1  ,-2.4  ,0
8748  ,3.395e+08   ,-2.5  ,-2.4  ,1.2
8752  ,4.683e+09   ,2.1331  ,2.4526  ,4.9851
8759  ,6.810e+08   ,-2.3  ,-2.5  ,1.0469
8787  ,1.540e+09   ,-0.1  ,-2.4  ,0
8793  ,9.018e+08   ,-2.3  ,-2.5  ,2.2576
8795  ,3.303e+08   ,-2.4  ,-2.5  ,2.4
8798  ,2.221e+08   ,-2.3  ,-2.5  ,4.1937
8808  ,4.541e+08   ,-2.3  ,-2.5  ,3.9531
8814  ,4.717e+08   ,-2.4  ,-1.5  ,5
8849  ,1.138e+09   ,0.4838  ,-2.5  ,4.8
8851  ,3.710e+08   ,-2.4  ,-2.5  ,4.2
8868  ,2.586e+08   ,2.4  ,-2.5  ,3
8874  ,7.011e+08   ,0.852  ,2.4  ,5
8883  ,1.163e+09   ,-0.5  ,-2.4  ,5
8886  ,1.001e+09   ,-0.72262  ,-2.5  ,4.8
8893  ,7.975e+07   ,-0.7  ,-2.5  ,4.9
8897  ,1.269e+09   ,-2.5  ,-2.4  ,3.6
8899  ,1.260e+09   ,-2.3  ,-2.5  ,3.4636
8900  ,4.551e+08   ,-2.3  ,-1.4729  ,0.2
8906  ,5.424e+08   ,-2.5  ,-1.3  ,0.1
8910  ,7.136e+08   ,0.852  ,2.5  ,4.9
8925  ,7.445e+08   ,-2.4  ,2.5  ,1.4
8941  ,1.121e+08   ,2.4707  ,2.4  ,0.029289
8942  ,2.071e+08   ,2.5  ,2.3  ,0.1
8945  ,7.786e+08   ,-2.5  ,0.1  ,4.9
8950  ,1.141e+08   ,2.4707  ,2.4707  ,0.1
8951  ,1.039e+08   ,2.4  ,2.4707  ,0.029289
8959  ,6.801e+08   ,2.4  ,0.26073  ,5
8965  ,7.189e+08   ,0.45782  ,2.4  ,5
8978  ,5.381e+08   ,2.4  ,0.852  ,5
8983  ,2.820e+08   ,2.5  ,-1.1  ,0.1
8991  ,6.911e+08   ,-2.5  ,2.4  ,0.6
9008  ,6.000e+08   ,2.5  ,0.852  ,4.9
9011  ,7.141e+08   ,-2.4  ,-0.5  ,0
9025  ,1.068e+08   ,-1.5  ,-2.5  ,0.1
9038  ,3.049e+08   ,2.4  ,-2.5  ,2
9041  ,1.052e+09   ,2.5  ,0.9  ,0.1
9050  ,7.511e+08   ,2.5  ,0.5  ,0.1
9054  ,1.448e+09   ,0.9  ,-2.4  ,0
9060  ,2.776e+08   ,2.4  ,-2.5  ,0.4
9062  ,1.117e+09   ,2.3  ,-2.5  ,0.56701
9064  ,1.154e+09   ,2.5  ,-2.4  ,0.4
9069  ,1.400e+08   ,2.4  ,-2.5  ,0.6
9071  ,5.238e+08   ,1.4531  ,-2.5  ,0.2
9082  ,4.822e+08   ,-2.3  ,-2.5  ,1.2915
9086  ,1.141e+08   ,-2.4  ,-2.5  ,1.4
9091  ,1.782e+08   ,-2.5  ,-2.4  ,1.4
9094  ,6.381e+08   ,1.3  ,-2.5  ,4.9
9097  ,2.664e+08   ,-0.7  ,-2.5  ,0.1
9137  ,3.222e+08   ,-2.5  ,-0.7  ,4.9
9143  ,6.522e+08   ,-2.5  ,-0.1  ,4.9
9146  ,6.503e+08   ,-2.1  ,2.4  ,0
9148  ,6.308e+08   ,-2.5  ,1.7  ,4.9
9173  ,5.851e+08   ,-2.5  ,2.4  ,3
9192  ,9.401e+08   ,-0.7  ,-2.4  ,5
9195  ,1.342e+09   ,0.72263  ,-2.5  ,0.2
9209  ,1.276e+09   ,2.5  ,-2.4  ,3.4
9215  ,1.219e+09   ,0.9636  ,-2.5  ,0.2
9217  ,3.471e+08   ,2.4  ,-2.5  ,3.2
9218  ,9.390e+08   ,-0.96359  ,-2.5  ,4.8
9229  ,4.461e+08   ,-2.4  ,2.5  ,2.8
9248  ,2.389e+09   ,2.3  ,-2.5  ,4.433
9255  ,7.679e+08   ,2.5  ,1.3  ,0.1
9257  ,5.863e+08   ,2.4  ,1.5  ,0
9262  ,1.562e+09   ,0.5  ,-2.4  ,5
9264  ,8.166e+08   ,2.4  ,-0.13345  ,5
9272  ,7.302e+08   ,0.063638  ,2.4  ,5
9277  ,8.271e+08   ,-2.5  ,2.4  ,1.2
9279  ,7.780e+08   ,2.5  ,0.26073  ,4.9
9282  ,3.418e+08   ,1.2085  ,-2.5  ,4.8
9286  ,7.325e+08   ,0.9  ,-2.5  ,4.9
9292  ,1.498e+08   ,-2.4  ,2.4707  ,4.9707
9293  ,1.452e+08   ,-2.3015  ,2.4  ,5
9296  ,4.915e+08   ,-2.4  ,-2.1  ,5
9303  ,4.716e+08   ,-2.4  ,-1.9  ,5
9311  ,1.963e+08   ,-2.4  ,2.3  ,5
9313  ,7.566e+08   ,-2.4  ,0.1  ,5
9319  ,1.122e+09   ,-0.5  ,-2.4  ,0
9328  ,1.296e+08   ,-2.3  ,-2.5  ,1.5364
9334  ,4.943e+08   ,-2.3  ,2.5  ,0.1
9338  ,1.531e+09   ,-2.5  ,-2.4  ,2.4
9339  ,7.416e+08   ,-2.5  ,1.3  ,0.1
9341  ,1.330e+09   ,-2.3  ,-2.5  ,2.7424
9344  ,1.348e+09   ,-2.5  ,-2.4  ,2.2
9358  ,9.257e+08   ,-2.3  ,2.3  ,2.5
9364  ,3.909e+08   ,-2.5  ,-2.1  ,4.9
9367  ,5.771e+08   ,-2.4  ,-2.3  ,5
9374  ,3.372e+08   ,-2.4  ,-1.3  ,5
9378  ,3.526e+08   ,-2.5  ,2.4  ,1.8
9384  ,1.303e+09   ,2.3  ,-2.5  ,2.0162
9385  ,7.280e+08   ,-2.5  ,2.4  ,4.4
9389  ,2.651e+08   ,-2.5  ,2.4  ,2
9395  ,1.624e+09   ,2.4  ,-2.3015  ,5
9396  ,4.744e+08   ,-2.4  ,-1.7  ,0
9407  ,3.328e+08   ,-2.3  ,-1.4729  ,4.8
9411  ,3.107e+08   ,-2.5  ,-1.7  ,4.9
9423  ,6.569e+08   ,-2.4  ,-2.5  ,3.6
9432  ,1.584e+09   ,0.7  ,-2.4  ,5
9438  ,3.074e+08   ,-2.5  ,-0.9  ,4.9
9443  ,5.548e+08   ,-2.5  ,-0.3  ,4.9
9445  ,1.191e+08   ,-2.4707  ,2.4  ,4.9707
9448  ,1.358e+09   ,2.4  ,-1.1189  ,5
9453  ,9.403e+08   ,2.4  ,0.7  ,0
9455  ,1.493e+09   ,2.5  ,-2.4  ,2.6
9457  ,1.086e+09   ,2.3  ,-2.5  ,2.9838
9494  ,7.709e+08   ,-2.4  ,2.5  ,1
9500  ,2.424e+08   ,0.3  ,-2.5  ,4.9
9504  ,1.546e+09   ,0.3  ,-2.4  ,5
9506  ,2.571e+08   ,2.1  ,-2.5  ,0.1
9518  ,1.218e+08   ,-1.9  ,-2.5  ,0.1
9528  ,4.821e+08   ,2.3  ,-2.5  ,0.1
9531  ,7.813e+08   ,2.4707  ,-2.4707  ,0.1
9533  ,4.917e+08   ,2.4707  ,-2.4  ,0.029289
9534  ,5.983e+08   ,2.4  ,-2.4707  ,0.029289
9541  ,2.843e+08   ,0.5  ,-2.5  ,4.9
9544  ,2.657e+08   ,-0.5  ,-2.5  ,0.1
9559  ,3.408e+08   ,-2.5  ,-1.9  ,4.9
9562  ,6.710e+08   ,-2.5  ,2.4  ,4.6
9565  ,2.906e+08   ,-2.4  ,2.5  ,2
9571  ,9.055e+08   ,-2.5  ,-2.4  ,3.8
9574  ,5.514e+08   ,-2.4  ,-2.5  ,3.8
9577  ,6.355e+08   ,1.3  ,-2.5  ,0.1
9582  ,5.925e+08   ,-2.5  ,-0.9  ,0.1
9596  ,6.208e+08   ,2.1  ,2.4  ,0
9598  ,9.440e+08   ,-2.4  ,2.5  ,3.2
9602  ,7.480e+08   ,1.5  ,2.5  ,0.1
9610  ,3.643e+08   ,2.4  ,2.5  ,0.39564
9612  ,1.360e+09   ,-0.72473  ,2.5  ,4.9
9614  ,7.391e+08   ,1.7  ,2.5  ,0.1
9635  ,6.280e+08   ,2.5  ,1.7  ,0.1
9646  ,3.186e+08   ,2.3  ,2.5  ,0.1
9651  ,1.358e+10   ,2.1656  ,2.4888  ,4.9325
9653  ,1.423e+09   ,2.5  ,-1.316  ,4.9
9656  ,3.612e+08   ,-2.4  ,-1.7  ,5
9659  ,2.941e+09   ,2.3  ,-2.5  ,4.6765
9661  ,1.077e+09   ,2.3  ,-2.5  ,3.9531
9664  ,8.540e+08   ,-2.3  ,-2.4  ,5
9666  ,4.549e+08   ,1.9  ,-2.4  ,0
9677  ,8.511e+08   ,2.4  ,0.5  ,0
9678  ,5.630e+08   ,-2.5  ,-1.1  ,0.1
9680  ,1.041e+09   ,2.5  ,2.4  ,1.184
9681  ,1.264e+08   ,2.5  ,2.4  ,0.19855
9696  ,6.756e+08   ,-2.3  ,-2.5  ,2.0162
9698  ,4.795e+08   ,2.4  ,-2.3  ,0
9699  ,8.606e+08   ,-0.24243  ,-2.5  ,0.2
9701  ,1.709e+09   ,0.1  ,-2.4  ,0
9704  ,6.727e+08   ,-0.4838  ,-2.5  ,0.2
9718  ,4.326e+08   ,-0.72262  ,-2.5  ,0.2
9726  ,6.435e+08   ,2.3  ,-0.76628  ,0.2
9727  ,6.522e+08   ,-2.5  ,2.4  ,0.4
9730  ,1.387e+09   ,1.9433E-06  ,-2.5  ,4.8
9731  ,1.366e+09   ,-0.24243  ,-2.5  ,4.8
9732  ,3.052e+08   ,-2.5  ,2.4  ,2.2
9738  ,5.305e+08   ,-2.5  ,-2.4  ,4
9743  ,9.738e+08   ,-1.6937  ,-2.5  ,4.8
9744  ,4.738e+08   ,-2.4  ,-2.5  ,4
9750  ,1.817e+08   ,-1.7  ,-2.5  ,0.1
9752  ,7.179e+08   ,-1.6937  ,-2.5  ,0.2
9754  ,3.429e+08   ,-1.3  ,-2.4  ,0
9759  ,2.024e+08   ,-2.4707  ,2.4  ,0.029289
9760  ,2.253e+08   ,-2.4  ,2.4707  ,0.029289
9768  ,1.813e+09   ,2.3  ,-2.5  ,4.1937
9770  ,1.119e+09   ,1.9433E-06  ,-2.5  ,0.2
9771  ,1.501e+09   ,0.4838  ,-2.5  ,0.2
9772  ,4.916e+08   ,2.4  ,-2.5  ,0.2
9773  ,6.038e+08   ,2.4  ,-2.5  ,4.6
9776  ,7.642e+08   ,2.4  ,0.063638  ,5
9780  ,7.408e+08   ,0.65491  ,2.5  ,4.9
9781  ,2.044e+08   ,2.4  ,2.5  ,0.19855
9782  ,1.429e+09   ,-2.3  ,-2.5  ,2.9838
9786  ,4.233e+08   ,-1.2085  ,-2.5  ,0.2
9787  ,6.439e+08   ,-1.4531  ,-2.5  ,0.2
9790  ,6.986e+08   ,2.3  ,-2.4  ,0
9793  ,3.662e+09   ,2.0345  ,2.4  ,5
9797  ,8.866e+08   ,2.3  ,-2.5  ,1.5364
9798  ,5.692e+08   ,2.4  ,1.0491  ,5
9809  ,6.651e+08   ,2.4  ,2.5  ,3.352
