Date:  11:17, Monday, July 10, 2023
Model name: Hollow_DropBox
Study name: Drop Test_hollow_draft1(-Default-)
Plot type:  Stress1
Plot step: 7   time : 36.7287 Microseconds
Result Type: von Mises 


Node  ,Value (N/m^2)  ,X (in)  ,Y (in)  ,Z (in)
1  ,4.634e+09   ,2.5  ,2.1331  ,4.9
2  ,2.101e+10   ,2.4577  ,2.1908  ,4.9577
3  ,7.572e+09   ,2.4894  ,2.1331  ,4.9447
4  ,4.540e+09   ,2.1331  ,2.5  ,4.9
5  ,7.706e+09   ,2.1331  ,2.4894  ,4.9447
6  ,1.928e+10   ,2.1908  ,2.4577  ,4.9577
7  ,6.454e+07   ,-2.4  ,2.4  ,5
8  ,1.306e+08   ,-2.4  ,-2.4  ,5
9  ,7.917e+07   ,2.4  ,-2.4  ,5
10  ,4.623e+09   ,2.4  ,2.1331  ,5
11  ,4.725e+09   ,2.1331  ,2.4  ,5
12  ,8.040e+07   ,2.5  ,-2.4  ,4.9
13  ,1.265e+08   ,2.5  ,-2.4  ,0.1
14  ,7.078e+07   ,2.5  ,2.4  ,0.1
15  ,5.110e+09   ,2.5  ,2.4  ,4.6331
16  ,7.069e+07   ,2.4  ,2.5  ,0.1
17  ,4.514e+07   ,-2.4  ,2.5  ,0.1
18  ,4.675e+07   ,-2.4  ,2.5  ,4.9
19  ,5.138e+09   ,2.4  ,2.5  ,4.6331
20  ,5.949e+07   ,-2.5  ,2.4  ,0.1
21  ,8.342e+05   ,-2.5  ,-2.4  ,0.1
22  ,7.204e+07   ,-2.5  ,-2.4  ,4.9
23  ,8.811e+07   ,-2.5  ,2.4  ,4.9
24  ,2.325e+06   ,-2.3  ,-2.5  ,0.2
25  ,2.174e+08   ,-2.3  ,-2.5  ,4.8
26  ,8.036e+07   ,2.3  ,-2.5  ,4.8
27  ,2.121e+08   ,2.3  ,-2.5  ,0.2
28  ,9.434e+07   ,-2.4  ,-2.5  ,4.9
29  ,7.532e+07   ,2.4  ,-2.5  ,4.9
30  ,1.793e+06   ,-2.4  ,-2.5  ,0.1
31  ,1.121e+08   ,2.4  ,-2.5  ,0.1
32  ,8.154e+07   ,2.4  ,-2.4  ,0
33  ,9.017e+07   ,2.4  ,2.4  ,0
34  ,1.084e+06   ,-2.4  ,-2.4  ,0
35  ,5.991e+07   ,-2.4  ,2.4  ,0
36  ,1.888e+10   ,2.4577  ,2.4577  ,4.6908
37  ,9.339e+07   ,-2.3  ,2.3  ,4.8
38  ,5.769e+09   ,2.1599  ,2.3  ,4.8
39  ,5.650e+09   ,2.3  ,2.1599  ,4.8
40  ,5.481e+09   ,2.3  ,2.3  ,4.6599
41  ,7.985e+07   ,2.3  ,2.3  ,0.2
42  ,8.873e+07   ,-2.3  ,2.3  ,0.2
43  ,1.214e+08   ,-2.4  ,2.2  ,5
44  ,1.198e+08   ,-2.4  ,2  ,5
45  ,9.495e+07   ,-2.4  ,1.8  ,5
46  ,1.112e+08   ,-2.4  ,1.6  ,5
47  ,1.035e+08   ,-2.4  ,1.4  ,5
48  ,1.154e+08   ,-2.4  ,1.2  ,5
49  ,1.128e+08   ,-2.4  ,1  ,5
50  ,1.535e+08   ,-2.4  ,0.8  ,5
51  ,1.695e+08   ,-2.4  ,0.6  ,5
52  ,1.655e+08   ,-2.4  ,0.4  ,5
53  ,1.658e+08   ,-2.4  ,0.2  ,5
54  ,1.205e+08   ,-2.4  ,5.8879E-16  ,5
55  ,1.427e+08   ,-2.4  ,-0.2  ,5
56  ,1.568e+08   ,-2.4  ,-0.4  ,5
57  ,1.279e+08   ,-2.4  ,-0.6  ,5
58  ,1.294e+08   ,-2.4  ,-0.8  ,5
59  ,1.460e+08   ,-2.4  ,-1  ,5
60  ,1.625e+08   ,-2.4  ,-1.2  ,5
61  ,1.559e+08   ,-2.4  ,-1.4  ,5
62  ,1.196e+08   ,-2.4  ,-1.6  ,5
63  ,5.859e+07   ,-2.4  ,-1.8  ,5
64  ,7.753e+07   ,-2.4  ,-2  ,5
65  ,8.480e+07   ,-2.4  ,-2.2  ,5
66  ,1.194e+08   ,-2.2  ,-2.4  ,5
67  ,1.250e+08   ,-2  ,-2.4  ,5
68  ,1.611e+08   ,-1.8  ,-2.4  ,5
69  ,1.753e+08   ,-1.6  ,-2.4  ,5
70  ,1.571e+08   ,-1.4  ,-2.4  ,5
71  ,1.521e+08   ,-1.2  ,-2.4  ,5
72  ,1.046e+08   ,-1  ,-2.4  ,5
73  ,1.170e+08   ,-0.8  ,-2.4  ,5
74  ,1.697e+08   ,-0.6  ,-2.4  ,5
75  ,2.240e+08   ,-0.4  ,-2.4  ,5
76  ,2.337e+08   ,-0.2  ,-2.4  ,5
77  ,2.306e+08   ,-5.8879E-16  ,-2.4  ,5
78  ,1.811e+08   ,0.2  ,-2.4  ,5
79  ,1.826e+08   ,0.4  ,-2.4  ,5
80  ,1.723e+08   ,0.6  ,-2.4  ,5
81  ,1.353e+08   ,0.8  ,-2.4  ,5
82  ,1.357e+08   ,1  ,-2.4  ,5
83  ,1.699e+08   ,1.2  ,-2.4  ,5
84  ,1.991e+08   ,1.4  ,-2.4  ,5
85  ,1.827e+08   ,1.6  ,-2.4  ,5
86  ,1.045e+08   ,1.8  ,-2.4  ,5
87  ,7.742e+07   ,2  ,-2.4  ,5
88  ,1.082e+08   ,2.2  ,-2.4  ,5
89  ,1.004e+08   ,2.4  ,-2.2029  ,5
90  ,1.744e+08   ,2.4  ,-2.0058  ,5
91  ,2.409e+08   ,2.4  ,-1.8087  ,5
92  ,2.180e+08   ,2.4  ,-1.6116  ,5
93  ,1.830e+08   ,2.4  ,-1.4145  ,5
94  ,1.458e+08   ,2.4  ,-1.2175  ,5
95  ,1.507e+08   ,2.4  ,-1.0204  ,5
96  ,1.449e+08   ,2.4  ,-0.82327  ,5
97  ,1.751e+08   ,2.4  ,-0.62618  ,5
98  ,2.030e+08   ,2.4  ,-0.42909  ,5
99  ,3.219e+08   ,2.4  ,-0.232  ,5
100  ,4.555e+08   ,2.4  ,-0.034907  ,5
101  ,5.546e+08   ,2.4  ,0.16218  ,5
102  ,6.449e+08   ,2.4  ,0.35927  ,5
103  ,7.960e+08   ,2.4  ,0.55637  ,5
104  ,9.186e+08   ,2.4  ,0.75346  ,5
105  ,9.233e+08   ,2.4  ,0.95055  ,5
106  ,8.141e+08   ,2.4  ,1.1476  ,5
107  ,1.227e+09   ,2.4  ,1.3447  ,5
108  ,1.652e+09   ,2.4  ,1.5418  ,5
109  ,2.187e+09   ,2.4  ,1.7389  ,5
110  ,3.643e+09   ,2.4  ,1.936  ,5
111  ,4.810e+09   ,2.2665  ,2.2665  ,5
112  ,3.625e+09   ,1.936  ,2.4  ,5
113  ,2.185e+09   ,1.7389  ,2.4  ,5
114  ,1.753e+09   ,1.5418  ,2.4  ,5
115  ,1.321e+09   ,1.3447  ,2.4  ,5
116  ,1.023e+09   ,1.1476  ,2.4  ,5
117  ,9.378e+08   ,0.95055  ,2.4  ,5
118  ,9.524e+08   ,0.75346  ,2.4  ,5
119  ,7.629e+08   ,0.55637  ,2.4  ,5
120  ,6.606e+08   ,0.35927  ,2.4  ,5
121  ,6.247e+08   ,0.16218  ,2.4  ,5
122  ,4.903e+08   ,-0.034907  ,2.4  ,5
123  ,3.887e+08   ,-0.232  ,2.4  ,5
124  ,2.366e+08   ,-0.42909  ,2.4  ,5
125  ,1.547e+08   ,-0.62618  ,2.4  ,5
126  ,1.110e+08   ,-0.82327  ,2.4  ,5
127  ,1.277e+08   ,-1.0204  ,2.4  ,5
128  ,1.519e+08   ,-1.2175  ,2.4  ,5
129  ,1.292e+08   ,-1.4145  ,2.4  ,5
130  ,1.527e+08   ,-1.6116  ,2.4  ,5
131  ,1.439e+08   ,-1.8087  ,2.4  ,5
132  ,1.412e+08   ,-2.0058  ,2.4  ,5
133  ,1.043e+08   ,-2.2029  ,2.4  ,5
294  ,1.001e+08   ,2.5  ,-2.2029  ,4.9
295  ,1.834e+08   ,2.5  ,-2.0058  ,4.9
296  ,2.456e+08   ,2.5  ,-1.8087  ,4.9
297  ,2.009e+08   ,2.5  ,-1.6116  ,4.9
298  ,1.689e+08   ,2.5  ,-1.4145  ,4.9
299  ,1.443e+08   ,2.5  ,-1.2175  ,4.9
300  ,1.658e+08   ,2.5  ,-1.0204  ,4.9
301  ,1.381e+08   ,2.5  ,-0.82327  ,4.9
302  ,1.118e+08   ,2.5  ,-0.62618  ,4.9
303  ,2.073e+08   ,2.5  ,-0.42909  ,4.9
304  ,3.373e+08   ,2.5  ,-0.232  ,4.9
305  ,4.754e+08   ,2.5  ,-0.034907  ,4.9
306  ,6.042e+08   ,2.5  ,0.16218  ,4.9
307  ,6.391e+08   ,2.5  ,0.35927  ,4.9
308  ,7.587e+08   ,2.5  ,0.55637  ,4.9
309  ,8.645e+08   ,2.5  ,0.75346  ,4.9
310  ,9.206e+08   ,2.5  ,0.95055  ,4.9
311  ,1.029e+09   ,2.5  ,1.1476  ,4.9
312  ,1.250e+09   ,2.5  ,1.3447  ,4.9
313  ,1.666e+09   ,2.5  ,1.5418  ,4.9
314  ,2.563e+09   ,2.5  ,1.7389  ,4.9
315  ,3.868e+09   ,2.5  ,1.936  ,4.9
316  ,1.108e+08   ,2.5  ,-2.4  ,4.7
317  ,7.771e+07   ,2.5  ,-2.4  ,4.5
318  ,1.120e+08   ,2.5  ,-2.4  ,4.3
319  ,2.058e+08   ,2.5  ,-2.4  ,4.1
320  ,2.122e+08   ,2.5  ,-2.4  ,3.9
321  ,1.943e+08   ,2.5  ,-2.4  ,3.7
322  ,1.366e+08   ,2.5  ,-2.4  ,3.5
323  ,1.727e+08   ,2.5  ,-2.4  ,3.3
324  ,2.042e+08   ,2.5  ,-2.4  ,3.1
325  ,1.828e+08   ,2.5  ,-2.4  ,2.9
326  ,1.767e+08   ,2.5  ,-2.4  ,2.7
327  ,1.919e+08   ,2.5  ,-2.4  ,2.5
328  ,1.870e+08   ,2.5  ,-2.4  ,2.3
329  ,1.506e+08   ,2.5  ,-2.4  ,2.1
330  ,8.598e+07   ,2.5  ,-2.4  ,1.9
331  ,5.766e+07   ,2.5  ,-2.4  ,1.7
332  ,6.495e+07   ,2.5  ,-2.4  ,1.5
333  ,1.097e+08   ,2.5  ,-2.4  ,1.3
334  ,1.372e+08   ,2.5  ,-2.4  ,1.1
335  ,1.642e+08   ,2.5  ,-2.4  ,0.9
336  ,1.666e+08   ,2.5  ,-2.4  ,0.7
337  ,1.063e+08   ,2.5  ,-2.4  ,0.5
338  ,1.054e+08   ,2.5  ,-2.4  ,0.3
339  ,7.644e+07   ,2.5  ,-2.2  ,0.1
340  ,6.480e+07   ,2.5  ,-2  ,0.1
341  ,6.799e+07   ,2.5  ,-1.8  ,0.1
342  ,1.264e+08   ,2.5  ,-1.6  ,0.1
343  ,1.528e+08   ,2.5  ,-1.4  ,0.1
344  ,1.736e+08   ,2.5  ,-1.2  ,0.1
345  ,1.458e+08   ,2.5  ,-1  ,0.1
346  ,1.175e+08   ,2.5  ,-0.8  ,0.1
347  ,1.310e+08   ,2.5  ,-0.6  ,0.1
348  ,1.473e+08   ,2.5  ,-0.4  ,0.1
349  ,1.222e+08   ,2.5  ,-0.2  ,0.1
350  ,1.223e+08   ,2.5  ,-1.7664E-15  ,0.1
351  ,1.300e+08   ,2.5  ,0.2  ,0.1
352  ,2.026e+08   ,2.5  ,0.4  ,0.1
353  ,1.740e+08   ,2.5  ,0.6  ,0.1
354  ,1.911e+08   ,2.5  ,0.8  ,0.1
355  ,1.607e+08   ,2.5  ,1  ,0.1
356  ,1.326e+08   ,2.5  ,1.2  ,0.1
357  ,1.360e+08   ,2.5  ,1.4  ,0.1
358  ,1.297e+08   ,2.5  ,1.6  ,0.1
359  ,1.148e+08   ,2.5  ,1.8  ,0.1
360  ,1.120e+08   ,2.5  ,2  ,0.1
361  ,1.373e+08   ,2.5  ,2.2  ,0.1
362  ,3.695e+09   ,2.5  ,2.4  ,4.436
363  ,2.541e+09   ,2.5  ,2.4  ,4.2389
364  ,1.685e+09   ,2.5  ,2.4  ,4.0418
365  ,1.411e+09   ,2.5  ,2.4  ,3.8447
366  ,1.012e+09   ,2.5  ,2.4  ,3.6476
367  ,9.613e+08   ,2.5  ,2.4  ,3.4505
368  ,9.236e+08   ,2.5  ,2.4  ,3.2535
369  ,8.065e+08   ,2.5  ,2.4  ,3.0564
370  ,6.921e+08   ,2.5  ,2.4  ,2.8593
371  ,6.121e+08   ,2.5  ,2.4  ,2.6622
372  ,5.437e+08   ,2.5  ,2.4  ,2.4651
373  ,3.555e+08   ,2.5  ,2.4  ,2.268
374  ,2.586e+08   ,2.5  ,2.4  ,2.0709
375  ,1.747e+08   ,2.5  ,2.4  ,1.8738
376  ,1.078e+08   ,2.5  ,2.4  ,1.6767
377  ,9.334e+07   ,2.5  ,2.4  ,1.4796
378  ,1.311e+08   ,2.5  ,2.4  ,1.2825
379  ,1.375e+08   ,2.5  ,2.4  ,1.0855
380  ,1.494e+08   ,2.5  ,2.4  ,0.88836
381  ,1.411e+08   ,2.5  ,2.4  ,0.69127
382  ,1.118e+08   ,2.5  ,2.4  ,0.49418
383  ,1.103e+08   ,2.5  ,2.4  ,0.29709
384  ,4.751e+09   ,2.5  ,2.2665  ,4.7665
544  ,9.825e+07   ,2.2  ,2.5  ,0.1
545  ,9.478e+07   ,2  ,2.5  ,0.1
546  ,8.655e+07   ,1.8  ,2.5  ,0.1
547  ,9.992e+07   ,1.6  ,2.5  ,0.1
548  ,9.622e+07   ,1.4  ,2.5  ,0.1
549  ,1.090e+08   ,1.2  ,2.5  ,0.1
550  ,1.028e+08   ,1  ,2.5  ,0.1
551  ,1.770e+08   ,0.8  ,2.5  ,0.1
552  ,1.771e+08   ,0.6  ,2.5  ,0.1
553  ,1.047e+08   ,0.4  ,2.5  ,0.1
554  ,9.109e+07   ,0.2  ,2.5  ,0.1
555  ,1.342e+08   ,5.8879E-16  ,2.5  ,0.1
556  ,2.399e+08   ,-0.2  ,2.5  ,0.1
557  ,1.746e+08   ,-0.4  ,2.5  ,0.1
558  ,1.300e+08   ,-0.6  ,2.5  ,0.1
559  ,1.408e+08   ,-0.8  ,2.5  ,0.1
560  ,9.447e+07   ,-1  ,2.5  ,0.1
561  ,1.149e+08   ,-1.2  ,2.5  ,0.1
562  ,1.383e+08   ,-1.4  ,2.5  ,0.1
563  ,1.559e+08   ,-1.6  ,2.5  ,0.1
564  ,1.500e+08   ,-1.8  ,2.5  ,0.1
565  ,1.324e+08   ,-2  ,2.5  ,0.1
566  ,8.269e+07   ,-2.2  ,2.5  ,0.1
567  ,1.069e+08   ,-2.4  ,2.5  ,4.7
568  ,8.692e+07   ,-2.4  ,2.5  ,4.5
569  ,7.596e+07   ,-2.4  ,2.5  ,4.3
570  ,1.001e+08   ,-2.4  ,2.5  ,4.1
571  ,1.111e+08   ,-2.4  ,2.5  ,3.9
572  ,1.167e+08   ,-2.4  ,2.5  ,3.7
573  ,1.225e+08   ,-2.4  ,2.5  ,3.5
574  ,1.841e+08   ,-2.4  ,2.5  ,3.3
575  ,1.754e+08   ,-2.4  ,2.5  ,3.1
576  ,1.601e+08   ,-2.4  ,2.5  ,2.9
577  ,1.593e+08   ,-2.4  ,2.5  ,2.7
578  ,1.818e+08   ,-2.4  ,2.5  ,2.5
579  ,1.662e+08   ,-2.4  ,2.5  ,2.3
580  ,1.608e+08   ,-2.4  ,2.5  ,2.1
581  ,1.286e+08   ,-2.4  ,2.5  ,1.9
582  ,1.186e+08   ,-2.4  ,2.5  ,1.7
583  ,1.030e+08   ,-2.4  ,2.5  ,1.5
584  ,1.197e+08   ,-2.4  ,2.5  ,1.3
585  ,1.399e+08   ,-2.4  ,2.5  ,1.1
586  ,1.416e+08   ,-2.4  ,2.5  ,0.9
587  ,1.320e+08   ,-2.4  ,2.5  ,0.7
588  ,1.047e+08   ,-2.4  ,2.5  ,0.5
589  ,6.462e+07   ,-2.4  ,2.5  ,0.3
590  ,3.937e+09   ,1.936  ,2.5  ,4.9
591  ,2.112e+09   ,1.7389  ,2.5  ,4.9
592  ,1.580e+09   ,1.5418  ,2.5  ,4.9
593  ,1.363e+09   ,1.3447  ,2.5  ,4.9
594  ,9.856e+08   ,1.1476  ,2.5  ,4.9
595  ,9.789e+08   ,0.95055  ,2.5  ,4.9
596  ,9.915e+08   ,0.75346  ,2.5  ,4.9
597  ,8.228e+08   ,0.55637  ,2.5  ,4.9
598  ,7.080e+08   ,0.35927  ,2.5  ,4.9
599  ,5.929e+08   ,0.16218  ,2.5  ,4.9
600  ,4.611e+08   ,-0.034907  ,2.5  ,4.9
601  ,3.392e+08   ,-0.232  ,2.5  ,4.9
602  ,2.632e+08   ,-0.42909  ,2.5  ,4.9
603  ,1.773e+08   ,-0.62618  ,2.5  ,4.9
604  ,1.140e+08   ,-0.82327  ,2.5  ,4.9
605  ,1.157e+08   ,-1.0204  ,2.5  ,4.9
606  ,1.148e+08   ,-1.2175  ,2.5  ,4.9
607  ,1.558e+08   ,-1.4145  ,2.5  ,4.9
608  ,1.625e+08   ,-1.6116  ,2.5  ,4.9
609  ,1.457e+08   ,-1.8087  ,2.5  ,4.9
610  ,1.465e+08   ,-2.0058  ,2.5  ,4.9
611  ,1.290e+08   ,-2.2029  ,2.5  ,4.9
612  ,4.908e+09   ,2.2665  ,2.5  ,4.7665
613  ,3.533e+09   ,2.4  ,2.5  ,4.436
614  ,2.271e+09   ,2.4  ,2.5  ,4.2389
615  ,1.684e+09   ,2.4  ,2.5  ,4.0418
616  ,1.273e+09   ,2.4  ,2.5  ,3.8447
617  ,1.070e+09   ,2.4  ,2.5  ,3.6476
618  ,9.922e+08   ,2.4  ,2.5  ,3.4505
619  ,9.353e+08   ,2.4  ,2.5  ,3.2535
620  ,8.064e+08   ,2.4  ,2.5  ,3.0564
621  ,6.977e+08   ,2.4  ,2.5  ,2.8593
622  ,5.797e+08   ,2.4  ,2.5  ,2.6622
623  ,4.940e+08   ,2.4  ,2.5  ,2.4651
624  ,3.466e+08   ,2.4  ,2.5  ,2.268
625  ,2.334e+08   ,2.4  ,2.5  ,2.0709
626  ,1.676e+08   ,2.4  ,2.5  ,1.8738
627  ,1.178e+08   ,2.4  ,2.5  ,1.6767
628  ,1.483e+08   ,2.4  ,2.5  ,1.4796
629  ,1.436e+08   ,2.4  ,2.5  ,1.2825
630  ,1.308e+08   ,2.4  ,2.5  ,1.0855
631  ,1.512e+08   ,2.4  ,2.5  ,0.88836
632  ,1.467e+08   ,2.4  ,2.5  ,0.69127
633  ,1.168e+08   ,2.4  ,2.5  ,0.49418
634  ,1.107e+08   ,2.4  ,2.5  ,0.29709
796  ,4.700e+07   ,-2.5  ,2.2  ,0.1
797  ,6.096e+07   ,-2.5  ,2  ,0.1
798  ,9.276e+07   ,-2.5  ,1.8  ,0.1
799  ,1.113e+08   ,-2.5  ,1.6  ,0.1
800  ,1.115e+08   ,-2.5  ,1.4  ,0.1
801  ,9.707e+07   ,-2.5  ,1.2  ,0.1
802  ,5.612e+07   ,-2.5  ,1  ,0.1
803  ,1.507e+07   ,-2.5  ,0.8  ,0.1
804  ,1.618e+07   ,-2.5  ,0.6  ,0.1
805  ,1.349e+07   ,-2.5  ,0.4  ,0.1
806  ,1.046e+07   ,-2.5  ,0.2  ,0.1
807  ,8.003e+06   ,-2.5  ,5.8879E-16  ,0.1
808  ,1.084e+07   ,-2.5  ,-0.2  ,0.1
809  ,1.531e+07   ,-2.5  ,-0.4  ,0.1
810  ,3.984e+06   ,-2.5  ,-0.6  ,0.1
811  ,9.842e+06   ,-2.5  ,-0.8  ,0.1
812  ,1.025e+07   ,-2.5  ,-1  ,0.1
813  ,5.715e+06   ,-2.5  ,-1.2  ,0.1
814  ,2.798e+06   ,-2.5  ,-1.4  ,0.1
815  ,2.671e+06   ,-2.5  ,-1.6  ,0.1
816  ,1.341e+06   ,-2.5  ,-1.8  ,0.1
817  ,1.698e+06   ,-2.5  ,-2  ,0.1
818  ,1.240e+06   ,-2.5  ,-2.2  ,0.1
819  ,1.249e+08   ,-2.5  ,-2.4  ,4.7
820  ,2.361e+08   ,-2.5  ,-2.4  ,4.5
821  ,1.863e+08   ,-2.5  ,-2.4  ,4.3
822  ,9.366e+07   ,-2.5  ,-2.4  ,4.1
823  ,4.265e+07   ,-2.5  ,-2.4  ,3.9
824  ,3.918e+07   ,-2.5  ,-2.4  ,3.7
825  ,2.919e+07   ,-2.5  ,-2.4  ,3.5
826  ,2.128e+07   ,-2.5  ,-2.4  ,3.3
827  ,1.871e+07   ,-2.5  ,-2.4  ,3.1
828  ,1.658e+07   ,-2.5  ,-2.4  ,2.9
829  ,1.158e+07   ,-2.5  ,-2.4  ,2.7
830  ,4.395e+06   ,-2.5  ,-2.4  ,2.5
831  ,6.166e+06   ,-2.5  ,-2.4  ,2.3
832  ,5.697e+06   ,-2.5  ,-2.4  ,2.1
833  ,3.427e+06   ,-2.5  ,-2.4  ,1.9
834  ,4.050e+06   ,-2.5  ,-2.4  ,1.7
835  ,4.253e+06   ,-2.5  ,-2.4  ,1.5
836  ,3.330e+06   ,-2.5  ,-2.4  ,1.3
837  ,2.750e+06   ,-2.5  ,-2.4  ,1.1
838  ,1.652e+06   ,-2.5  ,-2.4  ,0.9
839  ,1.978e+06   ,-2.5  ,-2.4  ,0.7
840  ,2.703e+06   ,-2.5  ,-2.4  ,0.5
841  ,1.093e+06   ,-2.5  ,-2.4  ,0.3
842  ,1.426e+08   ,-2.5  ,2.2  ,4.9
843  ,1.013e+08   ,-2.5  ,2  ,4.9
844  ,1.060e+08   ,-2.5  ,1.8  ,4.9
845  ,8.910e+07   ,-2.5  ,1.6  ,4.9
846  ,7.529e+07   ,-2.5  ,1.4  ,4.9
847  ,8.391e+07   ,-2.5  ,1.2  ,4.9
848  ,9.292e+07   ,-2.5  ,1  ,4.9
849  ,1.509e+08   ,-2.5  ,0.8  ,4.9
850  ,1.232e+08   ,-2.5  ,0.6  ,4.9
851  ,1.230e+08   ,-2.5  ,0.4  ,4.9
852  ,1.453e+08   ,-2.5  ,0.2  ,4.9
853  ,1.474e+08   ,-2.5  ,5.8879E-16  ,4.9
854  ,1.465e+08   ,-2.5  ,-0.2  ,4.9
855  ,1.382e+08   ,-2.5  ,-0.4  ,4.9
856  ,1.185e+08   ,-2.5  ,-0.6  ,4.9
857  ,1.195e+08   ,-2.5  ,-0.8  ,4.9
858  ,1.251e+08   ,-2.5  ,-1  ,4.9
859  ,1.280e+08   ,-2.5  ,-1.2  ,4.9
860  ,1.179e+08   ,-2.5  ,-1.4  ,4.9
861  ,1.092e+08   ,-2.5  ,-1.6  ,4.9
862  ,1.064e+08   ,-2.5  ,-1.8  ,4.9
863  ,8.337e+07   ,-2.5  ,-2  ,4.9
864  ,7.331e+07   ,-2.5  ,-2.2  ,4.9
865  ,1.336e+08   ,-2.5  ,2.4  ,4.7
866  ,1.048e+08   ,-2.5  ,2.4  ,4.5
867  ,1.252e+08   ,-2.5  ,2.4  ,4.3
868  ,1.055e+08   ,-2.5  ,2.4  ,4.1
869  ,1.403e+08   ,-2.5  ,2.4  ,3.9
870  ,1.405e+08   ,-2.5  ,2.4  ,3.7
871  ,1.449e+08   ,-2.5  ,2.4  ,3.5
872  ,1.634e+08   ,-2.5  ,2.4  ,3.3
873  ,1.672e+08   ,-2.5  ,2.4  ,3.1
874  ,2.248e+08   ,-2.5  ,2.4  ,2.9
875  ,1.905e+08   ,-2.5  ,2.4  ,2.7
876  ,1.873e+08   ,-2.5  ,2.4  ,2.5
877  ,1.370e+08   ,-2.5  ,2.4  ,2.3
878  ,1.260e+08   ,-2.5  ,2.4  ,2.1
879  ,1.124e+08   ,-2.5  ,2.4  ,1.9
880  ,9.688e+07   ,-2.5  ,2.4  ,1.7
881  ,7.770e+07   ,-2.5  ,2.4  ,1.5
882  ,9.000e+07   ,-2.5  ,2.4  ,1.3
883  ,1.131e+08   ,-2.5  ,2.4  ,1.1
884  ,1.334e+08   ,-2.5  ,2.4  ,0.9
885  ,1.316e+08   ,-2.5  ,2.4  ,0.7
886  ,1.203e+08   ,-2.5  ,2.4  ,0.5
887  ,8.598e+07   ,-2.5  ,2.4  ,0.3
1044  ,1.760e+06   ,-2.3  ,-2.5  ,0.44697
1045  ,1.590e+06   ,-2.3  ,-2.5  ,0.68705
1046  ,2.110e+06   ,-2.3  ,-2.5  ,0.92554
1047  ,1.340e+06   ,-2.3  ,-2.5  ,1.1682
1048  ,1.228e+06   ,-2.3  ,-2.5  ,1.4148
1049  ,1.940e+06   ,-2.3  ,-2.5  ,1.6581
1050  ,1.565e+06   ,-2.3  ,-2.5  ,1.8967
1051  ,6.495e+06   ,-2.3  ,-2.5  ,2.1357
1052  ,9.341e+06   ,-2.3  ,-2.5  ,2.3794
1053  ,9.376e+06   ,-2.3  ,-2.5  ,2.6206
1054  ,1.061e+07   ,-2.3  ,-2.5  ,2.8643
1055  ,1.502e+07   ,-2.3  ,-2.5  ,3.1033
1056  ,3.075e+07   ,-2.3  ,-2.5  ,3.342
1057  ,4.285e+07   ,-2.3  ,-2.5  ,3.5852
1058  ,6.829e+07   ,-2.3  ,-2.5  ,3.8318
1059  ,7.475e+07   ,-2.3  ,-2.5  ,4.0745
1060  ,3.588e+07   ,-2.3  ,-2.5  ,4.3129
1061  ,7.296e+07   ,-2.3  ,-2.5  ,4.553
1062  ,2.383e+08   ,-2.053  ,-2.5  ,4.8
1063  ,1.015e+08   ,-1.8129  ,-2.5  ,4.8
1064  ,1.057e+08   ,-1.5745  ,-2.5  ,4.8
1065  ,1.632e+08   ,-1.3318  ,-2.5  ,4.8
1066  ,1.500e+08   ,-1.0852  ,-2.5  ,4.8
1067  ,8.701e+07   ,-0.84195  ,-2.5  ,4.8
1068  ,6.039e+07   ,-0.60329  ,-2.5  ,4.8
1069  ,1.293e+08   ,-0.3643  ,-2.5  ,4.8
1070  ,1.808e+08   ,-0.12055  ,-2.5  ,4.8
1071  ,1.761e+08   ,0.12056  ,-2.5  ,4.8
1072  ,1.582e+08   ,0.3643  ,-2.5  ,4.8
1073  ,1.678e+08   ,0.6033  ,-2.5  ,4.8
1074  ,2.065e+08   ,0.84195  ,-2.5  ,4.8
1075  ,1.779e+08   ,1.0852  ,-2.5  ,4.8
1076  ,1.076e+08   ,1.3318  ,-2.5  ,4.8
1077  ,4.270e+07   ,1.5745  ,-2.5  ,4.8
1078  ,7.367e+07   ,1.8129  ,-2.5  ,4.8
1079  ,9.923e+07   ,2.053  ,-2.5  ,4.8
1080  ,1.117e+08   ,2.3  ,-2.5  ,4.553
1081  ,7.616e+07   ,2.3  ,-2.5  ,4.3129
1082  ,6.168e+07   ,2.3  ,-2.5  ,4.0745
1083  ,1.431e+08   ,2.3  ,-2.5  ,3.8318
1084  ,2.249e+08   ,2.3  ,-2.5  ,3.5852
1085  ,2.251e+08   ,2.3  ,-2.5  ,3.3419
1086  ,1.693e+08   ,2.3  ,-2.5  ,3.1033
1087  ,1.681e+08   ,2.3  ,-2.5  ,2.8643
1088  ,1.719e+08   ,2.3  ,-2.5  ,2.6206
1089  ,1.516e+08   ,2.3  ,-2.5  ,2.3794
1090  ,7.621e+07   ,2.3  ,-2.5  ,2.1357
1091  ,3.000e+07   ,2.3  ,-2.5  ,1.8967
1092  ,7.345e+07   ,2.3  ,-2.5  ,1.658
1093  ,1.248e+08   ,2.3  ,-2.5  ,1.4148
1094  ,1.424e+08   ,2.3  ,-2.5  ,1.1682
1095  ,9.271e+07   ,2.3  ,-2.5  ,0.92554
1096  ,8.174e+07   ,2.3  ,-2.5  ,0.68705
1097  ,2.327e+08   ,2.3  ,-2.5  ,0.44697
1098  ,1.861e+06   ,-2.053  ,-2.5  ,0.2
1099  ,1.606e+06   ,-1.8129  ,-2.5  ,0.2
1100  ,2.039e+06   ,-1.5745  ,-2.5  ,0.2
1101  ,3.061e+06   ,-1.3318  ,-2.5  ,0.2
1102  ,2.956e+06   ,-1.0852  ,-2.5  ,0.2
1103  ,2.488e+06   ,-0.84195  ,-2.5  ,0.2
1104  ,3.435e+06   ,-0.60329  ,-2.5  ,0.2
1105  ,3.057e+06   ,-0.3643  ,-2.5  ,0.2
1106  ,2.997e+06   ,-0.12055  ,-2.5  ,0.2
1107  ,5.242e+06   ,0.12056  ,-2.5  ,0.2
1108  ,9.262e+06   ,0.3643  ,-2.5  ,0.2
1109  ,8.201e+06   ,0.6033  ,-2.5  ,0.2
1110  ,2.445e+07   ,0.84195  ,-2.5  ,0.2
1111  ,3.624e+07   ,1.0852  ,-2.5  ,0.2
1112  ,6.267e+07   ,1.3318  ,-2.5  ,0.2
1113  ,7.426e+07   ,1.5745  ,-2.5  ,0.2
1114  ,4.940e+07   ,1.8129  ,-2.5  ,0.2
1115  ,7.207e+07   ,2.053  ,-2.5  ,0.2
1116  ,1.232e+08   ,-2.2  ,-2.5  ,4.9
1117  ,1.586e+08   ,-2  ,-2.5  ,4.9
1118  ,1.448e+08   ,-1.8  ,-2.5  ,4.9
1119  ,1.353e+08   ,-1.6  ,-2.5  ,4.9
1120  ,1.514e+08   ,-1.4  ,-2.5  ,4.9
1121  ,1.551e+08   ,-1.2  ,-2.5  ,4.9
1122  ,1.014e+08   ,-1  ,-2.5  ,4.9
1123  ,8.602e+07   ,-0.8  ,-2.5  ,4.9
1124  ,9.837e+07   ,-0.6  ,-2.5  ,4.9
1125  ,1.466e+08   ,-0.4  ,-2.5  ,4.9
1126  ,1.689e+08   ,-0.2  ,-2.5  ,4.9
1127  ,1.781e+08   ,-1.7664E-15  ,-2.5  ,4.9
1128  ,1.482e+08   ,0.2  ,-2.5  ,4.9
1129  ,1.559e+08   ,0.4  ,-2.5  ,4.9
1130  ,1.649e+08   ,0.6  ,-2.5  ,4.9
1131  ,1.741e+08   ,0.8  ,-2.5  ,4.9
1132  ,1.645e+08   ,1  ,-2.5  ,4.9
1133  ,1.654e+08   ,1.2  ,-2.5  ,4.9
1134  ,1.374e+08   ,1.4  ,-2.5  ,4.9
1135  ,9.570e+07   ,1.6  ,-2.5  ,4.9
1136  ,7.486e+07   ,1.8  ,-2.5  ,4.9
1137  ,7.148e+07   ,2  ,-2.5  ,4.9
1138  ,1.210e+08   ,2.2  ,-2.5  ,4.9
1139  ,1.802e+08   ,-2.4  ,-2.5  ,4.7
1140  ,1.315e+08   ,-2.4  ,-2.5  ,4.5
1141  ,1.295e+08   ,-2.4  ,-2.5  ,4.3
1142  ,9.551e+07   ,-2.4  ,-2.5  ,4.1
1143  ,6.457e+07   ,-2.4  ,-2.5  ,3.9
1144  ,5.068e+07   ,-2.4  ,-2.5  ,3.7
1145  ,3.690e+07   ,-2.4  ,-2.5  ,3.5
1146  ,2.706e+07   ,-2.4  ,-2.5  ,3.3
1147  ,1.761e+07   ,-2.4  ,-2.5  ,3.1
1148  ,1.412e+07   ,-2.4  ,-2.5  ,2.9
1149  ,9.725e+06   ,-2.4  ,-2.5  ,2.7
1150  ,6.377e+06   ,-2.4  ,-2.5  ,2.5
1151  ,6.936e+06   ,-2.4  ,-2.5  ,2.3
1152  ,5.869e+06   ,-2.4  ,-2.5  ,2.1
1153  ,2.982e+06   ,-2.4  ,-2.5  ,1.9
1154  ,2.517e+06   ,-2.4  ,-2.5  ,1.7
1155  ,2.293e+06   ,-2.4  ,-2.5  ,1.5
1156  ,2.315e+06   ,-2.4  ,-2.5  ,1.3
1157  ,2.127e+06   ,-2.4  ,-2.5  ,1.1
1158  ,1.690e+06   ,-2.4  ,-2.5  ,0.9
1159  ,1.342e+06   ,-2.4  ,-2.5  ,0.7
1160  ,2.353e+06   ,-2.4  ,-2.5  ,0.5
1161  ,1.841e+06   ,-2.4  ,-2.5  ,0.3
1162  ,1.315e+06   ,-2.2  ,-2.5  ,0.1
1163  ,2.754e+06   ,-2  ,-2.5  ,0.1
1164  ,1.690e+06   ,-1.8  ,-2.5  ,0.1
1165  ,1.670e+06   ,-1.6  ,-2.5  ,0.1
1166  ,2.510e+06   ,-1.4  ,-2.5  ,0.1
1167  ,2.087e+06   ,-1.2  ,-2.5  ,0.1
1168  ,2.673e+06   ,-1  ,-2.5  ,0.1
1169  ,3.234e+06   ,-0.8  ,-2.5  ,0.1
1170  ,3.704e+06   ,-0.6  ,-2.5  ,0.1
1171  ,2.872e+06   ,-0.4  ,-2.5  ,0.1
1172  ,2.930e+06   ,-0.2  ,-2.5  ,0.1
1173  ,2.621e+06   ,-1.7664E-15  ,-2.5  ,0.1
1174  ,5.940e+06   ,0.2  ,-2.5  ,0.1
1175  ,1.125e+07   ,0.4  ,-2.5  ,0.1
1176  ,1.342e+07   ,0.6  ,-2.5  ,0.1
1177  ,2.015e+07   ,0.8  ,-2.5  ,0.1
1178  ,2.844e+07   ,1  ,-2.5  ,0.1
1179  ,4.190e+07   ,1.2  ,-2.5  ,0.1
1180  ,5.894e+07   ,1.4  ,-2.5  ,0.1
1181  ,9.715e+07   ,1.6  ,-2.5  ,0.1
1182  ,1.401e+08   ,1.8  ,-2.5  ,0.1
1183  ,1.019e+08   ,2  ,-2.5  ,0.1
1184  ,1.638e+08   ,2.2  ,-2.5  ,0.1
1185  ,1.027e+08   ,2.4  ,-2.5  ,4.7
1186  ,7.810e+07   ,2.4  ,-2.5  ,4.5
1187  ,7.464e+07   ,2.4  ,-2.5  ,4.3
1188  ,9.647e+07   ,2.4  ,-2.5  ,4.1
1189  ,1.702e+08   ,2.4  ,-2.5  ,3.9
1190  ,1.996e+08   ,2.4  ,-2.5  ,3.7
1191  ,1.817e+08   ,2.4  ,-2.5  ,3.5
1192  ,1.949e+08   ,2.4  ,-2.5  ,3.3
1193  ,1.821e+08   ,2.4  ,-2.5  ,3.1
1194  ,1.643e+08   ,2.4  ,-2.5  ,2.9
1195  ,1.535e+08   ,2.4  ,-2.5  ,2.7
1196  ,1.570e+08   ,2.4  ,-2.5  ,2.5
1197  ,1.375e+08   ,2.4  ,-2.5  ,2.3
1198  ,9.283e+07   ,2.4  ,-2.5  ,2.1
1199  ,4.909e+07   ,2.4  ,-2.5  ,1.9
1200  ,5.580e+07   ,2.4  ,-2.5  ,1.7
1201  ,7.664e+07   ,2.4  ,-2.5  ,1.5
1202  ,1.255e+08   ,2.4  ,-2.5  ,1.3
1203  ,1.348e+08   ,2.4  ,-2.5  ,1.1
1204  ,1.286e+08   ,2.4  ,-2.5  ,0.9
1205  ,1.337e+08   ,2.4  ,-2.5  ,0.7
1206  ,1.696e+08   ,2.4  ,-2.5  ,0.5
1207  ,1.238e+08   ,2.4  ,-2.5  ,0.3
1208  ,7.045e+07   ,2.4  ,-2.2  ,0
1209  ,8.736e+07   ,2.4  ,-2  ,0
1210  ,1.102e+08   ,2.4  ,-1.8  ,0
1211  ,1.177e+08   ,2.4  ,-1.6  ,0
1212  ,1.285e+08   ,2.4  ,-1.4  ,0
1213  ,1.266e+08   ,2.4  ,-1.2  ,0
1214  ,1.150e+08   ,2.4  ,-1  ,0
1215  ,1.173e+08   ,2.4  ,-0.8  ,0
1216  ,1.079e+08   ,2.4  ,-0.6  ,0
1217  ,1.132e+08   ,2.4  ,-0.4  ,0
1218  ,1.247e+08   ,2.4  ,-0.2  ,0
1219  ,1.221e+08   ,2.4  ,-1.7664E-15  ,0
1220  ,1.697e+08   ,2.4  ,0.2  ,0
1221  ,1.539e+08   ,2.4  ,0.4  ,0
1222  ,1.303e+08   ,2.4  ,0.6  ,0
1223  ,1.520e+08   ,2.4  ,0.8  ,0
1224  ,1.262e+08   ,2.4  ,1  ,0
1225  ,1.196e+08   ,2.4  ,1.2  ,0
1226  ,1.036e+08   ,2.4  ,1.4  ,0
1227  ,7.138e+07   ,2.4  ,1.6  ,0
1228  ,7.744e+07   ,2.4  ,1.8  ,0
1229  ,9.396e+07   ,2.4  ,2  ,0
1230  ,1.723e+08   ,2.4  ,2.2  ,0
1231  ,2.194e+06   ,-2.2  ,-2.4  ,0
1232  ,3.496e+06   ,-2  ,-2.4  ,0
1233  ,2.064e+06   ,-1.8  ,-2.4  ,0
1234  ,1.379e+06   ,-1.6  ,-2.4  ,0
1235  ,1.835e+06   ,-1.4  ,-2.4  ,0
1236  ,1.988e+06   ,-1.2  ,-2.4  ,0
1237  ,2.504e+06   ,-1  ,-2.4  ,0
1238  ,3.329e+06   ,-0.8  ,-2.4  ,0
1239  ,3.857e+06   ,-0.6  ,-2.4  ,0
1240  ,3.410e+06   ,-0.4  ,-2.4  ,0
1241  ,3.194e+06   ,-0.2  ,-2.4  ,0
1242  ,2.819e+06   ,5.8879E-16  ,-2.4  ,0
1243  ,7.904e+06   ,0.2  ,-2.4  ,0
1244  ,1.453e+07   ,0.4  ,-2.4  ,0
1245  ,1.509e+07   ,0.6  ,-2.4  ,0
1246  ,1.540e+07   ,0.8  ,-2.4  ,0
1247  ,2.284e+07   ,1  ,-2.4  ,0
1248  ,3.361e+07   ,1.2  ,-2.4  ,0
1249  ,4.145e+07   ,1.4  ,-2.4  ,0
1250  ,9.963e+07   ,1.6  ,-2.4  ,0
1251  ,1.973e+08   ,1.8  ,-2.4  ,0
1252  ,2.221e+08   ,2  ,-2.4  ,0
1253  ,1.132e+08   ,2.2  ,-2.4  ,0
1254  ,6.929e+07   ,-2.4  ,2.2  ,0
1255  ,6.910e+07   ,-2.4  ,2  ,0
1256  ,9.222e+07   ,-2.4  ,1.8  ,0
1257  ,1.038e+08   ,-2.4  ,1.6  ,0
1258  ,1.127e+08   ,-2.4  ,1.4  ,0
1259  ,9.905e+07   ,-2.4  ,1.2  ,0
1260  ,5.875e+07   ,-2.4  ,1  ,0
1261  ,1.353e+07   ,-2.4  ,0.8  ,0
1262  ,2.061e+07   ,-2.4  ,0.6  ,0
1263  ,1.358e+07   ,-2.4  ,0.4  ,0
1264  ,9.407e+06   ,-2.4  ,0.2  ,0
1265  ,8.427e+06   ,-2.4  ,5.8879E-16  ,0
1266  ,1.303e+07   ,-2.4  ,-0.2  ,0
1267  ,1.592e+07   ,-2.4  ,-0.4  ,0
1268  ,9.125e+06   ,-2.4  ,-0.6  ,0
1269  ,1.300e+07   ,-2.4  ,-0.8  ,0
1270  ,1.094e+07   ,-2.4  ,-1  ,0
1271  ,5.105e+06   ,-2.4  ,-1.2  ,0
1272  ,2.821e+06   ,-2.4  ,-1.4  ,0
1273  ,1.887e+06   ,-2.4  ,-1.6  ,0
1274  ,1.982e+06   ,-2.4  ,-1.8  ,0
1275  ,2.876e+06   ,-2.4  ,-2  ,0
1276  ,2.769e+06   ,-2.4  ,-2.2  ,0
1277  ,1.472e+08   ,2.2  ,2.4  ,0
1278  ,1.274e+08   ,2  ,2.4  ,0
1279  ,1.129e+08   ,1.8  ,2.4  ,0
1280  ,9.474e+07   ,1.6  ,2.4  ,0
1281  ,8.623e+07   ,1.4  ,2.4  ,0
1282  ,1.177e+08   ,1.2  ,2.4  ,0
1283  ,1.279e+08   ,1  ,2.4  ,0
1284  ,1.410e+08   ,0.8  ,2.4  ,0
1285  ,1.186e+08   ,0.6  ,2.4  ,0
1286  ,8.332e+07   ,0.4  ,2.4  ,0
1287  ,8.011e+07   ,0.2  ,2.4  ,0
1288  ,1.087e+08   ,5.8879E-16  ,2.4  ,0
1289  ,1.693e+08   ,-0.2  ,2.4  ,0
1290  ,1.728e+08   ,-0.4  ,2.4  ,0
1291  ,1.438e+08   ,-0.6  ,2.4  ,0
1292  ,8.354e+07   ,-0.8  ,2.4  ,0
1293  ,6.016e+07   ,-1  ,2.4  ,0
1294  ,8.132e+07   ,-1.2  ,2.4  ,0
1295  ,1.012e+08   ,-1.4  ,2.4  ,0
1296  ,1.298e+08   ,-1.6  ,2.4  ,0
1297  ,1.550e+08   ,-1.8  ,2.4  ,0
1298  ,1.429e+08   ,-2  ,2.4  ,0
1299  ,1.180e+08   ,-2.2  ,2.4  ,0
1460  ,7.459e+09   ,2.3243  ,2.3243  ,4.9577
1461  ,7.223e+09   ,2.4577  ,2.3243  ,4.8243
1462  ,5.744e+09   ,2.3243  ,2.4577  ,4.8243
1463  ,1.374e+08   ,-2.3  ,-2.1759  ,4.8
1464  ,2.163e+08   ,-2.3  ,-1.7631  ,4.8
1465  ,1.626e+08   ,-2.3  ,-1.1827  ,4.8
1466  ,2.449e+08   ,-2.3  ,-0.34986  ,4.8
1467  ,2.017e+08   ,-2.3  ,0.80545  ,4.8
1468  ,2.649e+08   ,-0.81337  ,2.3  ,4.8
1469  ,1.276e+09   ,0.67326  ,2.3  ,4.8
1470  ,6.175e+07   ,2.3  ,-2.1824  ,4.8
1471  ,1.771e+08   ,2.3  ,-1.7784  ,4.8
1472  ,5.994e+07   ,2.3  ,-1.2138  ,4.8
1473  ,3.953e+08   ,2.3  ,-0.40752  ,4.8
1474  ,1.260e+09   ,2.3  ,0.70532  ,4.8
1516  ,2.601e+08   ,2.3  ,2.3  ,1.6866
1517  ,1.295e+09   ,2.3  ,2.3  ,3.1733
1518  ,1.451e+08   ,2.3  ,-2.1759  ,0.2
1519  ,2.184e+08   ,2.3  ,-1.7631  ,0.2
1520  ,1.640e+08   ,2.3  ,-1.1827  ,0.2
1521  ,2.660e+08   ,2.3  ,-0.34986  ,0.2
1522  ,2.093e+08   ,2.3  ,0.80545  ,0.2
1564  ,1.960e+08   ,-0.76667  ,2.3  ,0.2
1565  ,1.949e+08   ,0.76667  ,2.3  ,0.2
1566  ,1.879e+08   ,-2.3  ,2.3  ,1.7333
1567  ,1.924e+08   ,-2.3  ,2.3  ,3.2667
1574  ,2.204e+06   ,-2.3  ,-2.1759  ,0.2
1575  ,3.654e+06   ,-2.3  ,-1.7631  ,0.2
1576  ,5.934e+06   ,-2.3  ,-1.1827  ,0.2
1577  ,7.607e+06   ,-2.3  ,-0.34986  ,0.2
1578  ,2.682e+07   ,-2.3  ,0.80545  ,0.2
1777  ,2.049e+08   ,-0.52764  ,2.5  ,4.9
1801  ,6.188e+07   ,-2.3  ,1.5527  ,0.2
1825  ,1.763e+08   ,-1.5333  ,2.3  ,0.2
1841  ,5.463e+08   ,0.063638  ,2.5  ,4.9
1876  ,1.610e+08   ,-0.5  ,2.4  ,0
1894  ,2.363e+08   ,2.3  ,1.5527  ,0.2
1907  ,9.851e+07   ,2.1  ,2.5  ,0.1
1928  ,1.100e+08   ,1.9  ,2.4  ,0
1974  ,1.157e+08   ,2.4  ,1.1  ,0
1981  ,1.304e+08   ,2.4  ,2.5  ,0.59273
1987  ,1.310e+08   ,-2.5  ,2.4  ,4
2004  ,9.418e+07   ,-2.4  ,2.5  ,4.6
2009  ,1.076e+08   ,2.4  ,1.3  ,0
2020  ,1.454e+08   ,2.5  ,1.1  ,0.1
2035  ,6.916e+06   ,-2.3  ,-0.76628  ,0.2
2070  ,1.965e+09   ,1.6404  ,2.4  ,5
2081  ,1.957e+08   ,2.4  ,2.5  ,1.9724
2095  ,1.490e+08   ,2.4  ,2.5  ,0.78982
2138  ,1.076e+07   ,-2.4  ,-0.1  ,0
2146  ,1.150e+08   ,-0.92182  ,2.4  ,5
2174  ,1.266e+08   ,2.4  ,2.5  ,1.184
2190  ,1.340e+08   ,2.5  ,2.4  ,0.98691
2203  ,4.046e+08   ,2.5  ,-0.13345  ,4.9
2232  ,9.682e+08   ,2.3  ,0.1489  ,4.8
2242  ,7.808e+08   ,2.4  ,2.5  ,2.9578
2293  ,1.361e+07   ,-2.5  ,0.5  ,0.1
2311  ,1.043e+09   ,2.3  ,2.3  ,2.4299
2313  ,1.506e+08   ,2.5  ,2.4  ,0.78982
2329  ,2.795e+08   ,2.4  ,2.5  ,2.1695
2355  ,8.089e+07   ,-2.4  ,2.5  ,4.4
2380  ,2.601e+06   ,-2.5  ,-1.5  ,0.1
2383  ,7.290e+08   ,0.45782  ,2.5  ,4.9
2408  ,1.851e+08   ,2.3  ,-1.4961  ,4.8
2445  ,1.732e+08   ,2.5  ,-1.5131  ,4.9
2484  ,4.230e+06   ,-2.5  ,-2.4  ,1.6
2495  ,1.019e+08   ,-2.4  ,1.7  ,5
2508  ,1.578e+08   ,2.4  ,0.3  ,0
2514  ,4.071e+08   ,2.3  ,0.2278  ,0.2
2570  ,1.063e+08   ,-2.4  ,1.5  ,5
2580  ,1.911e+09   ,1.6404  ,2.5  ,4.9
2603  ,1.232e+08   ,-1.1189  ,2.5  ,4.9
2695  ,1.118e+08   ,2.3  ,2.3  ,0.94331
2705  ,1.547e+08   ,2.4  ,2.5  ,1.3811
2714  ,6.919e+08   ,2.5  ,0.45782  ,4.9
2734  ,1.081e+08   ,2.4  ,-0.9  ,0
2775  ,1.205e+08   ,2.5  ,-0.1  ,0.1
2779  ,1.165e+08   ,2.4  ,-0.1  ,0
2801  ,2.394e+09   ,1.4166  ,2.3  ,4.8
2814  ,1.455e+09   ,1.4433  ,2.5  ,4.9
2863  ,1.203e+08   ,-2.4  ,2.5  ,0.6
2884  ,1.334e+08   ,-2.4  ,2.5  ,0.8
2886  ,1.260e+08   ,-2.4  ,2.5  ,1.2
2967  ,6.973e+07   ,2.4  ,1.7  ,0
2973  ,1.300e+08   ,2.5  ,1.5  ,0.1
2987  ,2.003e+08   ,-0.3  ,2.5  ,0.1
3008  ,1.808e+08   ,-2.3  ,2.3  ,0.96667
3012  ,1.869e+08   ,-2.5  ,2.4  ,2.6
3021  ,1.774e+08   ,-2.5  ,2.4  ,2.8
3025  ,1.650e+08   ,-2.5  ,2.4  ,2.4
3030  ,1.781e+08   ,-2.4  ,2.5  ,2.4
3033  ,1.514e+08   ,-2.4  ,2.5  ,2.2
3047  ,4.314e+08   ,2.4  ,2.5  ,2.3665
3052  ,5.826e+08   ,2.5  ,2.4  ,2.5636
3061  ,5.499e+08   ,2.4  ,2.5  ,2.5636
3081  ,1.074e+08   ,-2.4  ,1.3  ,5
3088  ,1.422e+08   ,-1.9073  ,2.4  ,5
3099  ,9.432e+07   ,-2.4  ,1.9  ,5
3107  ,1.144e+08   ,-2.4  ,2.5  ,3.8
3139  ,1.430e+08   ,-1.5131  ,2.4  ,5
3145  ,1.703e+08   ,-1.5131  ,2.5  ,4.9
3148  ,1.481e+08   ,-1.7102  ,2.5  ,4.9
3168  ,1.133e+08   ,-2.4  ,1.5  ,0
3188  ,2.323e+06   ,-2.5  ,-2.4  ,1
3202  ,5.950e+08   ,0.26073  ,2.5  ,4.9
3212  ,1.907e+09   ,2.5  ,1.6404  ,4.9
3247  ,3.030e+09   ,2.5  ,1.8375  ,4.9
3265  ,2.487e+09   ,2.3  ,1.4326  ,4.8
3271  ,5.571e+09   ,2.2299  ,2.2299  ,4.8
3284  ,1.478e+09   ,2.4  ,1.4433  ,5
3291  ,1.417e+09   ,2.5  ,1.4433  ,4.9
3296  ,2.080e+08   ,-2.3  ,-0.76628  ,4.8
3303  ,1.344e+08   ,-2.4  ,-0.9  ,5
3311  ,1.166e+08   ,-2.4  ,-0.7  ,5
3315  ,9.132e+07   ,1.9  ,2.5  ,0.1
3336  ,1.145e+07   ,-2.4  ,0.3  ,0
3340  ,9.195e+06   ,-2.5  ,0.1  ,0.1
3344  ,8.713e+06   ,-2.4  ,0.1  ,0
3356  ,1.659e+08   ,-0.3  ,2.4  ,0
3361  ,3.078e+08   ,-0.33054  ,2.5  ,4.9
3364  ,3.857e+08   ,-0.13345  ,2.5  ,4.9
3383  ,1.005e+09   ,2.4  ,2.5  ,3.5491
3402  ,4.256e+09   ,2.4  ,2.5  ,4.5345
3421  ,1.243e+08   ,-1.316  ,2.5  ,4.9
3439  ,1.479e+09   ,2.5  ,2.4  ,3.9433
3447  ,1.514e+09   ,2.4  ,2.5  ,3.9433
3451  ,1.155e+09   ,2.4  ,2.5  ,3.7462
3468  ,1.477e+09   ,1.4433  ,2.4  ,5
3480  ,9.797e+08   ,1.0491  ,2.4  ,5
3519  ,1.188e+08   ,1.5  ,2.4  ,0
3527  ,2.430e+08   ,2.3  ,-1.4729  ,0.2
3550  ,1.441e+08   ,-1.7  ,2.4  ,0
3554  ,1.567e+08   ,-1.7  ,2.5  ,0.1
3558  ,1.103e+08   ,-1.5  ,2.4  ,0
3562  ,1.440e+08   ,-1.5  ,2.5  ,0.1
3574  ,1.153e+08   ,-2.4  ,2.1  ,5
3581  ,1.013e+08   ,-2.5  ,1.7  ,0.1
3583  ,8.234e+07   ,-2.5  ,1.9  ,0.1
3584  ,1.384e+08   ,-1.9073  ,2.5  ,4.9
3591  ,1.452e+08   ,2.5  ,0.3  ,0.1
3595  ,1.175e+08   ,2.5  ,0.1  ,0.1
3603  ,1.050e+10   ,2.4577  ,2.391  ,4.7576
3663  ,2.142e+06   ,-1.933  ,-2.5  ,0.2
3669  ,7.733e+05   ,-2.1765  ,-2.5  ,0.2
3672  ,2.334e+06   ,-2.3  ,-2.3379  ,0.2
3682  ,2.802e+06   ,-1.9  ,-2.4  ,0
3700  ,1.715e+08   ,2.3  ,-2.5  ,2.7424
3712  ,1.642e+08   ,-2.1  ,-2.5  ,4.9
3715  ,1.525e+08   ,-1.9  ,-2.5  ,4.9
3740  ,1.555e+08   ,-1.3  ,-2.4  ,5
3746  ,1.664e+08   ,-1.2085  ,-2.5  ,4.8
3755  ,1.700e+08   ,-1.5  ,-2.4  ,5
3760  ,1.325e+08   ,-1.7  ,-2.5  ,4.9
3786  ,1.140e+08   ,2.4  ,2.5  ,1.5782
3813  ,6.543e+08   ,0.26073  ,2.4  ,5
3858  ,1.001e+08   ,-0.9  ,-2.4  ,5
3863  ,1.251e+08   ,-2.5  ,0.9  ,4.9
3875  ,1.441e+08   ,-1.9  ,-2.4  ,5
3885  ,1.582e+08   ,2.4  ,-0.72473  ,5
3910  ,3.285e+07   ,-2.4  ,-2.5  ,3.4
3959  ,2.066e+09   ,2.5  ,2.4  ,4.1404
3969  ,9.765e+08   ,2.5  ,1.0491  ,4.9
3992  ,1.203e+10   ,2.391  ,2.2576  ,4.9577
3993  ,1.069e+10   ,2.4577  ,2.2576  ,4.891
4016  ,7.780e+07   ,-2.3015  ,2.5  ,4.9
4018  ,8.565e+07   ,-2.4  ,2.5  ,4.8
4021  ,1.177e+09   ,1.2462  ,2.4  ,5
4042  ,1.135e+08   ,2.4  ,-1.1  ,0
4046  ,6.324e+07   ,-0.9  ,2.4  ,0
4055  ,8.112e+07   ,1.7  ,-2.5  ,4.9
4087  ,1.063e+08   ,1.7  ,2.4  ,0
4114  ,2.761e+08   ,2.5  ,-0.33054  ,4.9
4120  ,4.618e+07   ,2.4  ,-2.5  ,1.8
4125  ,1.356e+08   ,2.4  ,2.5  ,0.98691
4144  ,2.853e+09   ,2.4  ,2.5  ,4.3375
4161  ,1.758e+08   ,-2.4  ,0.3  ,5
4201  ,9.156e+07   ,1.933  ,-2.5  ,0.2
4225  ,1.129e+06   ,-2.3  ,-2.4  ,0
4230  ,1.942e+06   ,-2.3  ,-2.5  ,0.56701
4269  ,9.078e+07   ,-0.9  ,-2.5  ,4.9
4277  ,1.202e+08   ,-1.1  ,-2.4  ,5
4288  ,8.862e+08   ,-0.070055  ,2.3  ,4.8
4328  ,1.380e+08   ,-2.5  ,-2.4  ,4.2
4336  ,2.249e+08   ,-2.5  ,-2.4  ,4.4
4342  ,1.559e+08   ,-2.5  ,-2.4  ,4.6
4348  ,1.084e+08   ,-2.4  ,-2.4707  ,4.9707
4352  ,4.834e+07   ,-2.3  ,-2.5  ,4.9
4354  ,3.179e+08   ,-2.1765  ,-2.5  ,4.8
4355  ,1.907e+08   ,-2.3  ,-2.3379  ,4.8
4362  ,1.205e+08   ,2.5  ,2.4  ,0.59273
4364  ,1.972e+08   ,2.5  ,-2.4  ,2.4
4366  ,1.724e+08   ,2.5  ,-2.4  ,2.2
4372  ,1.253e+08   ,2.4  ,-2.5  ,2.2
4385  ,9.785e+05   ,-2.5  ,-1.9  ,0.1
4399  ,3.692e+07   ,-2.5  ,2.1  ,0.1
4407  ,3.447e+06   ,-0.7  ,-2.4  ,0
4436  ,7.234e+06   ,-2.5  ,-0.1  ,0.1
4462  ,1.624e+08   ,-2.3  ,2.3  ,4.0333
4491  ,1.576e+08   ,2.5  ,-0.52764  ,4.9
4494  ,8.268e+07   ,2.5  ,-2.4  ,1.4
4503  ,9.575e+07   ,2.4  ,-2.5  ,1.4
4508  ,1.287e+08   ,2.4  ,-2.5  ,1.2
4515  ,5.888e+07   ,2.5  ,-2.4  ,1.8
4517  ,6.740e+07   ,2.4  ,-2.5  ,1.6
4522  ,1.403e+07   ,0.7  ,-2.4  ,0
4538  ,1.347e+08   ,-1.1189  ,2.4  ,5
4546  ,1.878e+09   ,2.4  ,2.5  ,4.1404
4559  ,1.498e+08   ,1.7  ,-2.4  ,0
4590  ,1.542e+07   ,0.5  ,-2.4  ,0
4631  ,1.509e+08   ,2.4  ,-2.5  ,2.6
4634  ,1.809e+08   ,2.5  ,-2.4  ,2.8
4657  ,4.104e+06   ,-2.5  ,-2.4  ,2
4660  ,3.954e+06   ,-2.5  ,-2.4  ,1.8
4664  ,3.198e+06   ,-0.3  ,-2.4  ,0
4675  ,9.723e+07   ,-2.4  ,-2.5  ,4.8
4681  ,1.330e+07   ,-2.5  ,-0.3  ,0.1
4684  ,1.442e+08   ,1.7  ,-2.4  ,5
4703  ,1.594e+08   ,-2.4  ,0.7  ,5
4707  ,1.337e+08   ,-2.5  ,0.3  ,4.9
4714  ,2.407e+08   ,2.4  ,-0.33054  ,5
4723  ,1.883e+08   ,-1.5567  ,2.3  ,4.8
4739  ,1.418e+08   ,-2.1044  ,2.5  ,4.9
4763  ,1.439e+08   ,-1.9  ,2.4  ,0
4780  ,2.330e+06   ,-2.3  ,-1.9695  ,0.2
4782  ,8.619e+05   ,-2.4707  ,-2.4  ,0.029289
4784  ,2.535e+06   ,-2.4  ,-1.9  ,0
4791  ,2.942e+06   ,-2.4  ,-2.5  ,1.8
4796  ,7.426e+07   ,2.4707  ,-2.4707  ,4.9
4799  ,7.670e+07   ,2.5  ,-2.4  ,4.8
4806  ,7.416e+07   ,2.3  ,-2.5  ,4.9
4809  ,2.482e+09   ,2.3  ,2.3  ,3.9166
4833  ,7.927e+07   ,-2.4  ,2.5  ,0.4
4841  ,1.748e+08   ,-2.4  ,2.5  ,2.6
4846  ,1.091e+08   ,-2.5  ,2.1  ,4.9
4848  ,1.219e+08   ,-2.5  ,2.3  ,4.9
4849  ,1.162e+08   ,-2.5  ,2.4  ,4.8
4893  ,9.294e+07   ,-2.4  ,2.5  ,4.2
4897  ,4.410e+09   ,2.3333  ,2.1998  ,5
4900  ,1.016e+10   ,2.391  ,2.4577  ,4.7576
4908  ,1.033e+10   ,2.2576  ,2.391  ,4.9577
4911  ,1.032e+10   ,2.2576  ,2.4577  ,4.891
4926  ,1.208e+08   ,-2.5  ,2.4  ,1
4932  ,1.097e+08   ,-2.4  ,2.5  ,1.6
4937  ,1.029e+08   ,-1.1  ,2.5  ,0.1
4939  ,5.397e+09   ,2.3  ,2.2299  ,4.7299
4944  ,2.125e+08   ,2.5  ,-1.9073  ,4.9
4987  ,1.931e+08   ,-2.3  ,1.5527  ,4.8
5010  ,6.228e+09   ,2.4973  ,2.1331  ,4.923
5013  ,4.166e+09   ,2.5  ,2.0345  ,4.9
5017  ,4.550e+09   ,2.4  ,2.0345  ,5
5035  ,3.574e+07   ,1.3  ,-2.4  ,0
5038  ,4.633e+07   ,1.2085  ,-2.5  ,0.2
5092  ,2.452e+06   ,-2.4  ,-2.5  ,1.2
5123  ,1.371e+08   ,2.5  ,-2.4  ,0.6
5151  ,7.158e+06   ,-2.5  ,-0.5  ,0.1
5160  ,6.390e+06   ,-2.5  ,-0.7  ,0.1
5164  ,1.313e+08   ,-2.4  ,0.9  ,5
5168  ,1.693e+08   ,-2.4  ,0.5  ,5
5176  ,1.201e+08   ,2.5  ,-0.7  ,0.1
5179  ,1.080e+08   ,2.4  ,-0.5  ,0
5189  ,1.598e+08   ,2.4  ,-2.5  ,2.4
5194  ,1.145e+08   ,2.3  ,-2.5  ,2.2576
5198  ,2.438e+06   ,-2.3  ,-2.5  ,0.32348
5205  ,1.899e+06   ,-2.4  ,-2.5  ,0.2
5207  ,2.079e+06   ,-2.1  ,-2.5  ,0.1
5246  ,1.611e+08   ,-2.5  ,2.4  ,3.2
5257  ,8.074e+07   ,-2.5  ,1.5  ,4.9
5263  ,2.431e+07   ,-2.3  ,0.2278  ,0.2
5272  ,1.243e+07   ,-2.5  ,0.3  ,0.1
5275  ,1.336e+08   ,-2.5  ,0.5  ,4.9
5281  ,2.440e+09   ,1.8375  ,2.5  ,4.9
5297  ,1.116e+08   ,-0.9  ,2.5  ,0.1
5306  ,1.055e+08   ,-0.7  ,2.4  ,0
5309  ,1.489e+08   ,-0.5  ,2.5  ,0.1
5324  ,6.004e+08   ,2.4  ,2.5  ,2.7607
5332  ,1.705e+08   ,2.5  ,-2.4  ,0.8
5334  ,1.402e+08   ,2.4  ,-2.5  ,1
5360  ,2.264e+08   ,2.4  ,-1.7102  ,5
5362  ,1.843e+08   ,2.4  ,-1.5131  ,5
5368  ,2.712e+09   ,2.4  ,1.8375  ,5
5371  ,1.714e+10   ,2.4325  ,2.4888  ,4.6656
5372  ,4.660e+09   ,2.3333  ,2.5  ,4.6998
5376  ,3.622e+09   ,2.4707  ,2.4707  ,4.6331
5377  ,4.449e+09   ,2.5  ,2.4  ,4.5345
5379  ,1.583e+08   ,-1.5  ,-2.5  ,4.9
5406  ,2.387e+07   ,-2.5  ,-2.4  ,3.4
5420  ,2.189e+07   ,-2.3  ,-2.5  ,3.2226
5423  ,5.752e+07   ,1.5  ,-2.4  ,0
5502  ,6.551e+05   ,-2.5  ,-2.3  ,0.1
5504  ,7.749e+05   ,-2.5  ,-2.4  ,0.2
5506  ,1.737e+06   ,-2.4  ,-2.3  ,0
5511  ,1.571e+06   ,-2.5  ,-2.1  ,0.1
5513  ,1.609e+07   ,-2.4  ,0.5  ,0
5517  ,3.269e+06   ,-0.9  ,-2.5  ,0.1
5532  ,5.603e+07   ,-2.4707  ,2.4707  ,4.9
5534  ,1.068e+08   ,2.4  ,-0.7  ,0
5551  ,2.121e+08   ,2.5  ,-2.4  ,3.8
5566  ,1.030e+08   ,2.5  ,2.4  ,1.3811
5603  ,1.161e+08   ,2.4  ,-0.3  ,0
5617  ,1.095e+08   ,-2.1  ,2.5  ,0.1
5637  ,1.826e+08   ,-2.3  ,-1.9695  ,4.8
5641  ,2.344e+08   ,2.3  ,-2.5  ,3.4636
5645  ,4.597e+06   ,-2.4  ,-2.5  ,2
5649  ,7.346e+06   ,-2.4  ,-2.5  ,2.2
5659  ,1.882e+06   ,-2.3  ,-2.5  ,1.7774
5662  ,1.133e+08   ,2.1765  ,-2.5  ,4.8
5666  ,6.759e+07   ,2.4  ,-2.5  ,4.8
5669  ,6.599e+07   ,2.3  ,-2.3412  ,4.8
5695  ,1.892e+07   ,-2.4  ,0.7  ,0
5701  ,7.747e+07   ,-2.5  ,2.4  ,1.6
5715  ,1.160e+08   ,-2.4  ,2.5  ,1.8
5726  ,1.309e+08   ,-0.7  ,2.5  ,0.1
5727  ,6.344e+07   ,-1.1  ,2.4  ,0
5730  ,5.122e+07   ,2.3  ,-2.5  ,1.7774
5746  ,1.336e+08   ,2.5  ,2.4  ,1.7753
5755  ,7.985e+07   ,2.5  ,-2.4  ,4.4
5763  ,8.111e+07   ,2.4  ,-2.5  ,4.4
5773  ,9.811e+08   ,1.0491  ,2.5  ,4.9
5791  ,1.235e+08   ,-0.72473  ,2.4  ,5
5795  ,2.679e+09   ,1.8375  ,2.4  ,5
5803  ,2.314e+08   ,-0.3  ,-2.4  ,5
5810  ,1.835e+09   ,2.4  ,1.6404  ,5
5836  ,7.177e+07   ,-2.5  ,1.3  ,4.9
5860  ,5.402e+07   ,2.5  ,-2.4  ,1.6
5866  ,7.419e+07   ,1.5  ,-2.5  ,0.1
5884  ,1.494e+08   ,-2.4  ,-0.3  ,5
5888  ,1.170e+08   ,-2.5  ,-0.5  ,4.9
5901  ,1.691e+08   ,2.3  ,-2.5  ,2.5
5908  ,1.209e+08   ,2.5  ,-2.4  ,1.2
5909  ,1.091e+08   ,2.5  ,-2.4  ,2
5934  ,7.574e+07   ,1.9  ,-2.5  ,4.9
5938  ,9.998e+07   ,1.933  ,-2.5  ,4.8
5948  ,1.205e+08   ,-2.4  ,-2.5  ,4.6
5950  ,7.707e+07   ,-2.4707  ,-2.4707  ,4.9
5951  ,5.811e+07   ,-2.5  ,-2.4  ,4.8
5952  ,6.910e+07   ,-2.5  ,-2.3  ,4.9
5986  ,1.855e+08   ,2.3  ,-2.5  ,3.7085
5990  ,1.001e+08   ,-0.92182  ,2.5  ,4.9
6019  ,1.076e+08   ,2.5  ,1.9  ,0.1
6025  ,1.239e+08   ,2.4  ,-1.3  ,0
6035  ,1.073e+08   ,-2.5  ,1.9  ,4.9
6044  ,1.033e+08   ,0.1  ,2.5  ,0.1
6054  ,1.379e+08   ,2.4  ,0.1  ,0
6070  ,7.109e+07   ,-2.4  ,2.3  ,0
6071  ,7.957e+07   ,-2.3  ,2.4  ,0
6076  ,5.574e+07   ,-2.4  ,2.1  ,0
6083  ,1.546e+08   ,2.1  ,-2.4  ,0
6084  ,1.350e+08   ,2.4  ,2.3  ,0
6087  ,1.240e+08   ,2.3  ,2.4  ,0
6092  ,1.984e+06   ,-2.4  ,-2.5  ,0.4
6096  ,1.107e+06   ,-2.3  ,-2.5  ,0.1
6099  ,1.696e+07   ,0.7  ,-2.5  ,0.1
6149  ,1.257e+07   ,-2.4  ,-0.9  ,0
6159  ,6.654e+06   ,-2.5  ,-2.4  ,2.6
6183  ,1.184e+09   ,1.2462  ,2.5  ,4.9
6224  ,2.222e+08   ,2.5  ,-2.4  ,4
6228  ,1.866e+08   ,2.4  ,-2.5  ,3.8
6237  ,1.809e+08   ,2.5  ,0.7  ,0.1
6241  ,4.425e+09   ,2.5  ,2.3333  ,4.6998
6245  ,9.784e+07   ,2.5  ,2.4  ,1.5782
6259  ,1.507e+08   ,2.5  ,-2.1044  ,4.9
6265  ,1.129e+08   ,2.3  ,-1.9804  ,4.8
6267  ,6.752e+07   ,2.5  ,-2.3015  ,4.9
6268  ,6.663e+07   ,2.4707  ,-2.4  ,4.9707
6270  ,1.317e+08   ,2.4  ,-2.1044  ,5
6317  ,2.779e+08   ,-2.3  ,0.2278  ,4.8
6349  ,2.221e+08   ,-0.52764  ,2.4  ,5
6391  ,1.338e+08   ,2.4  ,2.5  ,1.7753
6440  ,1.449e+08   ,-2.5  ,2.4  ,3.8
6471  ,1.581e+08   ,2.5  ,-0.92182  ,4.9
6489  ,1.116e+09   ,2.5  ,1.2462  ,4.9
6523  ,2.038e+06   ,-1.1  ,-2.4  ,0
6528  ,2.196e+06   ,-1.1  ,-2.5  ,0.1
6535  ,3.214e+06   ,-0.9  ,-2.4  ,0
6538  ,1.983e+08   ,1.5  ,-2.4  ,5
6541  ,1.276e+08   ,1.5  ,-2.5  ,4.9
6551  ,1.102e+08   ,2.5  ,-0.72473  ,4.9
6564  ,6.122e+09   ,2.1331  ,2.4973  ,4.923
6565  ,4.296e+09   ,2.0345  ,2.5  ,4.9
6572  ,1.133e+08   ,2.4  ,-1.7  ,0
6581  ,3.551e+08   ,0  ,2.3  ,0.2
6592  ,1.830e+08   ,2.3  ,-1.9695  ,0.2
6594  ,7.903e+07   ,0.3  ,2.4  ,0
6601  ,1.914e+08   ,0.5  ,2.5  ,0.1
6605  ,3.301e+06   ,-2.4  ,-1.3  ,0
6606  ,7.595e+06   ,-2.4  ,-1.1  ,0
6615  ,1.517e+07   ,-2.4  ,-0.3  ,0
6634  ,1.171e+08   ,2.1  ,-2.5  ,4.9
6635  ,7.373e+07   ,2.4  ,-2.4707  ,4.9707
6636  ,7.592e+07   ,2.3  ,-2.4  ,5
6647  ,1.277e+07   ,0.5  ,-2.5  ,0.1
6704  ,3.852e+07   ,-2.4707  ,2.4707  ,0.1
6708  ,6.194e+07   ,-2.5  ,2.4  ,0.2
6712  ,1.243e+08   ,-2.4  ,2.5  ,3.6
6715  ,1.473e+08   ,-2.4  ,2.5  ,3.4
6728  ,1.302e+08   ,-2.5  ,0.7  ,4.9
6753  ,1.198e+08   ,-2.1044  ,2.4  ,5
6788  ,2.930e+09   ,2.5  ,2.4  ,4.3375
6791  ,1.283e+08   ,-1.933  ,-2.5  ,4.8
6795  ,3.939e+09   ,2.1998  ,2.5  ,4.8333
6837  ,2.056e+06   ,-2.3  ,-2.5  ,0.8063
6869  ,2.281e+08   ,2.5  ,-1.7102  ,4.9
6873  ,2.152e+08   ,2.4  ,-1.9073  ,5
6880  ,1.394e+08   ,2.4  ,-0.92182  ,5
6885  ,1.739e+08   ,2.4  ,-0.52764  ,5
6893  ,9.903e+08   ,2.4  ,1.2462  ,5
6914  ,1.787e+08   ,0.7  ,2.5  ,0.1
6920  ,1.350e+08   ,0.9  ,2.4  ,0
6923  ,1.206e+08   ,0.7  ,2.4  ,0
6936  ,1.733e+08   ,2.4  ,-2.5  ,3.4
6939  ,1.950e+08   ,2.3  ,-2.5  ,3.2226
6961  ,1.884e+08   ,-0.1  ,-2.5  ,4.9
6967  ,1.071e+08   ,-2.5  ,-1.5  ,4.9
6975  ,1.042e+08   ,-2.4  ,1.1  ,5
6978  ,4.674e+07   ,-2.4  ,2.5  ,0.2
6987  ,1.696e+08   ,2.4  ,-1.316  ,5
6994  ,1.222e+08   ,2.4  ,-1.5  ,0
7004  ,1.859e+08   ,2.4  ,-2.5  ,3.6
7011  ,8.380e+08   ,2.4  ,0.65491  ,5
7016  ,7.264e+08   ,2.4  ,0.45782  ,5
7019  ,3.003e+08   ,2.5  ,2.4  ,2.1695
7021  ,2.002e+08   ,2.5  ,2.4  ,1.9724
7052  ,1.185e+08   ,-1.3  ,2.5  ,0.1
7054  ,1.464e+06   ,-2.4  ,-2.5  ,0.8
7057  ,9.978e+06   ,0.3  ,-2.5  ,0.1
7065  ,7.997e+06   ,0.24243  ,-2.5  ,0.2
7075  ,1.703e+10   ,2.4888  ,2.4325  ,4.6656
7113  ,6.393e+06   ,-2.4  ,-2.5  ,2.6
7121  ,1.179e+07   ,-2.4  ,-2.5  ,2.8
7126  ,1.433e+07   ,-2.5  ,-2.4  ,2.8
7128  ,1.263e+06   ,-2.4707  ,-2.4707  ,0.1
7129  ,1.167e+06   ,-2.4  ,-2.4707  ,0.029289
7141  ,1.702e+08   ,-1.7  ,-2.4  ,5
7145  ,1.254e+08   ,1.1  ,2.4  ,0
7163  ,1.376e+08   ,-1.7102  ,2.4  ,5
7172  ,1.861e+08   ,2.5  ,-2.4  ,3.2
7174  ,1.435e+08   ,-2.5  ,2.4  ,3.6
7183  ,1.374e+08   ,-1.4531  ,-2.5  ,4.8
7204  ,2.839e+08   ,2.3  ,-0.81068  ,4.8
7220  ,5.228e+08   ,2.5  ,0.063638  ,4.9
7227  ,5.447e+07   ,2.5  ,-1.9  ,0.1
7256  ,2.444e+08   ,-0.1  ,-2.4  ,5
7280  ,3.141e+08   ,-0.33054  ,2.4  ,5
7299  ,1.471e+08   ,2.5  ,-1.1189  ,4.9
7316  ,1.801e+06   ,-2.5  ,-2.4  ,0.8
7323  ,2.245e+06   ,-2.4  ,-2.5  ,1
7396  ,1.478e+08   ,1.1  ,-2.4  ,5
7400  ,1.780e+07   ,-2.5  ,0.7  ,0.1
7409  ,1.846e+08   ,1.3  ,-2.4  ,5
7420  ,1.294e+08   ,2.5  ,2.1  ,0.1
7429  ,8.457e+07   ,2.4  ,1.9  ,0
7436  ,9.553e+07   ,2.5  ,-1.7  ,0.1
7438  ,1.519e+08   ,2.4  ,-2.5  ,2.8
7445  ,1.537e+10   ,2.4325  ,2.1656  ,4.9888
7464  ,1.359e+08   ,2.5  ,-1.5  ,0.1
7480  ,1.042e+08   ,2.5  ,-2.4  ,0.2
7482  ,1.151e+08   ,1.9  ,-2.5  ,0.1
7483  ,1.135e+08   ,1.7  ,-2.5  ,0.1
7486  ,7.447e+07   ,1.9  ,-2.4  ,5
7488  ,4.028e+07   ,1.6937  ,-2.5  ,4.8
7492  ,8.612e+07   ,2.1  ,-2.4  ,5
7495  ,3.493e+06   ,0.1  ,-2.5  ,0.1
7504  ,1.110e+07   ,0.3  ,-2.4  ,0
7507  ,2.376e+07   ,0.9  ,-2.5  ,0.1
7533  ,2.220e+07   ,-2.5  ,0.9  ,0.1
7536  ,2.223e+07   ,-2.4  ,-2.5  ,3.2
7540  ,1.587e+07   ,-2.4  ,-2.5  ,3
7545  ,1.753e+07   ,-2.5  ,-2.4  ,3
7582  ,1.030e+08   ,1.3  ,2.5  ,0.1
7588  ,4.595e+08   ,2.5  ,2.4  ,2.3665
7598  ,1.248e+08   ,-2.5  ,2.4  ,4.2
7607  ,2.009e+08   ,1.5333  ,2.3  ,0.2
7627  ,8.417e+07   ,-2.5  ,1.1  ,4.9
7651  ,9.441e+07   ,2.4  ,-1.9  ,0
7656  ,1.061e+08   ,2.5  ,2.4  ,0.39564
7660  ,5.552e+09   ,2.2299  ,2.3  ,4.7299
7668  ,7.013e+07   ,1.4531  ,-2.5  ,4.8
7676  ,1.576e+08   ,0.1  ,-2.5  ,4.9
7683  ,1.935e+08   ,0.1  ,-2.4  ,5
7686  ,1.493e+08   ,-2.4  ,-1.1  ,5
7702  ,8.094e+07   ,-2.3  ,-2.5  ,4.433
7710  ,1.281e+08   ,-2.3  ,-2.5  ,4.6765
7752  ,1.302e+08   ,0.9  ,-2.4  ,5
7763  ,1.647e+08   ,0.24243  ,-2.5  ,4.8
7767  ,1.970e+07   ,-2.5  ,-2.4  ,3.2
7768  ,3.108e+06   ,-2.4  ,-2.1  ,0
7776  ,3.112e+07   ,-2.4  ,0.9  ,0
7786  ,8.649e+07   ,-0.4838  ,-2.5  ,4.8
7800  ,7.799e+07   ,2.5  ,-2.4  ,4.6
7805  ,1.213e+08   ,-2.5  ,-1.3  ,4.9
7811  ,1.206e+08   ,-2.5  ,-1.1  ,4.9
7820  ,7.347e+07   ,2.5  ,-2.1  ,0.1
7824  ,7.758e+07   ,2.4  ,-2.1  ,0
7828  ,7.682e+07   ,2.4  ,-2.5  ,4.2
7831  ,1.495e+08   ,2.4  ,-2.5  ,4
7838  ,1.562e+08   ,2.5  ,-2.4  ,4.2
7839  ,6.288e+08   ,2.5  ,2.4  ,2.7607
7840  ,7.433e+08   ,2.5  ,2.4  ,2.9578
7863  ,2.357e+06   ,-2.4  ,-1.5  ,0
7890  ,1.407e+08   ,2.4  ,0.9  ,0
7897  ,1.140e+07   ,-2.4  ,-0.7  ,0
7912  ,1.803e+06   ,-1.5  ,-2.4  ,0
7917  ,2.142e+06   ,-1.3  ,-2.5  ,0.1
7931  ,1.045e+08   ,0.5  ,2.4  ,0
7934  ,2.992e+07   ,1.1  ,-2.4  ,0
7937  ,1.310e+08   ,2.4  ,-2.5  ,0.8
7941  ,1.992e+06   ,-2.4  ,-2.5  ,0.6
7969  ,5.195e+07   ,-2.5  ,2.3  ,0.1
7971  ,8.055e+07   ,-2.4  ,1.9  ,0
7972  ,1.302e+08   ,-1.9  ,2.5  ,0.1
7978  ,7.399e+07   ,-2.4  ,1.1  ,0
7996  ,1.387e+08   ,-2.4  ,-0.5  ,5
8000  ,2.187e+06   ,-2.5  ,-2.4  ,0.6
8003  ,2.025e+06   ,-2.5  ,-2.4  ,0.4
8025  ,1.430e+08   ,0.9  ,2.5  ,0.1
8035  ,1.007e+08   ,0.3  ,2.5  ,0.1
8039  ,3.104e+08   ,2.3  ,-2.5  ,0.32348
8041  ,1.944e+08   ,2.3  ,-2.3379  ,0.2
8043  ,1.331e+08   ,2.1765  ,-2.5  ,0.2
8045  ,3.084e+06   ,-0.96359  ,-2.5  ,0.2
8054  ,1.101e+08   ,1.3  ,2.4  ,0
8058  ,1.206e+08   ,1.1  ,2.5  ,0.1
8062  ,7.911e+07   ,-2.5  ,2.4  ,1.4
8067  ,1.324e+08   ,-2.5  ,2.4  ,0.8
8087  ,1.128e+08   ,-2.5  ,1.5  ,0.1
8132  ,4.290e+08   ,-0.13345  ,2.4  ,5
8183  ,1.268e+08   ,2.5  ,-0.9  ,0.1
8184  ,4.032e+07   ,1.6937  ,-2.5  ,0.2
8214  ,6.798e+07   ,-2.4707  ,-2.4  ,4.9707
8217  ,8.879e+07   ,-2.1  ,-2.4  ,5
8219  ,1.214e+08   ,-2.4  ,-2.5  ,4.4
8227  ,8.670e+08   ,2.5  ,2.4  ,3.1549
8242  ,1.688e+08   ,0.7  ,-2.5  ,4.9
8248  ,1.473e+08   ,2.5  ,-2.4  ,3.6
8254  ,1.345e+08   ,2.5  ,-0.3  ,0.1
8256  ,1.358e+08   ,2.5  ,-0.5  ,0.1
8258  ,1.734e+08   ,-0.3  ,-2.5  ,4.9
8263  ,1.354e+08   ,-0.5  ,-2.5  ,4.9
8268  ,5.364e+07   ,-2.3  ,-2.5  ,3.7085
8277  ,2.751e+06   ,-0.1  ,-2.5  ,0.1
8285  ,1.664e+08   ,1.1  ,-2.5  ,4.9
8307  ,8.383e+07   ,0.1  ,2.4  ,0
8308  ,3.058e+08   ,-0.1  ,2.5  ,0.1
8309  ,1.372e+08   ,-0.1  ,2.4  ,0
8313  ,7.918e+07   ,2.5  ,-2.3  ,0.1
8318  ,2.017e+08   ,2.5  ,-2.4  ,3
8338  ,9.230e+08   ,2.5  ,2.4  ,3.352
8339  ,8.709e+08   ,2.4  ,2.5  ,3.1549
8344  ,1.530e+08   ,-2.5  ,2.4  ,3.4
8357  ,1.470e+10   ,2.4888  ,2.1656  ,4.9325
8358  ,4.094e+09   ,2.5  ,2.1998  ,4.8333
8383  ,1.508e+06   ,-1.7  ,-2.4  ,0
8396  ,3.606e+07   ,1.1  ,-2.5  ,0.1
8399  ,4.350e+09   ,2.4526  ,2.1331  ,4.9851
8405  ,1.441e+08   ,2.5  ,-2.4  ,1
8412  ,6.521e+07   ,2.3  ,-2.5  ,0.8063
8417  ,9.567e+06   ,-2.3  ,-2.5  ,2.5
8434  ,1.997e+08   ,0.9636  ,-2.5  ,4.8
8438  ,2.640e+06   ,-0.3  ,-2.5  ,0.1
8452  ,1.289e+08   ,-2.4  ,-0.1  ,5
8468  ,1.149e+09   ,2.5  ,2.4  ,3.7462
8471  ,1.648e+08   ,-1.3  ,-2.5  ,4.9
8493  ,1.283e+08   ,-1.1  ,-2.5  ,4.9
8509  ,2.323e+06   ,-2.5  ,-1.7  ,0.1
8517  ,1.635e+08   ,-2.4  ,2.5  ,3
8531  ,9.554e+07   ,-2.4  ,1.7  ,0
8556  ,1.044e+09   ,2.5  ,2.4  ,3.5491
8573  ,1.362e+08   ,-1.316  ,2.4  ,5
8576  ,1.098e+08   ,-2.4  ,1.3  ,0
8611  ,1.413e+08   ,2.3  ,-2.5  ,1.2915
8618  ,1.057e+08   ,-2.4  ,2.5  ,4
8646  ,7.842e+07   ,-2.5  ,1.1  ,0.1
8656  ,1.646e+08   ,2.5  ,-1.3  ,0.1
8657  ,1.245e+08   ,2.4  ,2.1  ,0
8673  ,8.095e+07   ,-1.3  ,2.4  ,0
8692  ,1.875e+08   ,0.72263  ,-2.5  ,4.8
8696  ,1.191e+08   ,2.3  ,-2.5  ,1.0469
8706  ,8.200e+08   ,2.5  ,0.65491  ,4.9
8721  ,2.742e+06   ,-2.4  ,-2.5  ,1.6
8725  ,8.809e+08   ,0.65491  ,2.4  ,5
8739  ,1.576e+10   ,2.1656  ,2.4325  ,4.9888
8741  ,4.374e+09   ,2.1998  ,2.3333  ,5
8746  ,3.297e+06   ,-2.1  ,-2.4  ,0
8748  ,2.927e+06   ,-2.5  ,-2.4  ,1.2
8752  ,4.815e+09   ,2.1331  ,2.4526  ,4.9851
8759  ,1.666e+06   ,-2.3  ,-2.5  ,1.0469
8787  ,2.602e+06   ,-0.1  ,-2.4  ,0
8793  ,8.363e+06   ,-2.3  ,-2.5  ,2.2576
8795  ,7.161e+06   ,-2.4  ,-2.5  ,2.4
8798  ,3.927e+07   ,-2.3  ,-2.5  ,4.1937
8808  ,7.828e+07   ,-2.3  ,-2.5  ,3.9531
8814  ,1.459e+08   ,-2.4  ,-1.5  ,5
8849  ,1.494e+08   ,0.4838  ,-2.5  ,4.8
8851  ,1.053e+08   ,-2.4  ,-2.5  ,4.2
8868  ,1.722e+08   ,2.4  ,-2.5  ,3
8874  ,9.569e+08   ,0.852  ,2.4  ,5
8883  ,1.911e+08   ,-0.5  ,-2.4  ,5
8886  ,5.697e+07   ,-0.72262  ,-2.5  ,4.8
8893  ,8.897e+07   ,-0.7  ,-2.5  ,4.9
8897  ,3.658e+07   ,-2.5  ,-2.4  ,3.6
8899  ,3.682e+07   ,-2.3  ,-2.5  ,3.4636
8900  ,3.639e+06   ,-2.3  ,-1.4729  ,0.2
8906  ,3.365e+06   ,-2.5  ,-1.3  ,0.1
8910  ,9.708e+08   ,0.852  ,2.5  ,4.9
8925  ,1.001e+08   ,-2.4  ,2.5  ,1.4
8941  ,6.439e+07   ,2.4707  ,2.4  ,0.029289
8942  ,1.161e+08   ,2.5  ,2.3  ,0.1
8945  ,1.295e+08   ,-2.5  ,0.1  ,4.9
8950  ,5.293e+07   ,2.4707  ,2.4707  ,0.1
8951  ,4.733e+07   ,2.4  ,2.4707  ,0.029289
8959  ,5.931e+08   ,2.4  ,0.26073  ,5
8965  ,6.827e+08   ,0.45782  ,2.4  ,5
8978  ,9.275e+08   ,2.4  ,0.852  ,5
8983  ,1.566e+08   ,2.5  ,-1.1  ,0.1
8991  ,1.284e+08   ,-2.5  ,2.4  ,0.6
9008  ,8.633e+08   ,2.5  ,0.852  ,4.9
9011  ,9.086e+06   ,-2.4  ,-0.5  ,0
9025  ,2.631e+06   ,-1.5  ,-2.5  ,0.1
9038  ,6.553e+07   ,2.4  ,-2.5  ,2
9041  ,1.631e+08   ,2.5  ,0.9  ,0.1
9050  ,1.810e+08   ,2.5  ,0.5  ,0.1
9054  ,1.726e+07   ,0.9  ,-2.4  ,0
9060  ,1.582e+08   ,2.4  ,-2.5  ,0.4
9062  ,1.413e+08   ,2.3  ,-2.5  ,0.56701
9064  ,8.581e+07   ,2.5  ,-2.4  ,0.4
9069  ,1.583e+08   ,2.4  ,-2.5  ,0.6
9071  ,7.569e+07   ,1.4531  ,-2.5  ,0.2
9082  ,1.458e+06   ,-2.3  ,-2.5  ,1.2915
9086  ,2.406e+06   ,-2.4  ,-2.5  ,1.4
9091  ,3.510e+06   ,-2.5  ,-2.4  ,1.4
9094  ,1.524e+08   ,1.3  ,-2.5  ,4.9
9097  ,3.616e+06   ,-0.7  ,-2.5  ,0.1
9137  ,1.085e+08   ,-2.5  ,-0.7  ,4.9
9143  ,1.455e+08   ,-2.5  ,-0.1  ,4.9
9146  ,1.335e+08   ,-2.1  ,2.4  ,0
9148  ,9.819e+07   ,-2.5  ,1.7  ,4.9
9173  ,1.829e+08   ,-2.5  ,2.4  ,3
9192  ,1.248e+08   ,-0.7  ,-2.4  ,5
9195  ,1.460e+07   ,0.72263  ,-2.5  ,0.2
9209  ,1.339e+08   ,2.5  ,-2.4  ,3.4
9215  ,3.003e+07   ,0.9636  ,-2.5  ,0.2
9217  ,1.901e+08   ,2.4  ,-2.5  ,3.2
9218  ,1.213e+08   ,-0.96359  ,-2.5  ,4.8
9229  ,1.642e+08   ,-2.4  ,2.5  ,2.8
9248  ,1.104e+08   ,2.3  ,-2.5  ,4.433
9255  ,1.282e+08   ,2.5  ,1.3  ,0.1
9257  ,8.139e+07   ,2.4  ,1.5  ,0
9262  ,1.808e+08   ,0.5  ,-2.4  ,5
9264  ,4.016e+08   ,2.4  ,-0.13345  ,5
9272  ,5.494e+08   ,0.063638  ,2.4  ,5
9277  ,9.360e+07   ,-2.5  ,2.4  ,1.2
9279  ,6.244e+08   ,2.5  ,0.26073  ,4.9
9282  ,1.468e+08   ,1.2085  ,-2.5  ,4.8
9286  ,1.702e+08   ,0.9  ,-2.5  ,4.9
9292  ,4.407e+07   ,-2.4  ,2.4707  ,4.9707
9293  ,8.412e+07   ,-2.3015  ,2.4  ,5
9296  ,8.620e+07   ,-2.4  ,-2.1  ,5
9303  ,6.052e+07   ,-2.4  ,-1.9  ,5
9311  ,9.030e+07   ,-2.4  ,2.3  ,5
9313  ,1.309e+08   ,-2.4  ,0.1  ,5
9319  ,3.617e+06   ,-0.5  ,-2.4  ,0
9328  ,1.443e+06   ,-2.3  ,-2.5  ,1.5364
9334  ,5.341e+07   ,-2.3  ,2.5  ,0.1
9338  ,6.104e+06   ,-2.5  ,-2.4  ,2.4
9339  ,1.083e+08   ,-2.5  ,1.3  ,0.1
9341  ,1.037e+07   ,-2.3  ,-2.5  ,2.7424
9344  ,6.195e+06   ,-2.5  ,-2.4  ,2.2
9358  ,7.541e+08   ,-2.3  ,2.3  ,2.5
9364  ,8.340e+07   ,-2.5  ,-2.1  ,4.9
9367  ,8.837e+07   ,-2.4  ,-2.3  ,5
9374  ,1.565e+08   ,-2.4  ,-1.3  ,5
9378  ,1.023e+08   ,-2.5  ,2.4  ,1.8
9384  ,3.575e+07   ,2.3  ,-2.5  ,2.0162
9385  ,1.103e+08   ,-2.5  ,2.4  ,4.4
9389  ,1.098e+08   ,-2.5  ,2.4  ,2
9395  ,7.651e+07   ,2.4  ,-2.3015  ,5
9396  ,1.311e+06   ,-2.4  ,-1.7  ,0
9407  ,2.289e+08   ,-2.3  ,-1.4729  ,4.8
9411  ,1.106e+08   ,-2.5  ,-1.7  ,4.9
9423  ,4.351e+07   ,-2.4  ,-2.5  ,3.6
9432  ,1.477e+08   ,0.7  ,-2.4  ,5
9438  ,1.158e+08   ,-2.5  ,-0.9  ,4.9
9443  ,1.397e+08   ,-2.5  ,-0.3  ,4.9
9445  ,5.003e+07   ,-2.4707  ,2.4  ,4.9707
9448  ,1.323e+08   ,2.4  ,-1.1189  ,5
9453  ,1.395e+08   ,2.4  ,0.7  ,0
9455  ,1.723e+08   ,2.5  ,-2.4  ,2.6
9457  ,1.627e+08   ,2.3  ,-2.5  ,2.9838
9494  ,1.402e+08   ,-2.4  ,2.5  ,1
9500  ,1.399e+08   ,0.3  ,-2.5  ,4.9
9504  ,1.782e+08   ,0.3  ,-2.4  ,5
9506  ,1.251e+08   ,2.1  ,-2.5  ,0.1
9518  ,2.261e+06   ,-1.9  ,-2.5  ,0.1
9528  ,1.012e+08   ,2.3  ,-2.5  ,0.1
9531  ,1.167e+08   ,2.4707  ,-2.4707  ,0.1
9533  ,7.333e+07   ,2.4707  ,-2.4  ,0.029289
9534  ,8.920e+07   ,2.4  ,-2.4707  ,0.029289
9541  ,1.562e+08   ,0.5  ,-2.5  ,4.9
9544  ,3.378e+06   ,-0.5  ,-2.5  ,0.1
9559  ,9.007e+07   ,-2.5  ,-1.9  ,4.9
9562  ,1.000e+08   ,-2.5  ,2.4  ,4.6
9565  ,1.444e+08   ,-2.4  ,2.5  ,2
9571  ,3.927e+07   ,-2.5  ,-2.4  ,3.8
9574  ,5.788e+07   ,-2.4  ,-2.5  ,3.8
9577  ,4.939e+07   ,1.3  ,-2.5  ,0.1
9582  ,1.107e+07   ,-2.5  ,-0.9  ,0.1
9596  ,1.276e+08   ,2.1  ,2.4  ,0
9598  ,1.813e+08   ,-2.4  ,2.5  ,3.2
9602  ,1.035e+08   ,1.5  ,2.5  ,0.1
9610  ,1.067e+08   ,2.4  ,2.5  ,0.39564
9612  ,1.518e+08   ,-0.72473  ,2.5  ,4.9
9614  ,9.352e+07   ,1.7  ,2.5  ,0.1
9635  ,1.238e+08   ,2.5  ,1.7  ,0.1
9646  ,8.507e+07   ,2.3  ,2.5  ,0.1
9651  ,1.452e+10   ,2.1656  ,2.4888  ,4.9325
9653  ,1.476e+08   ,2.5  ,-1.316  ,4.9
9656  ,8.413e+07   ,-2.4  ,-1.7  ,5
9659  ,1.229e+08   ,2.3  ,-2.5  ,4.6765
9661  ,1.034e+08   ,2.3  ,-2.5  ,3.9531
9664  ,1.011e+08   ,-2.3  ,-2.4  ,5
9666  ,2.147e+08   ,1.9  ,-2.4  ,0
9677  ,1.487e+08   ,2.4  ,0.5  ,0
9678  ,8.233e+06   ,-2.5  ,-1.1  ,0.1
9680  ,1.230e+08   ,2.5  ,2.4  ,1.184
9681  ,9.124e+07   ,2.5  ,2.4  ,0.19855
9696  ,3.134e+06   ,-2.3  ,-2.5  ,2.0162
9698  ,7.749e+07   ,2.4  ,-2.3  ,0
9699  ,2.767e+06   ,-0.24243  ,-2.5  ,0.2
9701  ,4.395e+06   ,0.1  ,-2.4  ,0
9704  ,3.687e+06   ,-0.4838  ,-2.5  ,0.2
9718  ,2.562e+06   ,-0.72262  ,-2.5  ,0.2
9726  ,2.593e+08   ,2.3  ,-0.76628  ,0.2
9727  ,1.067e+08   ,-2.5  ,2.4  ,0.4
9730  ,1.897e+08   ,1.9433E-06  ,-2.5  ,4.8
9731  ,1.597e+08   ,-0.24243  ,-2.5  ,4.8
9732  ,1.367e+08   ,-2.5  ,2.4  ,2.2
9738  ,5.555e+07   ,-2.5  ,-2.4  ,4
9743  ,8.792e+07   ,-1.6937  ,-2.5  ,4.8
9744  ,7.636e+07   ,-2.4  ,-2.5  ,4
9750  ,1.017e+06   ,-1.7  ,-2.5  ,0.1
9752  ,9.553e+05   ,-1.6937  ,-2.5  ,0.2
9754  ,1.795e+06   ,-1.3  ,-2.4  ,0
9759  ,5.454e+07   ,-2.4707  ,2.4  ,0.029289
9760  ,3.981e+07   ,-2.4  ,2.4707  ,0.029289
9768  ,4.344e+07   ,2.3  ,-2.5  ,4.1937
9770  ,3.952e+06   ,1.9433E-06  ,-2.5  ,0.2
9771  ,7.733e+06   ,0.4838  ,-2.5  ,0.2
9772  ,3.859e+07   ,2.4  ,-2.5  ,0.2
9773  ,1.129e+08   ,2.4  ,-2.5  ,4.6
9776  ,5.269e+08   ,2.4  ,0.063638  ,5
9780  ,9.396e+08   ,0.65491  ,2.5  ,4.9
9781  ,8.974e+07   ,2.4  ,2.5  ,0.19855
9782  ,1.127e+07   ,-2.3  ,-2.5  ,2.9838
9786  ,2.904e+06   ,-1.2085  ,-2.5  ,0.2
9787  ,2.838e+06   ,-1.4531  ,-2.5  ,0.2
9790  ,6.500e+07   ,2.3  ,-2.4  ,0
9793  ,4.318e+09   ,2.0345  ,2.4  ,5
9797  ,1.032e+08   ,2.3  ,-2.5  ,1.5364
9798  ,9.326e+08   ,2.4  ,1.0491  ,5
9809  ,9.722e+08   ,2.4  ,2.5  ,3.352
