Date:  11:21, Monday, July 10, 2023
Model name: Hollow_DropBox
Study name: Drop Test_hollow_draft1(-Default-)
Plot type:  Stress1
Plot step: 13   time : 68.2104 Microseconds
Result Type: von Mises 


Node  ,Value (N/m^2)  ,X (in)  ,Y (in)  ,Z (in)
1  ,6.478e+09   ,2.5  ,2.1331  ,4.9
2  ,2.250e+10   ,2.4577  ,2.1908  ,4.9577
3  ,1.393e+10   ,2.4894  ,2.1331  ,4.9447
4  ,6.881e+09   ,2.1331  ,2.5  ,4.9
5  ,1.467e+10   ,2.1331  ,2.4894  ,4.9447
6  ,2.078e+10   ,2.1908  ,2.4577  ,4.9577
7  ,1.221e+08   ,-2.4  ,2.4  ,5
8  ,3.941e+08   ,-2.4  ,-2.4  ,5
9  ,8.126e+08   ,2.4  ,-2.4  ,5
10  ,6.035e+09   ,2.4  ,2.1331  ,5
11  ,6.229e+09   ,2.1331  ,2.4  ,5
12  ,8.734e+08   ,2.5  ,-2.4  ,4.9
13  ,3.536e+08   ,2.5  ,-2.4  ,0.1
14  ,1.160e+08   ,2.5  ,2.4  ,0.1
15  ,6.709e+09   ,2.5  ,2.4  ,4.6331
16  ,1.064e+08   ,2.4  ,2.5  ,0.1
17  ,5.834e+07   ,-2.4  ,2.5  ,0.1
18  ,8.281e+07   ,-2.4  ,2.5  ,4.9
19  ,6.781e+09   ,2.4  ,2.5  ,4.6331
20  ,7.452e+07   ,-2.5  ,2.4  ,0.1
21  ,1.177e+08   ,-2.5  ,-2.4  ,0.1
22  ,2.706e+08   ,-2.5  ,-2.4  ,4.9
23  ,1.303e+08   ,-2.5  ,2.4  ,4.9
24  ,6.156e+07   ,-2.3  ,-2.5  ,0.2
25  ,3.435e+08   ,-2.3  ,-2.5  ,4.8
26  ,8.172e+08   ,2.3  ,-2.5  ,4.8
27  ,2.787e+08   ,2.3  ,-2.5  ,0.2
28  ,3.797e+08   ,-2.4  ,-2.5  ,4.9
29  ,9.163e+08   ,2.4  ,-2.5  ,4.9
30  ,1.325e+08   ,-2.4  ,-2.5  ,0.1
31  ,3.370e+08   ,2.4  ,-2.5  ,0.1
32  ,2.700e+08   ,2.4  ,-2.4  ,0
33  ,1.058e+08   ,2.4  ,2.4  ,0
34  ,1.136e+08   ,-2.4  ,-2.4  ,0
35  ,7.766e+07   ,-2.4  ,2.4  ,0
36  ,2.536e+10   ,2.4577  ,2.4577  ,4.6908
37  ,3.320e+08   ,-2.3  ,2.3  ,4.8
38  ,7.449e+09   ,2.1599  ,2.3  ,4.8
39  ,7.304e+09   ,2.3  ,2.1599  ,4.8
40  ,7.233e+09   ,2.3  ,2.3  ,4.6599
41  ,3.570e+08   ,2.3  ,2.3  ,0.2
42  ,3.087e+08   ,-2.3  ,2.3  ,0.2
43  ,1.702e+08   ,-2.4  ,2.2  ,5
44  ,1.984e+08   ,-2.4  ,2  ,5
45  ,1.853e+08   ,-2.4  ,1.8  ,5
46  ,1.573e+08   ,-2.4  ,1.6  ,5
47  ,1.329e+08   ,-2.4  ,1.4  ,5
48  ,2.011e+08   ,-2.4  ,1.2  ,5
49  ,2.898e+08   ,-2.4  ,1  ,5
50  ,5.000e+08   ,-2.4  ,0.8  ,5
51  ,4.242e+08   ,-2.4  ,0.6  ,5
52  ,3.645e+08   ,-2.4  ,0.4  ,5
53  ,3.445e+08   ,-2.4  ,0.2  ,5
54  ,2.611e+08   ,-2.4  ,5.8879E-16  ,5
55  ,2.602e+08   ,-2.4  ,-0.2  ,5
56  ,2.780e+08   ,-2.4  ,-0.4  ,5
57  ,3.520e+08   ,-2.4  ,-0.6  ,5
58  ,3.602e+08   ,-2.4  ,-0.8  ,5
59  ,3.647e+08   ,-2.4  ,-1  ,5
60  ,3.129e+08   ,-2.4  ,-1.2  ,5
61  ,4.113e+08   ,-2.4  ,-1.4  ,5
62  ,3.439e+08   ,-2.4  ,-1.6  ,5
63  ,2.757e+08   ,-2.4  ,-1.8  ,5
64  ,3.394e+08   ,-2.4  ,-2  ,5
65  ,2.958e+08   ,-2.4  ,-2.2  ,5
66  ,5.682e+08   ,-2.2  ,-2.4  ,5
67  ,7.525e+08   ,-2  ,-2.4  ,5
68  ,8.298e+08   ,-1.8  ,-2.4  ,5
69  ,7.160e+08   ,-1.6  ,-2.4  ,5
70  ,5.745e+08   ,-1.4  ,-2.4  ,5
71  ,5.489e+08   ,-1.2  ,-2.4  ,5
72  ,4.085e+08   ,-1  ,-2.4  ,5
73  ,3.044e+08   ,-0.8  ,-2.4  ,5
74  ,2.686e+08   ,-0.6  ,-2.4  ,5
75  ,2.553e+08   ,-0.4  ,-2.4  ,5
76  ,2.134e+08   ,-0.2  ,-2.4  ,5
77  ,1.506e+08   ,-5.8879E-16  ,-2.4  ,5
78  ,1.332e+08   ,0.2  ,-2.4  ,5
79  ,3.663e+08   ,0.4  ,-2.4  ,5
80  ,6.112e+08   ,0.6  ,-2.4  ,5
81  ,8.768e+08   ,0.8  ,-2.4  ,5
82  ,1.093e+09   ,1  ,-2.4  ,5
83  ,1.056e+09   ,1.2  ,-2.4  ,5
84  ,9.680e+08   ,1.4  ,-2.4  ,5
85  ,6.216e+08   ,1.6  ,-2.4  ,5
86  ,2.562e+08   ,1.8  ,-2.4  ,5
87  ,4.671e+08   ,2  ,-2.4  ,5
88  ,1.388e+09   ,2.2  ,-2.4  ,5
89  ,6.976e+08   ,2.4  ,-2.2029  ,5
90  ,7.370e+08   ,2.4  ,-2.0058  ,5
91  ,5.670e+08   ,2.4  ,-1.8087  ,5
92  ,5.386e+08   ,2.4  ,-1.6116  ,5
93  ,6.072e+08   ,2.4  ,-1.4145  ,5
94  ,5.549e+08   ,2.4  ,-1.2175  ,5
95  ,6.024e+08   ,2.4  ,-1.0204  ,5
96  ,6.415e+08   ,2.4  ,-0.82327  ,5
97  ,5.563e+08   ,2.4  ,-0.62618  ,5
98  ,4.900e+08   ,2.4  ,-0.42909  ,5
99  ,4.793e+08   ,2.4  ,-0.232  ,5
100  ,5.114e+08   ,2.4  ,-0.034907  ,5
101  ,5.717e+08   ,2.4  ,0.16218  ,5
102  ,7.222e+08   ,2.4  ,0.35927  ,5
103  ,9.558e+08   ,2.4  ,0.55637  ,5
104  ,1.140e+09   ,2.4  ,0.75346  ,5
105  ,1.002e+09   ,2.4  ,0.95055  ,5
106  ,1.046e+09   ,2.4  ,1.1476  ,5
107  ,1.423e+09   ,2.4  ,1.3447  ,5
108  ,2.136e+09   ,2.4  ,1.5418  ,5
109  ,2.788e+09   ,2.4  ,1.7389  ,5
110  ,4.707e+09   ,2.4  ,1.936  ,5
111  ,6.411e+09   ,2.2665  ,2.2665  ,5
112  ,5.013e+09   ,1.936  ,2.4  ,5
113  ,2.913e+09   ,1.7389  ,2.4  ,5
114  ,2.290e+09   ,1.5418  ,2.4  ,5
115  ,1.658e+09   ,1.3447  ,2.4  ,5
116  ,1.362e+09   ,1.1476  ,2.4  ,5
117  ,1.377e+09   ,0.95055  ,2.4  ,5
118  ,1.445e+09   ,0.75346  ,2.4  ,5
119  ,1.286e+09   ,0.55637  ,2.4  ,5
120  ,1.073e+09   ,0.35927  ,2.4  ,5
121  ,9.635e+08   ,0.16218  ,2.4  ,5
122  ,8.917e+08   ,-0.034907  ,2.4  ,5
123  ,9.546e+08   ,-0.232  ,2.4  ,5
124  ,7.651e+08   ,-0.42909  ,2.4  ,5
125  ,6.882e+08   ,-0.62618  ,2.4  ,5
126  ,8.392e+08   ,-0.82327  ,2.4  ,5
127  ,8.202e+08   ,-1.0204  ,2.4  ,5
128  ,7.687e+08   ,-1.2175  ,2.4  ,5
129  ,6.472e+08   ,-1.4145  ,2.4  ,5
130  ,4.422e+08   ,-1.6116  ,2.4  ,5
131  ,3.199e+08   ,-1.8087  ,2.4  ,5
132  ,1.900e+08   ,-2.0058  ,2.4  ,5
133  ,9.724e+07   ,-2.2029  ,2.4  ,5
294  ,5.910e+08   ,2.5  ,-2.2029  ,4.9
295  ,7.158e+08   ,2.5  ,-2.0058  ,4.9
296  ,5.741e+08   ,2.5  ,-1.8087  ,4.9
297  ,6.048e+08   ,2.5  ,-1.6116  ,4.9
298  ,5.265e+08   ,2.5  ,-1.4145  ,4.9
299  ,5.712e+08   ,2.5  ,-1.2175  ,4.9
300  ,5.824e+08   ,2.5  ,-1.0204  ,4.9
301  ,4.725e+08   ,2.5  ,-0.82327  ,4.9
302  ,5.249e+08   ,2.5  ,-0.62618  ,4.9
303  ,4.615e+08   ,2.5  ,-0.42909  ,4.9
304  ,5.831e+08   ,2.5  ,-0.232  ,4.9
305  ,7.010e+08   ,2.5  ,-0.034907  ,4.9
306  ,7.109e+08   ,2.5  ,0.16218  ,4.9
307  ,7.214e+08   ,2.5  ,0.35927  ,4.9
308  ,9.108e+08   ,2.5  ,0.55637  ,4.9
309  ,1.069e+09   ,2.5  ,0.75346  ,4.9
310  ,1.050e+09   ,2.5  ,0.95055  ,4.9
311  ,1.274e+09   ,2.5  ,1.1476  ,4.9
312  ,1.513e+09   ,2.5  ,1.3447  ,4.9
313  ,2.081e+09   ,2.5  ,1.5418  ,4.9
314  ,3.306e+09   ,2.5  ,1.7389  ,4.9
315  ,5.226e+09   ,2.5  ,1.936  ,4.9
316  ,1.404e+09   ,2.5  ,-2.4  ,4.7
317  ,4.283e+08   ,2.5  ,-2.4  ,4.5
318  ,2.546e+08   ,2.5  ,-2.4  ,4.3
319  ,6.503e+08   ,2.5  ,-2.4  ,4.1
320  ,8.785e+08   ,2.5  ,-2.4  ,3.9
321  ,1.114e+09   ,2.5  ,-2.4  ,3.7
322  ,1.111e+09   ,2.5  ,-2.4  ,3.5
323  ,8.439e+08   ,2.5  ,-2.4  ,3.3
324  ,5.780e+08   ,2.5  ,-2.4  ,3.1
325  ,3.558e+08   ,2.5  ,-2.4  ,2.9
326  ,1.566e+08   ,2.5  ,-2.4  ,2.7
327  ,1.341e+08   ,2.5  ,-2.4  ,2.5
328  ,1.501e+08   ,2.5  ,-2.4  ,2.3
329  ,2.176e+08   ,2.5  ,-2.4  ,2.1
330  ,2.548e+08   ,2.5  ,-2.4  ,1.9
331  ,3.280e+08   ,2.5  ,-2.4  ,1.7
332  ,4.283e+08   ,2.5  ,-2.4  ,1.5
333  ,5.327e+08   ,2.5  ,-2.4  ,1.3
334  ,5.379e+08   ,2.5  ,-2.4  ,1.1
335  ,6.737e+08   ,2.5  ,-2.4  ,0.9
336  ,8.331e+08   ,2.5  ,-2.4  ,0.7
337  ,7.615e+08   ,2.5  ,-2.4  ,0.5
338  ,6.765e+08   ,2.5  ,-2.4  ,0.3
339  ,3.092e+08   ,2.5  ,-2.2  ,0.1
340  ,3.539e+08   ,2.5  ,-2  ,0.1
341  ,2.698e+08   ,2.5  ,-1.8  ,0.1
342  ,2.820e+08   ,2.5  ,-1.6  ,0.1
343  ,2.345e+08   ,2.5  ,-1.4  ,0.1
344  ,2.622e+08   ,2.5  ,-1.2  ,0.1
345  ,3.068e+08   ,2.5  ,-1  ,0.1
346  ,3.031e+08   ,2.5  ,-0.8  ,0.1
347  ,3.304e+08   ,2.5  ,-0.6  ,0.1
348  ,2.913e+08   ,2.5  ,-0.4  ,0.1
349  ,2.808e+08   ,2.5  ,-0.2  ,0.1
350  ,2.841e+08   ,2.5  ,-1.7664E-15  ,0.1
351  ,2.947e+08   ,2.5  ,0.2  ,0.1
352  ,3.525e+08   ,2.5  ,0.4  ,0.1
353  ,4.195e+08   ,2.5  ,0.6  ,0.1
354  ,5.266e+08   ,2.5  ,0.8  ,0.1
355  ,2.786e+08   ,2.5  ,1  ,0.1
356  ,1.925e+08   ,2.5  ,1.2  ,0.1
357  ,1.812e+08   ,2.5  ,1.4  ,0.1
358  ,1.763e+08   ,2.5  ,1.6  ,0.1
359  ,1.351e+08   ,2.5  ,1.8  ,0.1
360  ,1.324e+08   ,2.5  ,2  ,0.1
361  ,1.487e+08   ,2.5  ,2.2  ,0.1
362  ,4.888e+09   ,2.5  ,2.4  ,4.436
363  ,3.267e+09   ,2.5  ,2.4  ,4.2389
364  ,2.187e+09   ,2.5  ,2.4  ,4.0418
365  ,1.675e+09   ,2.5  ,2.4  ,3.8447
366  ,1.384e+09   ,2.5  ,2.4  ,3.6476
367  ,1.266e+09   ,2.5  ,2.4  ,3.4505
368  ,1.408e+09   ,2.5  ,2.4  ,3.2535
369  ,1.333e+09   ,2.5  ,2.4  ,3.0564
370  ,1.099e+09   ,2.5  ,2.4  ,2.8593
371  ,9.843e+08   ,2.5  ,2.4  ,2.6622
372  ,1.035e+09   ,2.5  ,2.4  ,2.4651
373  ,8.938e+08   ,2.5  ,2.4  ,2.268
374  ,9.084e+08   ,2.5  ,2.4  ,2.0709
375  ,8.090e+08   ,2.5  ,2.4  ,1.8738
376  ,7.880e+08   ,2.5  ,2.4  ,1.6767
377  ,5.844e+08   ,2.5  ,2.4  ,1.4796
378  ,6.349e+08   ,2.5  ,2.4  ,1.2825
379  ,5.679e+08   ,2.5  ,2.4  ,1.0855
380  ,5.261e+08   ,2.5  ,2.4  ,0.88836
381  ,4.168e+08   ,2.5  ,2.4  ,0.69127
382  ,2.187e+08   ,2.5  ,2.4  ,0.49418
383  ,1.230e+08   ,2.5  ,2.4  ,0.29709
384  ,6.459e+09   ,2.5  ,2.2665  ,4.7665
544  ,1.181e+08   ,2.2  ,2.5  ,0.1
545  ,1.795e+08   ,2  ,2.5  ,0.1
546  ,2.038e+08   ,1.8  ,2.5  ,0.1
547  ,2.302e+08   ,1.6  ,2.5  ,0.1
548  ,2.292e+08   ,1.4  ,2.5  ,0.1
549  ,2.900e+08   ,1.2  ,2.5  ,0.1
550  ,3.975e+08   ,1  ,2.5  ,0.1
551  ,6.058e+08   ,0.8  ,2.5  ,0.1
552  ,6.784e+08   ,0.6  ,2.5  ,0.1
553  ,6.860e+08   ,0.4  ,2.5  ,0.1
554  ,7.301e+08   ,0.2  ,2.5  ,0.1
555  ,6.251e+08   ,5.8879E-16  ,2.5  ,0.1
556  ,3.457e+08   ,-0.2  ,2.5  ,0.1
557  ,4.400e+08   ,-0.4  ,2.5  ,0.1
558  ,5.331e+08   ,-0.6  ,2.5  ,0.1
559  ,6.173e+08   ,-0.8  ,2.5  ,0.1
560  ,5.260e+08   ,-1  ,2.5  ,0.1
561  ,4.898e+08   ,-1.2  ,2.5  ,0.1
562  ,4.525e+08   ,-1.4  ,2.5  ,0.1
563  ,4.184e+08   ,-1.6  ,2.5  ,0.1
564  ,3.496e+08   ,-1.8  ,2.5  ,0.1
565  ,2.567e+08   ,-2  ,2.5  ,0.1
566  ,1.291e+08   ,-2.2  ,2.5  ,0.1
567  ,1.129e+08   ,-2.4  ,2.5  ,4.7
568  ,1.475e+08   ,-2.4  ,2.5  ,4.5
569  ,1.623e+08   ,-2.4  ,2.5  ,4.3
570  ,2.019e+08   ,-2.4  ,2.5  ,4.1
571  ,2.352e+08   ,-2.4  ,2.5  ,3.9
572  ,2.929e+08   ,-2.4  ,2.5  ,3.7
573  ,3.844e+08   ,-2.4  ,2.5  ,3.5
574  ,5.908e+08   ,-2.4  ,2.5  ,3.3
575  ,5.901e+08   ,-2.4  ,2.5  ,3.1
576  ,5.929e+08   ,-2.4  ,2.5  ,2.9
577  ,5.600e+08   ,-2.4  ,2.5  ,2.7
578  ,5.706e+08   ,-2.4  ,2.5  ,2.5
579  ,5.552e+08   ,-2.4  ,2.5  ,2.3
580  ,5.641e+08   ,-2.4  ,2.5  ,2.1
581  ,5.500e+08   ,-2.4  ,2.5  ,1.9
582  ,5.491e+08   ,-2.4  ,2.5  ,1.7
583  ,5.007e+08   ,-2.4  ,2.5  ,1.5
584  ,4.765e+08   ,-2.4  ,2.5  ,1.3
585  ,4.436e+08   ,-2.4  ,2.5  ,1.1
586  ,4.129e+08   ,-2.4  ,2.5  ,0.9
587  ,3.598e+08   ,-2.4  ,2.5  ,0.7
588  ,2.791e+08   ,-2.4  ,2.5  ,0.5
589  ,1.463e+08   ,-2.4  ,2.5  ,0.3
590  ,5.539e+09   ,1.936  ,2.5  ,4.9
591  ,2.776e+09   ,1.7389  ,2.5  ,4.9
592  ,2.130e+09   ,1.5418  ,2.5  ,4.9
593  ,1.734e+09   ,1.3447  ,2.5  ,4.9
594  ,1.314e+09   ,1.1476  ,2.5  ,4.9
595  ,1.444e+09   ,0.95055  ,2.5  ,4.9
596  ,1.518e+09   ,0.75346  ,2.5  ,4.9
597  ,1.308e+09   ,0.55637  ,2.5  ,4.9
598  ,1.143e+09   ,0.35927  ,2.5  ,4.9
599  ,9.636e+08   ,0.16218  ,2.5  ,4.9
600  ,8.586e+08   ,-0.034907  ,2.5  ,4.9
601  ,7.547e+08   ,-0.232  ,2.5  ,4.9
602  ,9.261e+08   ,-0.42909  ,2.5  ,4.9
603  ,9.187e+08   ,-0.62618  ,2.5  ,4.9
604  ,8.392e+08   ,-0.82327  ,2.5  ,4.9
605  ,9.053e+08   ,-1.0204  ,2.5  ,4.9
606  ,8.393e+08   ,-1.2175  ,2.5  ,4.9
607  ,6.553e+08   ,-1.4145  ,2.5  ,4.9
608  ,4.955e+08   ,-1.6116  ,2.5  ,4.9
609  ,3.375e+08   ,-1.8087  ,2.5  ,4.9
610  ,2.094e+08   ,-2.0058  ,2.5  ,4.9
611  ,1.268e+08   ,-2.2029  ,2.5  ,4.9
612  ,6.778e+09   ,2.2665  ,2.5  ,4.7665
613  ,4.719e+09   ,2.4  ,2.5  ,4.436
614  ,2.936e+09   ,2.4  ,2.5  ,4.2389
615  ,2.165e+09   ,2.4  ,2.5  ,4.0418
616  ,1.742e+09   ,2.4  ,2.5  ,3.8447
617  ,1.397e+09   ,2.4  ,2.5  ,3.6476
618  ,1.303e+09   ,2.4  ,2.5  ,3.4505
619  ,1.450e+09   ,2.4  ,2.5  ,3.2535
620  ,1.300e+09   ,2.4  ,2.5  ,3.0564
621  ,1.088e+09   ,2.4  ,2.5  ,2.8593
622  ,1.019e+09   ,2.4  ,2.5  ,2.6622
623  ,9.030e+08   ,2.4  ,2.5  ,2.4651
624  ,8.623e+08   ,2.4  ,2.5  ,2.268
625  ,7.920e+08   ,2.4  ,2.5  ,2.0709
626  ,7.778e+08   ,2.4  ,2.5  ,1.8738
627  ,7.767e+08   ,2.4  ,2.5  ,1.6767
628  ,8.913e+08   ,2.4  ,2.5  ,1.4796
629  ,8.736e+08   ,2.4  ,2.5  ,1.2825
630  ,6.091e+08   ,2.4  ,2.5  ,1.0855
631  ,4.528e+08   ,2.4  ,2.5  ,0.88836
632  ,3.092e+08   ,2.4  ,2.5  ,0.69127
633  ,2.446e+08   ,2.4  ,2.5  ,0.49418
634  ,1.205e+08   ,2.4  ,2.5  ,0.29709
796  ,1.485e+08   ,-2.5  ,2.2  ,0.1
797  ,2.899e+08   ,-2.5  ,2  ,0.1
798  ,3.662e+08   ,-2.5  ,1.8  ,0.1
799  ,4.280e+08   ,-2.5  ,1.6  ,0.1
800  ,4.665e+08   ,-2.5  ,1.4  ,0.1
801  ,5.150e+08   ,-2.5  ,1.2  ,0.1
802  ,6.020e+08   ,-2.5  ,1  ,0.1
803  ,7.010e+08   ,-2.5  ,0.8  ,0.1
804  ,6.739e+08   ,-2.5  ,0.6  ,0.1
805  ,6.388e+08   ,-2.5  ,0.4  ,0.1
806  ,5.654e+08   ,-2.5  ,0.2  ,0.1
807  ,5.424e+08   ,-2.5  ,5.8879E-16  ,0.1
808  ,4.886e+08   ,-2.5  ,-0.2  ,0.1
809  ,4.499e+08   ,-2.5  ,-0.4  ,0.1
810  ,4.142e+08   ,-2.5  ,-0.6  ,0.1
811  ,3.640e+08   ,-2.5  ,-0.8  ,0.1
812  ,2.826e+08   ,-2.5  ,-1  ,0.1
813  ,1.961e+08   ,-2.5  ,-1.2  ,0.1
814  ,2.412e+08   ,-2.5  ,-1.4  ,0.1
815  ,2.746e+08   ,-2.5  ,-1.6  ,0.1
816  ,3.059e+08   ,-2.5  ,-1.8  ,0.1
817  ,2.946e+08   ,-2.5  ,-2  ,0.1
818  ,2.008e+08   ,-2.5  ,-2.2  ,0.1
819  ,3.138e+08   ,-2.5  ,-2.4  ,4.7
820  ,2.178e+08   ,-2.5  ,-2.4  ,4.5
821  ,4.592e+08   ,-2.5  ,-2.4  ,4.3
822  ,8.113e+08   ,-2.5  ,-2.4  ,4.1
823  ,8.711e+08   ,-2.5  ,-2.4  ,3.9
824  ,8.205e+08   ,-2.5  ,-2.4  ,3.7
825  ,8.435e+08   ,-2.5  ,-2.4  ,3.5
826  ,6.751e+08   ,-2.5  ,-2.4  ,3.3
827  ,5.357e+08   ,-2.5  ,-2.4  ,3.1
828  ,3.624e+08   ,-2.5  ,-2.4  ,2.9
829  ,2.628e+08   ,-2.5  ,-2.4  ,2.7
830  ,1.859e+08   ,-2.5  ,-2.4  ,2.5
831  ,1.439e+08   ,-2.5  ,-2.4  ,2.3
832  ,1.279e+08   ,-2.5  ,-2.4  ,2.1
833  ,1.942e+08   ,-2.5  ,-2.4  ,1.9
834  ,2.686e+08   ,-2.5  ,-2.4  ,1.7
835  ,3.652e+08   ,-2.5  ,-2.4  ,1.5
836  ,3.663e+08   ,-2.5  ,-2.4  ,1.3
837  ,3.093e+08   ,-2.5  ,-2.4  ,1.1
838  ,1.727e+08   ,-2.5  ,-2.4  ,0.9
839  ,2.183e+07   ,-2.5  ,-2.4  ,0.7
840  ,9.302e+07   ,-2.5  ,-2.4  ,0.5
841  ,2.003e+08   ,-2.5  ,-2.4  ,0.3
842  ,1.725e+08   ,-2.5  ,2.2  ,4.9
843  ,1.939e+08   ,-2.5  ,2  ,4.9
844  ,1.812e+08   ,-2.5  ,1.8  ,4.9
845  ,1.675e+08   ,-2.5  ,1.6  ,4.9
846  ,1.641e+08   ,-2.5  ,1.4  ,4.9
847  ,1.904e+08   ,-2.5  ,1.2  ,4.9
848  ,2.826e+08   ,-2.5  ,1  ,4.9
849  ,4.629e+08   ,-2.5  ,0.8  ,4.9
850  ,3.150e+08   ,-2.5  ,0.6  ,4.9
851  ,2.679e+08   ,-2.5  ,0.4  ,4.9
852  ,2.771e+08   ,-2.5  ,0.2  ,4.9
853  ,2.985e+08   ,-2.5  ,5.8879E-16  ,4.9
854  ,2.542e+08   ,-2.5  ,-0.2  ,4.9
855  ,2.815e+08   ,-2.5  ,-0.4  ,4.9
856  ,3.195e+08   ,-2.5  ,-0.6  ,4.9
857  ,3.469e+08   ,-2.5  ,-0.8  ,4.9
858  ,3.362e+08   ,-2.5  ,-1  ,4.9
859  ,2.632e+08   ,-2.5  ,-1.2  ,4.9
860  ,2.426e+08   ,-2.5  ,-1.4  ,4.9
861  ,2.191e+08   ,-2.5  ,-1.6  ,4.9
862  ,2.432e+08   ,-2.5  ,-1.8  ,4.9
863  ,3.021e+08   ,-2.5  ,-2  ,4.9
864  ,2.976e+08   ,-2.5  ,-2.2  ,4.9
865  ,1.667e+08   ,-2.5  ,2.4  ,4.7
866  ,1.808e+08   ,-2.5  ,2.4  ,4.5
867  ,2.189e+08   ,-2.5  ,2.4  ,4.3
868  ,2.325e+08   ,-2.5  ,2.4  ,4.1
869  ,3.272e+08   ,-2.5  ,2.4  ,3.9
870  ,3.684e+08   ,-2.5  ,2.4  ,3.7
871  ,4.652e+08   ,-2.5  ,2.4  ,3.5
872  ,5.827e+08   ,-2.5  ,2.4  ,3.3
873  ,5.693e+08   ,-2.5  ,2.4  ,3.1
874  ,5.317e+08   ,-2.5  ,2.4  ,2.9
875  ,5.091e+08   ,-2.5  ,2.4  ,2.7
876  ,5.225e+08   ,-2.5  ,2.4  ,2.5
877  ,5.168e+08   ,-2.5  ,2.4  ,2.3
878  ,5.077e+08   ,-2.5  ,2.4  ,2.1
879  ,4.887e+08   ,-2.5  ,2.4  ,1.9
880  ,4.963e+08   ,-2.5  ,2.4  ,1.7
881  ,3.964e+08   ,-2.5  ,2.4  ,1.5
882  ,4.187e+08   ,-2.5  ,2.4  ,1.3
883  ,3.822e+08   ,-2.5  ,2.4  ,1.1
884  ,3.646e+08   ,-2.5  ,2.4  ,0.9
885  ,2.956e+08   ,-2.5  ,2.4  ,0.7
886  ,2.014e+08   ,-2.5  ,2.4  ,0.5
887  ,8.036e+07   ,-2.5  ,2.4  ,0.3
1044  ,1.540e+08   ,-2.3  ,-2.5  ,0.44697
1045  ,1.589e+08   ,-2.3  ,-2.5  ,0.68705
1046  ,1.245e+08   ,-2.3  ,-2.5  ,0.92554
1047  ,8.765e+07   ,-2.3  ,-2.5  ,1.1682
1048  ,1.803e+07   ,-2.3  ,-2.5  ,1.4148
1049  ,1.374e+08   ,-2.3  ,-2.5  ,1.6581
1050  ,3.320e+08   ,-2.3  ,-2.5  ,1.8967
1051  ,5.040e+08   ,-2.3  ,-2.5  ,2.1357
1052  ,5.435e+08   ,-2.3  ,-2.5  ,2.3794
1053  ,5.040e+08   ,-2.3  ,-2.5  ,2.6206
1054  ,3.905e+08   ,-2.3  ,-2.5  ,2.8643
1055  ,1.629e+08   ,-2.3  ,-2.5  ,3.1033
1056  ,8.609e+07   ,-2.3  ,-2.5  ,3.342
1057  ,2.136e+08   ,-2.3  ,-2.5  ,3.5852
1058  ,3.313e+08   ,-2.3  ,-2.5  ,3.8318
1059  ,4.224e+08   ,-2.3  ,-2.5  ,4.0745
1060  ,2.686e+08   ,-2.3  ,-2.5  ,4.3129
1061  ,1.638e+08   ,-2.3  ,-2.5  ,4.553
1062  ,6.882e+08   ,-2.053  ,-2.5  ,4.8
1063  ,6.573e+08   ,-1.8129  ,-2.5  ,4.8
1064  ,4.682e+08   ,-1.5745  ,-2.5  ,4.8
1065  ,2.195e+08   ,-1.3318  ,-2.5  ,4.8
1066  ,1.715e+08   ,-1.0852  ,-2.5  ,4.8
1067  ,3.939e+08   ,-0.84195  ,-2.5  ,4.8
1068  ,4.547e+08   ,-0.60329  ,-2.5  ,4.8
1069  ,5.818e+08   ,-0.3643  ,-2.5  ,4.8
1070  ,6.141e+08   ,-0.12055  ,-2.5  ,4.8
1071  ,5.023e+08   ,0.12056  ,-2.5  ,4.8
1072  ,2.718e+08   ,0.3643  ,-2.5  ,4.8
1073  ,1.749e+08   ,0.6033  ,-2.5  ,4.8
1074  ,1.877e+08   ,0.84195  ,-2.5  ,4.8
1075  ,3.490e+08   ,1.0852  ,-2.5  ,4.8
1076  ,2.997e+08   ,1.3318  ,-2.5  ,4.8
1077  ,1.564e+08   ,1.5745  ,-2.5  ,4.8
1078  ,3.252e+08   ,1.8129  ,-2.5  ,4.8
1079  ,1.070e+09   ,2.053  ,-2.5  ,4.8
1080  ,1.082e+09   ,2.3  ,-2.5  ,4.553
1081  ,3.258e+08   ,2.3  ,-2.5  ,4.3129
1082  ,1.736e+08   ,2.3  ,-2.5  ,4.0745
1083  ,3.001e+08   ,2.3  ,-2.5  ,3.8318
1084  ,3.903e+08   ,2.3  ,-2.5  ,3.5852
1085  ,1.986e+08   ,2.3  ,-2.5  ,3.3419
1086  ,1.271e+08   ,2.3  ,-2.5  ,3.1033
1087  ,2.836e+08   ,2.3  ,-2.5  ,2.8643
1088  ,5.110e+08   ,2.3  ,-2.5  ,2.6206
1089  ,6.243e+08   ,2.3  ,-2.5  ,2.3794
1090  ,5.543e+08   ,2.3  ,-2.5  ,2.1357
1091  ,4.649e+08   ,2.3  ,-2.5  ,1.8967
1092  ,4.023e+08   ,2.3  ,-2.5  ,1.658
1093  ,1.807e+08   ,2.3  ,-2.5  ,1.4148
1094  ,1.581e+08   ,2.3  ,-2.5  ,1.1682
1095  ,4.347e+08   ,2.3  ,-2.5  ,0.92554
1096  ,6.567e+08   ,2.3  ,-2.5  ,0.68705
1097  ,6.621e+08   ,2.3  ,-2.5  ,0.44697
1098  ,1.145e+08   ,-2.053  ,-2.5  ,0.2
1099  ,1.745e+08   ,-1.8129  ,-2.5  ,0.2
1100  ,1.408e+08   ,-1.5745  ,-2.5  ,0.2
1101  ,1.197e+08   ,-1.3318  ,-2.5  ,0.2
1102  ,7.576e+07   ,-1.0852  ,-2.5  ,0.2
1103  ,1.210e+08   ,-0.84195  ,-2.5  ,0.2
1104  ,3.478e+08   ,-0.60329  ,-2.5  ,0.2
1105  ,5.508e+08   ,-0.3643  ,-2.5  ,0.2
1106  ,5.785e+08   ,-0.12055  ,-2.5  ,0.2
1107  ,4.921e+08   ,0.12056  ,-2.5  ,0.2
1108  ,3.920e+08   ,0.3643  ,-2.5  ,0.2
1109  ,1.922e+08   ,0.6033  ,-2.5  ,0.2
1110  ,8.367e+07   ,0.84195  ,-2.5  ,0.2
1111  ,2.335e+08   ,1.0852  ,-2.5  ,0.2
1112  ,3.283e+08   ,1.3318  ,-2.5  ,0.2
1113  ,3.863e+08   ,1.5745  ,-2.5  ,0.2
1114  ,2.683e+08   ,1.8129  ,-2.5  ,0.2
1115  ,2.220e+08   ,2.053  ,-2.5  ,0.2
1116  ,3.553e+08   ,-2.2  ,-2.5  ,4.9
1117  ,3.057e+08   ,-2  ,-2.5  ,4.9
1118  ,3.360e+08   ,-1.8  ,-2.5  ,4.9
1119  ,1.713e+08   ,-1.6  ,-2.5  ,4.9
1120  ,1.907e+08   ,-1.4  ,-2.5  ,4.9
1121  ,3.151e+08   ,-1.2  ,-2.5  ,4.9
1122  ,3.581e+08   ,-1  ,-2.5  ,4.9
1123  ,3.279e+08   ,-0.8  ,-2.5  ,4.9
1124  ,3.097e+08   ,-0.6  ,-2.5  ,4.9
1125  ,3.592e+08   ,-0.4  ,-2.5  ,4.9
1126  ,2.704e+08   ,-0.2  ,-2.5  ,4.9
1127  ,2.379e+08   ,-1.7664E-15  ,-2.5  ,4.9
1128  ,2.724e+08   ,0.2  ,-2.5  ,4.9
1129  ,3.494e+08   ,0.4  ,-2.5  ,4.9
1130  ,4.123e+08   ,0.6  ,-2.5  ,4.9
1131  ,4.835e+08   ,0.8  ,-2.5  ,4.9
1132  ,4.667e+08   ,1  ,-2.5  ,4.9
1133  ,5.094e+08   ,1.2  ,-2.5  ,4.9
1134  ,3.610e+08   ,1.4  ,-2.5  ,4.9
1135  ,4.038e+08   ,1.6  ,-2.5  ,4.9
1136  ,4.623e+08   ,1.8  ,-2.5  ,4.9
1137  ,4.426e+08   ,2  ,-2.5  ,4.9
1138  ,4.723e+08   ,2.2  ,-2.5  ,4.9
1139  ,3.652e+08   ,-2.4  ,-2.5  ,4.7
1140  ,3.136e+08   ,-2.4  ,-2.5  ,4.5
1141  ,3.024e+08   ,-2.4  ,-2.5  ,4.3
1142  ,2.183e+08   ,-2.4  ,-2.5  ,4.1
1143  ,3.013e+08   ,-2.4  ,-2.5  ,3.9
1144  ,3.836e+08   ,-2.4  ,-2.5  ,3.7
1145  ,3.210e+08   ,-2.4  ,-2.5  ,3.5
1146  ,3.883e+08   ,-2.4  ,-2.5  ,3.3
1147  ,3.665e+08   ,-2.4  ,-2.5  ,3.1
1148  ,4.038e+08   ,-2.4  ,-2.5  ,2.9
1149  ,3.865e+08   ,-2.4  ,-2.5  ,2.7
1150  ,3.927e+08   ,-2.4  ,-2.5  ,2.5
1151  ,3.454e+08   ,-2.4  ,-2.5  ,2.3
1152  ,3.204e+08   ,-2.4  ,-2.5  ,2.1
1153  ,2.665e+08   ,-2.4  ,-2.5  ,1.9
1154  ,2.335e+08   ,-2.4  ,-2.5  ,1.7
1155  ,1.923e+08   ,-2.4  ,-2.5  ,1.5
1156  ,2.037e+08   ,-2.4  ,-2.5  ,1.3
1157  ,1.830e+08   ,-2.4  ,-2.5  ,1.1
1158  ,1.630e+08   ,-2.4  ,-2.5  ,0.9
1159  ,6.901e+07   ,-2.4  ,-2.5  ,0.7
1160  ,4.864e+07   ,-2.4  ,-2.5  ,0.5
1161  ,1.227e+08   ,-2.4  ,-2.5  ,0.3
1162  ,7.487e+07   ,-2.2  ,-2.5  ,0.1
1163  ,6.288e+07   ,-2  ,-2.5  ,0.1
1164  ,7.299e+07   ,-1.8  ,-2.5  ,0.1
1165  ,1.399e+08   ,-1.6  ,-2.5  ,0.1
1166  ,1.982e+08   ,-1.4  ,-2.5  ,0.1
1167  ,2.097e+08   ,-1.2  ,-2.5  ,0.1
1168  ,2.066e+08   ,-1  ,-2.5  ,0.1
1169  ,2.474e+08   ,-0.8  ,-2.5  ,0.1
1170  ,2.912e+08   ,-0.6  ,-2.5  ,0.1
1171  ,3.184e+08   ,-0.4  ,-2.5  ,0.1
1172  ,3.620e+08   ,-0.2  ,-2.5  ,0.1
1173  ,4.303e+08   ,-1.7664E-15  ,-2.5  ,0.1
1174  ,4.277e+08   ,0.2  ,-2.5  ,0.1
1175  ,4.083e+08   ,0.4  ,-2.5  ,0.1
1176  ,4.092e+08   ,0.6  ,-2.5  ,0.1
1177  ,3.494e+08   ,0.8  ,-2.5  ,0.1
1178  ,3.547e+08   ,1  ,-2.5  ,0.1
1179  ,3.383e+08   ,1.2  ,-2.5  ,0.1
1180  ,2.890e+08   ,1.4  ,-2.5  ,0.1
1181  ,2.770e+08   ,1.6  ,-2.5  ,0.1
1182  ,3.292e+08   ,1.8  ,-2.5  ,0.1
1183  ,3.200e+08   ,2  ,-2.5  ,0.1
1184  ,3.140e+08   ,2.2  ,-2.5  ,0.1
1185  ,4.128e+08   ,2.4  ,-2.5  ,4.7
1186  ,4.434e+08   ,2.4  ,-2.5  ,4.5
1187  ,4.541e+08   ,2.4  ,-2.5  ,4.3
1188  ,4.176e+08   ,2.4  ,-2.5  ,4.1
1189  ,4.410e+08   ,2.4  ,-2.5  ,3.9
1190  ,4.379e+08   ,2.4  ,-2.5  ,3.7
1191  ,3.788e+08   ,2.4  ,-2.5  ,3.5
1192  ,4.554e+08   ,2.4  ,-2.5  ,3.3
1193  ,4.058e+08   ,2.4  ,-2.5  ,3.1
1194  ,3.554e+08   ,2.4  ,-2.5  ,2.9
1195  ,3.130e+08   ,2.4  ,-2.5  ,2.7
1196  ,2.665e+08   ,2.4  ,-2.5  ,2.5
1197  ,2.482e+08   ,2.4  ,-2.5  ,2.3
1198  ,3.366e+08   ,2.4  ,-2.5  ,2.1
1199  ,3.165e+08   ,2.4  ,-2.5  ,1.9
1200  ,3.359e+08   ,2.4  ,-2.5  ,1.7
1201  ,3.695e+08   ,2.4  ,-2.5  ,1.5
1202  ,3.348e+08   ,2.4  ,-2.5  ,1.3
1203  ,2.108e+08   ,2.4  ,-2.5  ,1.1
1204  ,1.636e+08   ,2.4  ,-2.5  ,0.9
1205  ,1.811e+08   ,2.4  ,-2.5  ,0.7
1206  ,3.799e+08   ,2.4  ,-2.5  ,0.5
1207  ,3.765e+08   ,2.4  ,-2.5  ,0.3
1208  ,2.922e+08   ,2.4  ,-2.2  ,0
1209  ,3.306e+08   ,2.4  ,-2  ,0
1210  ,2.745e+08   ,2.4  ,-1.8  ,0
1211  ,2.522e+08   ,2.4  ,-1.6  ,0
1212  ,2.615e+08   ,2.4  ,-1.4  ,0
1213  ,2.292e+08   ,2.4  ,-1.2  ,0
1214  ,2.968e+08   ,2.4  ,-1  ,0
1215  ,3.415e+08   ,2.4  ,-0.8  ,0
1216  ,3.077e+08   ,2.4  ,-0.6  ,0
1217  ,3.101e+08   ,2.4  ,-0.4  ,0
1218  ,2.724e+08   ,2.4  ,-0.2  ,0
1219  ,2.603e+08   ,2.4  ,-1.7664E-15  ,0
1220  ,2.918e+08   ,2.4  ,0.2  ,0
1221  ,2.381e+08   ,2.4  ,0.4  ,0
1222  ,3.293e+08   ,2.4  ,0.6  ,0
1223  ,4.547e+08   ,2.4  ,0.8  ,0
1224  ,2.936e+08   ,2.4  ,1  ,0
1225  ,2.050e+08   ,2.4  ,1.2  ,0
1226  ,1.828e+08   ,2.4  ,1.4  ,0
1227  ,1.516e+08   ,2.4  ,1.6  ,0
1228  ,1.939e+08   ,2.4  ,1.8  ,0
1229  ,1.873e+08   ,2.4  ,2  ,0
1230  ,1.503e+08   ,2.4  ,2.2  ,0
1231  ,1.657e+08   ,-2.2  ,-2.4  ,0
1232  ,1.167e+08   ,-2  ,-2.4  ,0
1233  ,4.479e+07   ,-1.8  ,-2.4  ,0
1234  ,1.372e+08   ,-1.6  ,-2.4  ,0
1235  ,2.987e+08   ,-1.4  ,-2.4  ,0
1236  ,3.998e+08   ,-1.2  ,-2.4  ,0
1237  ,3.817e+08   ,-1  ,-2.4  ,0
1238  ,2.948e+08   ,-0.8  ,-2.4  ,0
1239  ,1.926e+08   ,-0.6  ,-2.4  ,0
1240  ,1.078e+08   ,-0.4  ,-2.4  ,0
1241  ,1.280e+08   ,-0.2  ,-2.4  ,0
1242  ,2.531e+08   ,5.8879E-16  ,-2.4  ,0
1243  ,3.326e+08   ,0.2  ,-2.4  ,0
1244  ,4.038e+08   ,0.4  ,-2.4  ,0
1245  ,5.228e+08   ,0.6  ,-2.4  ,0
1246  ,7.363e+08   ,0.8  ,-2.4  ,0
1247  ,8.373e+08   ,1  ,-2.4  ,0
1248  ,8.868e+08   ,1.2  ,-2.4  ,0
1249  ,8.718e+08   ,1.4  ,-2.4  ,0
1250  ,7.769e+08   ,1.6  ,-2.4  ,0
1251  ,4.915e+08   ,1.8  ,-2.4  ,0
1252  ,2.964e+08   ,2  ,-2.4  ,0
1253  ,3.588e+08   ,2.2  ,-2.4  ,0
1254  ,1.013e+08   ,-2.4  ,2.2  ,0
1255  ,2.531e+08   ,-2.4  ,2  ,0
1256  ,3.732e+08   ,-2.4  ,1.8  ,0
1257  ,4.215e+08   ,-2.4  ,1.6  ,0
1258  ,4.698e+08   ,-2.4  ,1.4  ,0
1259  ,5.269e+08   ,-2.4  ,1.2  ,0
1260  ,6.083e+08   ,-2.4  ,1  ,0
1261  ,7.016e+08   ,-2.4  ,0.8  ,0
1262  ,6.783e+08   ,-2.4  ,0.6  ,0
1263  ,6.125e+08   ,-2.4  ,0.4  ,0
1264  ,5.647e+08   ,-2.4  ,0.2  ,0
1265  ,5.356e+08   ,-2.4  ,5.8879E-16  ,0
1266  ,5.105e+08   ,-2.4  ,-0.2  ,0
1267  ,5.065e+08   ,-2.4  ,-0.4  ,0
1268  ,4.238e+08   ,-2.4  ,-0.6  ,0
1269  ,3.487e+08   ,-2.4  ,-0.8  ,0
1270  ,2.611e+08   ,-2.4  ,-1  ,0
1271  ,1.888e+08   ,-2.4  ,-1.2  ,0
1272  ,2.152e+08   ,-2.4  ,-1.4  ,0
1273  ,2.934e+08   ,-2.4  ,-1.6  ,0
1274  ,3.216e+08   ,-2.4  ,-1.8  ,0
1275  ,2.967e+08   ,-2.4  ,-2  ,0
1276  ,1.779e+08   ,-2.4  ,-2.2  ,0
1277  ,1.587e+08   ,2.2  ,2.4  ,0
1278  ,2.114e+08   ,2  ,2.4  ,0
1279  ,2.521e+08   ,1.8  ,2.4  ,0
1280  ,2.325e+08   ,1.6  ,2.4  ,0
1281  ,2.655e+08   ,1.4  ,2.4  ,0
1282  ,3.520e+08   ,1.2  ,2.4  ,0
1283  ,4.533e+08   ,1  ,2.4  ,0
1284  ,5.959e+08   ,0.8  ,2.4  ,0
1285  ,5.780e+08   ,0.6  ,2.4  ,0
1286  ,5.291e+08   ,0.4  ,2.4  ,0
1287  ,5.290e+08   ,0.2  ,2.4  ,0
1288  ,5.191e+08   ,5.8879E-16  ,2.4  ,0
1289  ,5.850e+08   ,-0.2  ,2.4  ,0
1290  ,5.313e+08   ,-0.4  ,2.4  ,0
1291  ,5.379e+08   ,-0.6  ,2.4  ,0
1292  ,5.230e+08   ,-0.8  ,2.4  ,0
1293  ,4.184e+08   ,-1  ,2.4  ,0
1294  ,4.100e+08   ,-1.2  ,2.4  ,0
1295  ,3.656e+08   ,-1.4  ,2.4  ,0
1296  ,3.452e+08   ,-1.6  ,2.4  ,0
1297  ,2.883e+08   ,-1.8  ,2.4  ,0
1298  ,2.019e+08   ,-2  ,2.4  ,0
1299  ,6.185e+07   ,-2.2  ,2.4  ,0
1460  ,9.156e+09   ,2.3243  ,2.3243  ,4.9577
1461  ,8.905e+09   ,2.4577  ,2.3243  ,4.8243
1462  ,7.271e+09   ,2.3243  ,2.4577  ,4.8243
1463  ,4.520e+08   ,-2.3  ,-2.1759  ,4.8
1464  ,5.132e+08   ,-2.3  ,-1.7631  ,4.8
1465  ,5.839e+08   ,-2.3  ,-1.1827  ,4.8
1466  ,7.239e+08   ,-2.3  ,-0.34986  ,4.8
1467  ,8.943e+08   ,-2.3  ,0.80545  ,4.8
1468  ,8.995e+08   ,-0.81337  ,2.3  ,4.8
1469  ,1.789e+09   ,0.67326  ,2.3  ,4.8
1470  ,5.962e+08   ,2.3  ,-2.1824  ,4.8
1471  ,5.084e+08   ,2.3  ,-1.7784  ,4.8
1472  ,5.921e+08   ,2.3  ,-1.2138  ,4.8
1473  ,7.949e+08   ,2.3  ,-0.40752  ,4.8
1474  ,1.523e+09   ,2.3  ,0.70532  ,4.8
1516  ,9.038e+08   ,2.3  ,2.3  ,1.6866
1517  ,1.771e+09   ,2.3  ,2.3  ,3.1733
1518  ,4.326e+08   ,2.3  ,-2.1759  ,0.2
1519  ,5.313e+08   ,2.3  ,-1.7631  ,0.2
1520  ,5.625e+08   ,2.3  ,-1.1827  ,0.2
1521  ,7.129e+08   ,2.3  ,-0.34986  ,0.2
1522  ,9.255e+08   ,2.3  ,0.80545  ,0.2
1564  ,7.395e+08   ,-0.76667  ,2.3  ,0.2
1565  ,9.272e+08   ,0.76667  ,2.3  ,0.2
1566  ,6.892e+08   ,-2.3  ,2.3  ,1.7333
1567  ,9.603e+08   ,-2.3  ,2.3  ,3.2667
1574  ,1.154e+08   ,-2.3  ,-2.1759  ,0.2
1575  ,1.195e+08   ,-2.3  ,-1.7631  ,0.2
1576  ,2.458e+08   ,-2.3  ,-1.1827  ,0.2
1577  ,3.245e+08   ,-2.3  ,-0.34986  ,0.2
1578  ,3.209e+08   ,-2.3  ,0.80545  ,0.2
1777  ,9.423e+08   ,-0.52764  ,2.5  ,4.9
1801  ,2.991e+08   ,-2.3  ,1.5527  ,0.2
1825  ,6.445e+08   ,-1.5333  ,2.3  ,0.2
1841  ,9.340e+08   ,0.063638  ,2.5  ,4.9
1876  ,5.204e+08   ,-0.5  ,2.4  ,0
1894  ,8.670e+08   ,2.3  ,1.5527  ,0.2
1907  ,1.469e+08   ,2.1  ,2.5  ,0.1
1928  ,2.237e+08   ,1.9  ,2.4  ,0
1974  ,2.528e+08   ,2.4  ,1.1  ,0
1981  ,2.882e+08   ,2.4  ,2.5  ,0.59273
1987  ,3.031e+08   ,-2.5  ,2.4  ,4
2004  ,1.332e+08   ,-2.4  ,2.5  ,4.6
2009  ,1.807e+08   ,2.4  ,1.3  ,0
2020  ,2.217e+08   ,2.5  ,1.1  ,0.1
2035  ,2.787e+08   ,-2.3  ,-0.76628  ,0.2
2070  ,2.595e+09   ,1.6404  ,2.4  ,5
2081  ,7.953e+08   ,2.4  ,2.5  ,1.9724
2095  ,4.176e+08   ,2.4  ,2.5  ,0.78982
2138  ,5.200e+08   ,-2.4  ,-0.1  ,0
2146  ,8.188e+08   ,-0.92182  ,2.4  ,5
2174  ,6.880e+08   ,2.4  ,2.5  ,1.184
2190  ,5.441e+08   ,2.5  ,2.4  ,0.98691
2203  ,6.896e+08   ,2.5  ,-0.13345  ,4.9
2232  ,1.405e+09   ,2.3  ,0.1489  ,4.8
2242  ,1.196e+09   ,2.4  ,2.5  ,2.9578
2293  ,6.602e+08   ,-2.5  ,0.5  ,0.1
2311  ,1.914e+09   ,2.3  ,2.3  ,2.4299
2313  ,5.000e+08   ,2.5  ,2.4  ,0.78982
2329  ,8.196e+08   ,2.4  ,2.5  ,2.1695
2355  ,1.532e+08   ,-2.4  ,2.5  ,4.4
2380  ,2.489e+08   ,-2.5  ,-1.5  ,0.1
2383  ,1.191e+09   ,0.45782  ,2.5  ,4.9
2408  ,7.529e+08   ,2.3  ,-1.4961  ,4.8
2445  ,5.378e+08   ,2.5  ,-1.5131  ,4.9
2484  ,3.098e+08   ,-2.5  ,-2.4  ,1.6
2495  ,1.647e+08   ,-2.4  ,1.7  ,5
2508  ,2.710e+08   ,2.4  ,0.3  ,0
2514  ,9.649e+08   ,2.3  ,0.2278  ,0.2
2570  ,1.399e+08   ,-2.4  ,1.5  ,5
2580  ,2.501e+09   ,1.6404  ,2.5  ,4.9
2603  ,9.123e+08   ,-1.1189  ,2.5  ,4.9
2695  ,5.719e+08   ,2.3  ,2.3  ,0.94331
2705  ,9.147e+08   ,2.4  ,2.5  ,1.3811
2714  ,8.256e+08   ,2.5  ,0.45782  ,4.9
2734  ,3.044e+08   ,2.4  ,-0.9  ,0
2775  ,2.678e+08   ,2.5  ,-0.1  ,0.1
2779  ,2.539e+08   ,2.4  ,-0.1  ,0
2801  ,3.307e+09   ,1.4166  ,2.3  ,4.8
2814  ,1.933e+09   ,1.4433  ,2.5  ,4.9
2863  ,3.255e+08   ,-2.4  ,2.5  ,0.6
2884  ,3.763e+08   ,-2.4  ,2.5  ,0.8
2886  ,4.566e+08   ,-2.4  ,2.5  ,1.2
2967  ,1.530e+08   ,2.4  ,1.7  ,0
2973  ,1.709e+08   ,2.5  ,1.5  ,0.1
2987  ,3.864e+08   ,-0.3  ,2.5  ,0.1
3008  ,6.585e+08   ,-2.3  ,2.3  ,0.96667
3012  ,5.135e+08   ,-2.5  ,2.4  ,2.6
3021  ,5.037e+08   ,-2.5  ,2.4  ,2.8
3025  ,5.139e+08   ,-2.5  ,2.4  ,2.4
3030  ,5.580e+08   ,-2.4  ,2.5  ,2.4
3033  ,5.488e+08   ,-2.4  ,2.5  ,2.2
3047  ,8.802e+08   ,2.4  ,2.5  ,2.3665
3052  ,9.999e+08   ,2.5  ,2.4  ,2.5636
3061  ,9.575e+08   ,2.4  ,2.5  ,2.5636
3081  ,1.608e+08   ,-2.4  ,1.3  ,5
3088  ,2.455e+08   ,-1.9073  ,2.4  ,5
3099  ,1.944e+08   ,-2.4  ,1.9  ,5
3107  ,2.577e+08   ,-2.4  ,2.5  ,3.8
3139  ,5.435e+08   ,-1.5131  ,2.4  ,5
3145  ,5.790e+08   ,-1.5131  ,2.5  ,4.9
3148  ,4.191e+08   ,-1.7102  ,2.5  ,4.9
3168  ,4.439e+08   ,-2.4  ,1.5  ,0
3188  ,2.293e+08   ,-2.5  ,-2.4  ,1
3202  ,9.786e+08   ,0.26073  ,2.5  ,4.9
3212  ,2.434e+09   ,2.5  ,1.6404  ,4.9
3247  ,4.035e+09   ,2.5  ,1.8375  ,4.9
3265  ,3.238e+09   ,2.3  ,1.4326  ,4.8
3271  ,7.121e+09   ,2.2299  ,2.2299  ,4.8
3284  ,1.767e+09   ,2.4  ,1.4433  ,5
3291  ,1.688e+09   ,2.5  ,1.4433  ,4.9
3296  ,7.711e+08   ,-2.3  ,-0.76628  ,4.8
3303  ,3.678e+08   ,-2.4  ,-0.9  ,5
3311  ,3.339e+08   ,-2.4  ,-0.7  ,5
3315  ,1.901e+08   ,1.9  ,2.5  ,0.1
3336  ,5.862e+08   ,-2.4  ,0.3  ,0
3340  ,5.461e+08   ,-2.5  ,0.1  ,0.1
3344  ,5.450e+08   ,-2.4  ,0.1  ,0
3356  ,5.434e+08   ,-0.3  ,2.4  ,0
3361  ,7.818e+08   ,-0.33054  ,2.5  ,4.9
3364  ,7.815e+08   ,-0.13345  ,2.5  ,4.9
3383  ,1.319e+09   ,2.4  ,2.5  ,3.5491
3402  ,5.592e+09   ,2.4  ,2.5  ,4.5345
3421  ,7.293e+08   ,-1.316  ,2.5  ,4.9
3439  ,1.818e+09   ,2.5  ,2.4  ,3.9433
3447  ,1.922e+09   ,2.4  ,2.5  ,3.9433
3451  ,1.535e+09   ,2.4  ,2.5  ,3.7462
3468  ,1.838e+09   ,1.4433  ,2.4  ,5
3480  ,1.378e+09   ,1.0491  ,2.4  ,5
3519  ,2.444e+08   ,1.5  ,2.4  ,0
3527  ,7.038e+08   ,2.3  ,-1.4729  ,0.2
3550  ,3.178e+08   ,-1.7  ,2.4  ,0
3554  ,3.797e+08   ,-1.7  ,2.5  ,0.1
3558  ,3.478e+08   ,-1.5  ,2.4  ,0
3562  ,4.291e+08   ,-1.5  ,2.5  ,0.1
3574  ,1.740e+08   ,-2.4  ,2.1  ,5
3581  ,3.925e+08   ,-2.5  ,1.7  ,0.1
3583  ,3.324e+08   ,-2.5  ,1.9  ,0.1
3584  ,2.633e+08   ,-1.9073  ,2.5  ,4.9
3591  ,3.037e+08   ,2.5  ,0.3  ,0.1
3595  ,2.886e+08   ,2.5  ,0.1  ,0.1
3603  ,1.351e+10   ,2.4577  ,2.391  ,4.7576
3663  ,1.625e+08   ,-1.933  ,-2.5  ,0.2
3669  ,7.603e+07   ,-2.1765  ,-2.5  ,0.2
3672  ,5.973e+07   ,-2.3  ,-2.3379  ,0.2
3682  ,7.809e+07   ,-1.9  ,-2.4  ,0
3700  ,3.959e+08   ,2.3  ,-2.5  ,2.7424
3712  ,3.902e+08   ,-2.1  ,-2.5  ,4.9
3715  ,3.657e+08   ,-1.9  ,-2.5  ,4.9
3740  ,5.410e+08   ,-1.3  ,-2.4  ,5
3746  ,1.579e+08   ,-1.2085  ,-2.5  ,4.8
3755  ,6.307e+08   ,-1.5  ,-2.4  ,5
3760  ,2.713e+08   ,-1.7  ,-2.5  ,4.9
3786  ,8.029e+08   ,2.4  ,2.5  ,1.5782
3813  ,1.028e+09   ,0.26073  ,2.4  ,5
3858  ,3.444e+08   ,-0.9  ,-2.4  ,5
3863  ,3.759e+08   ,-2.5  ,0.9  ,4.9
3875  ,7.545e+08   ,-1.9  ,-2.4  ,5
3885  ,5.712e+08   ,2.4  ,-0.72473  ,5
3910  ,3.477e+08   ,-2.4  ,-2.5  ,3.4
3959  ,2.624e+09   ,2.5  ,2.4  ,4.1404
3969  ,1.140e+09   ,2.5  ,1.0491  ,4.9
3992  ,1.504e+10   ,2.391  ,2.2576  ,4.9577
3993  ,1.337e+10   ,2.4577  ,2.2576  ,4.891
4016  ,9.130e+07   ,-2.3015  ,2.5  ,4.9
4018  ,9.240e+07   ,-2.4  ,2.5  ,4.8
4021  ,1.496e+09   ,1.2462  ,2.4  ,5
4042  ,2.589e+08   ,2.4  ,-1.1  ,0
4046  ,4.523e+08   ,-0.9  ,2.4  ,0
4055  ,4.295e+08   ,1.7  ,-2.5  ,4.9
4087  ,2.511e+08   ,1.7  ,2.4  ,0
4114  ,5.086e+08   ,2.5  ,-0.33054  ,4.9
4120  ,3.258e+08   ,2.4  ,-2.5  ,1.8
4125  ,4.203e+08   ,2.4  ,2.5  ,0.98691
4144  ,3.867e+09   ,2.4  ,2.5  ,4.3375
4161  ,3.627e+08   ,-2.4  ,0.3  ,5
4201  ,2.180e+08   ,1.933  ,-2.5  ,0.2
4225  ,1.222e+08   ,-2.3  ,-2.4  ,0
4230  ,1.620e+08   ,-2.3  ,-2.5  ,0.56701
4269  ,3.436e+08   ,-0.9  ,-2.5  ,4.9
4277  ,4.539e+08   ,-1.1  ,-2.4  ,5
4288  ,1.627e+09   ,-0.070055  ,2.3  ,4.8
4328  ,6.236e+08   ,-2.5  ,-2.4  ,4.2
4336  ,3.260e+08   ,-2.5  ,-2.4  ,4.4
4342  ,1.870e+08   ,-2.5  ,-2.4  ,4.6
4348  ,3.467e+08   ,-2.4  ,-2.4707  ,4.9707
4352  ,3.520e+08   ,-2.3  ,-2.5  ,4.9
4354  ,6.728e+08   ,-2.1765  ,-2.5  ,4.8
4355  ,4.500e+08   ,-2.3  ,-2.3379  ,4.8
4362  ,2.842e+08   ,2.5  ,2.4  ,0.59273
4364  ,1.412e+08   ,2.5  ,-2.4  ,2.4
4366  ,1.785e+08   ,2.5  ,-2.4  ,2.2
4372  ,3.052e+08   ,2.4  ,-2.5  ,2.2
4385  ,3.103e+08   ,-2.5  ,-1.9  ,0.1
4399  ,2.128e+08   ,-2.5  ,2.1  ,0.1
4407  ,2.543e+08   ,-0.7  ,-2.4  ,0
4436  ,5.153e+08   ,-2.5  ,-0.1  ,0.1
4462  ,7.350e+08   ,-2.3  ,2.3  ,4.0333
4491  ,4.657e+08   ,2.5  ,-0.52764  ,4.9
4494  ,4.765e+08   ,2.5  ,-2.4  ,1.4
4503  ,3.652e+08   ,2.4  ,-2.5  ,1.4
4508  ,2.673e+08   ,2.4  ,-2.5  ,1.2
4515  ,2.706e+08   ,2.5  ,-2.4  ,1.8
4517  ,3.699e+08   ,2.4  ,-2.5  ,1.6
4522  ,6.022e+08   ,0.7  ,-2.4  ,0
4538  ,7.740e+08   ,-1.1189  ,2.4  ,5
4546  ,2.410e+09   ,2.4  ,2.5  ,4.1404
4559  ,6.362e+08   ,1.7  ,-2.4  ,0
4590  ,4.504e+08   ,0.5  ,-2.4  ,0
4631  ,3.001e+08   ,2.4  ,-2.5  ,2.6
4634  ,2.646e+08   ,2.5  ,-2.4  ,2.8
4657  ,1.707e+08   ,-2.5  ,-2.4  ,2
4660  ,2.322e+08   ,-2.5  ,-2.4  ,1.8
4664  ,9.825e+07   ,-0.3  ,-2.4  ,0
4675  ,2.923e+08   ,-2.4  ,-2.5  ,4.8
4681  ,4.660e+08   ,-2.5  ,-0.3  ,0.1
4684  ,4.010e+08   ,1.7  ,-2.4  ,5
4703  ,4.530e+08   ,-2.4  ,0.7  ,5
4707  ,2.740e+08   ,-2.5  ,0.3  ,4.9
4714  ,4.616e+08   ,2.4  ,-0.33054  ,5
4723  ,8.109e+08   ,-1.5567  ,2.3  ,4.8
4739  ,1.376e+08   ,-2.1044  ,2.5  ,4.9
4763  ,2.176e+08   ,-1.9  ,2.4  ,0
4780  ,1.566e+08   ,-2.3  ,-1.9695  ,0.2
4782  ,9.893e+07   ,-2.4707  ,-2.4  ,0.029289
4784  ,3.110e+08   ,-2.4  ,-1.9  ,0
4791  ,2.526e+08   ,-2.4  ,-2.5  ,1.8
4796  ,8.271e+08   ,2.4707  ,-2.4707  ,4.9
4799  ,9.645e+08   ,2.5  ,-2.4  ,4.8
4806  ,5.475e+08   ,2.3  ,-2.5  ,4.9
4809  ,3.398e+09   ,2.3  ,2.3  ,3.9166
4833  ,2.118e+08   ,-2.4  ,2.5  ,0.4
4841  ,5.583e+08   ,-2.4  ,2.5  ,2.6
4846  ,1.734e+08   ,-2.5  ,2.1  ,4.9
4848  ,1.488e+08   ,-2.5  ,2.3  ,4.9
4849  ,1.381e+08   ,-2.5  ,2.4  ,4.8
4893  ,1.970e+08   ,-2.4  ,2.5  ,4.2
4897  ,5.720e+09   ,2.3333  ,2.1998  ,5
4900  ,1.326e+10   ,2.391  ,2.4577  ,4.7576
4908  ,1.287e+10   ,2.2576  ,2.391  ,4.9577
4911  ,1.325e+10   ,2.2576  ,2.4577  ,4.891
4926  ,3.759e+08   ,-2.5  ,2.4  ,1
4932  ,5.343e+08   ,-2.4  ,2.5  ,1.6
4937  ,4.946e+08   ,-1.1  ,2.5  ,0.1
4939  ,7.028e+09   ,2.3  ,2.2299  ,4.7299
4944  ,6.213e+08   ,2.5  ,-1.9073  ,4.9
4987  ,7.916e+08   ,-2.3  ,1.5527  ,4.8
5010  ,1.090e+10   ,2.4973  ,2.1331  ,4.923
5013  ,5.558e+09   ,2.5  ,2.0345  ,4.9
5017  ,5.771e+09   ,2.4  ,2.0345  ,5
5035  ,8.498e+08   ,1.3  ,-2.4  ,0
5038  ,2.796e+08   ,1.2085  ,-2.5  ,0.2
5092  ,1.764e+08   ,-2.4  ,-2.5  ,1.2
5123  ,7.926e+08   ,2.5  ,-2.4  ,0.6
5151  ,4.341e+08   ,-2.5  ,-0.5  ,0.1
5160  ,3.897e+08   ,-2.5  ,-0.7  ,0.1
5164  ,3.886e+08   ,-2.4  ,0.9  ,5
5168  ,3.681e+08   ,-2.4  ,0.5  ,5
5176  ,3.056e+08   ,2.5  ,-0.7  ,0.1
5179  ,2.964e+08   ,2.4  ,-0.5  ,0
5189  ,2.403e+08   ,2.4  ,-2.5  ,2.4
5194  ,6.089e+08   ,2.3  ,-2.5  ,2.2576
5198  ,1.187e+08   ,-2.3  ,-2.5  ,0.32348
5205  ,1.333e+08   ,-2.4  ,-2.5  ,0.2
5207  ,6.372e+07   ,-2.1  ,-2.5  ,0.1
5246  ,5.718e+08   ,-2.5  ,2.4  ,3.2
5257  ,1.589e+08   ,-2.5  ,1.5  ,4.9
5263  ,3.573e+08   ,-2.3  ,0.2278  ,0.2
5272  ,5.908e+08   ,-2.5  ,0.3  ,0.1
5275  ,2.744e+08   ,-2.5  ,0.5  ,4.9
5281  ,3.387e+09   ,1.8375  ,2.5  ,4.9
5297  ,5.697e+08   ,-0.9  ,2.5  ,0.1
5306  ,5.264e+08   ,-0.7  ,2.4  ,0
5309  ,4.744e+08   ,-0.5  ,2.5  ,0.1
5324  ,1.050e+09   ,2.4  ,2.5  ,2.7607
5332  ,7.408e+08   ,2.5  ,-2.4  ,0.8
5334  ,1.876e+08   ,2.4  ,-2.5  ,1
5360  ,5.432e+08   ,2.4  ,-1.7102  ,5
5362  ,5.688e+08   ,2.4  ,-1.5131  ,5
5368  ,3.449e+09   ,2.4  ,1.8375  ,5
5371  ,2.295e+10   ,2.4325  ,2.4888  ,4.6656
5372  ,6.215e+09   ,2.3333  ,2.5  ,4.6998
5376  ,4.719e+09   ,2.4707  ,2.4707  ,4.6331
5377  ,5.840e+09   ,2.5  ,2.4  ,4.5345
5379  ,1.616e+08   ,-1.5  ,-2.5  ,4.9
5406  ,7.349e+08   ,-2.5  ,-2.4  ,3.4
5420  ,6.366e+07   ,-2.3  ,-2.5  ,3.2226
5423  ,8.187e+08   ,1.5  ,-2.4  ,0
5502  ,1.439e+08   ,-2.5  ,-2.3  ,0.1
5504  ,1.476e+08   ,-2.5  ,-2.4  ,0.2
5506  ,1.244e+08   ,-2.4  ,-2.3  ,0
5511  ,2.400e+08   ,-2.5  ,-2.1  ,0.1
5513  ,6.363e+08   ,-2.4  ,0.5  ,0
5517  ,2.318e+08   ,-0.9  ,-2.5  ,0.1
5532  ,8.058e+07   ,-2.4707  ,2.4707  ,4.9
5534  ,3.221e+08   ,2.4  ,-0.7  ,0
5551  ,9.906e+08   ,2.5  ,-2.4  ,3.8
5566  ,6.583e+08   ,2.5  ,2.4  ,1.3811
5603  ,2.880e+08   ,2.4  ,-0.3  ,0
5617  ,2.022e+08   ,-2.1  ,2.5  ,0.1
5637  ,5.093e+08   ,-2.3  ,-1.9695  ,4.8
5641  ,3.018e+08   ,2.3  ,-2.5  ,3.4636
5645  ,2.942e+08   ,-2.4  ,-2.5  ,2
5649  ,3.340e+08   ,-2.4  ,-2.5  ,2.2
5659  ,2.322e+08   ,-2.3  ,-2.5  ,1.7774
5662  ,1.328e+09   ,2.1765  ,-2.5  ,4.8
5666  ,5.757e+08   ,2.4  ,-2.5  ,4.8
5669  ,7.532e+08   ,2.3  ,-2.3412  ,4.8
5695  ,6.900e+08   ,-2.4  ,0.7  ,0
5701  ,4.348e+08   ,-2.5  ,2.4  ,1.6
5715  ,5.356e+08   ,-2.4  ,2.5  ,1.8
5726  ,5.662e+08   ,-0.7  ,2.5  ,0.1
5727  ,4.253e+08   ,-1.1  ,2.4  ,0
5730  ,4.401e+08   ,2.3  ,-2.5  ,1.7774
5746  ,8.040e+08   ,2.5  ,2.4  ,1.7753
5755  ,2.493e+08   ,2.5  ,-2.4  ,4.4
5763  ,4.088e+08   ,2.4  ,-2.5  ,4.4
5773  ,1.338e+09   ,1.0491  ,2.5  ,4.9
5791  ,7.669e+08   ,-0.72473  ,2.4  ,5
5795  ,3.581e+09   ,1.8375  ,2.4  ,5
5803  ,2.265e+08   ,-0.3  ,-2.4  ,5
5810  ,2.387e+09   ,2.4  ,1.6404  ,5
5836  ,1.637e+08   ,-2.5  ,1.3  ,4.9
5860  ,3.825e+08   ,2.5  ,-2.4  ,1.6
5866  ,2.702e+08   ,1.5  ,-2.5  ,0.1
5884  ,2.591e+08   ,-2.4  ,-0.3  ,5
5888  ,2.924e+08   ,-2.5  ,-0.5  ,4.9
5901  ,5.794e+08   ,2.3  ,-2.5  ,2.5
5908  ,5.314e+08   ,2.5  ,-2.4  ,1.2
5909  ,2.377e+08   ,2.5  ,-2.4  ,2
5934  ,4.237e+08   ,1.9  ,-2.5  ,4.9
5938  ,5.910e+08   ,1.933  ,-2.5  ,4.8
5948  ,3.134e+08   ,-2.4  ,-2.5  ,4.6
5950  ,2.999e+08   ,-2.4707  ,-2.4707  ,4.9
5951  ,2.917e+08   ,-2.5  ,-2.4  ,4.8
5952  ,2.741e+08   ,-2.5  ,-2.3  ,4.9
5986  ,3.610e+08   ,2.3  ,-2.5  ,3.7085
5990  ,8.116e+08   ,-0.92182  ,2.5  ,4.9
6019  ,1.401e+08   ,2.5  ,1.9  ,0.1
6025  ,2.195e+08   ,2.4  ,-1.3  ,0
6035  ,1.850e+08   ,-2.5  ,1.9  ,4.9
6044  ,7.729e+08   ,0.1  ,2.5  ,0.1
6054  ,2.725e+08   ,2.4  ,0.1  ,0
6070  ,6.484e+07   ,-2.4  ,2.3  ,0
6071  ,5.389e+07   ,-2.3  ,2.4  ,0
6076  ,1.797e+08   ,-2.4  ,2.1  ,0
6083  ,2.489e+08   ,2.1  ,-2.4  ,0
6084  ,1.124e+08   ,2.4  ,2.3  ,0
6087  ,1.267e+08   ,2.3  ,2.4  ,0
6092  ,6.539e+07   ,-2.4  ,-2.5  ,0.4
6096  ,1.045e+08   ,-2.3  ,-2.5  ,0.1
6099  ,3.812e+08   ,0.7  ,-2.5  ,0.1
6149  ,3.078e+08   ,-2.4  ,-0.9  ,0
6159  ,2.354e+08   ,-2.5  ,-2.4  ,2.6
6183  ,1.494e+09   ,1.2462  ,2.5  ,4.9
6224  ,7.731e+08   ,2.5  ,-2.4  ,4
6228  ,4.180e+08   ,2.4  ,-2.5  ,3.8
6237  ,4.646e+08   ,2.5  ,0.7  ,0.1
6241  ,6.044e+09   ,2.5  ,2.3333  ,4.6998
6245  ,6.675e+08   ,2.5  ,2.4  ,1.5782
6259  ,6.530e+08   ,2.5  ,-2.1044  ,4.9
6265  ,6.088e+08   ,2.3  ,-1.9804  ,4.8
6267  ,7.209e+08   ,2.5  ,-2.3015  ,4.9
6268  ,6.415e+08   ,2.4707  ,-2.4  ,4.9707
6270  ,6.712e+08   ,2.4  ,-2.1044  ,5
6317  ,8.498e+08   ,-2.3  ,0.2278  ,4.8
6349  ,8.320e+08   ,-0.52764  ,2.4  ,5
6391  ,7.533e+08   ,2.4  ,2.5  ,1.7753
6440  ,3.462e+08   ,-2.5  ,2.4  ,3.8
6471  ,5.311e+08   ,2.5  ,-0.92182  ,4.9
6489  ,1.418e+09   ,2.5  ,1.2462  ,4.9
6523  ,3.923e+08   ,-1.1  ,-2.4  ,0
6528  ,1.893e+08   ,-1.1  ,-2.5  ,0.1
6535  ,3.433e+08   ,-0.9  ,-2.4  ,0
6538  ,7.756e+08   ,1.5  ,-2.4  ,5
6541  ,4.045e+08   ,1.5  ,-2.5  ,4.9
6551  ,5.125e+08   ,2.5  ,-0.72473  ,4.9
6564  ,1.136e+10   ,2.1331  ,2.4973  ,4.923
6565  ,5.923e+09   ,2.0345  ,2.5  ,4.9
6572  ,2.499e+08   ,2.4  ,-1.7  ,0
6581  ,1.006e+09   ,0  ,2.3  ,0.2
6592  ,4.983e+08   ,2.3  ,-1.9695  ,0.2
6594  ,5.209e+08   ,0.3  ,2.4  ,0
6601  ,6.624e+08   ,0.5  ,2.5  ,0.1
6605  ,1.953e+08   ,-2.4  ,-1.3  ,0
6606  ,2.090e+08   ,-2.4  ,-1.1  ,0
6615  ,5.122e+08   ,-2.4  ,-0.3  ,0
6634  ,5.763e+08   ,2.1  ,-2.5  ,4.9
6635  ,8.157e+08   ,2.4  ,-2.4707  ,4.9707
6636  ,9.560e+08   ,2.3  ,-2.4  ,5
6647  ,3.913e+08   ,0.5  ,-2.5  ,0.1
6704  ,6.001e+07   ,-2.4707  ,2.4707  ,0.1
6708  ,6.056e+07   ,-2.5  ,2.4  ,0.2
6712  ,3.429e+08   ,-2.4  ,2.5  ,3.6
6715  ,4.692e+08   ,-2.4  ,2.5  ,3.4
6728  ,3.780e+08   ,-2.5  ,0.7  ,4.9
6753  ,1.433e+08   ,-2.1044  ,2.4  ,5
6788  ,3.868e+09   ,2.5  ,2.4  ,4.3375
6791  ,7.025e+08   ,-1.933  ,-2.5  ,4.8
6795  ,5.775e+09   ,2.1998  ,2.5  ,4.8333
6837  ,1.575e+08   ,-2.3  ,-2.5  ,0.8063
6869  ,5.782e+08   ,2.5  ,-1.7102  ,4.9
6873  ,6.577e+08   ,2.4  ,-1.9073  ,5
6880  ,5.969e+08   ,2.4  ,-0.92182  ,5
6885  ,5.065e+08   ,2.4  ,-0.52764  ,5
6893  ,1.298e+09   ,2.4  ,1.2462  ,5
6914  ,6.177e+08   ,0.7  ,2.5  ,0.1
6920  ,5.255e+08   ,0.9  ,2.4  ,0
6923  ,5.895e+08   ,0.7  ,2.4  ,0
6936  ,4.498e+08   ,2.4  ,-2.5  ,3.4
6939  ,1.165e+08   ,2.3  ,-2.5  ,3.2226
6961  ,2.554e+08   ,-0.1  ,-2.5  ,4.9
6967  ,2.675e+08   ,-2.5  ,-1.5  ,4.9
6975  ,2.251e+08   ,-2.4  ,1.1  ,5
6978  ,5.374e+07   ,-2.4  ,2.5  ,0.2
6987  ,5.661e+08   ,2.4  ,-1.316  ,5
6994  ,2.842e+08   ,2.4  ,-1.5  ,0
7004  ,3.818e+08   ,2.4  ,-2.5  ,3.6
7011  ,1.076e+09   ,2.4  ,0.65491  ,5
7016  ,8.451e+08   ,2.4  ,0.45782  ,5
7019  ,8.746e+08   ,2.5  ,2.4  ,2.1695
7021  ,8.305e+08   ,2.5  ,2.4  ,1.9724
7052  ,4.343e+08   ,-1.3  ,2.5  ,0.1
7054  ,1.223e+08   ,-2.4  ,-2.5  ,0.8
7057  ,4.269e+08   ,0.3  ,-2.5  ,0.1
7065  ,4.431e+08   ,0.24243  ,-2.5  ,0.2
7075  ,2.270e+10   ,2.4888  ,2.4325  ,4.6656
7113  ,3.897e+08   ,-2.4  ,-2.5  ,2.6
7121  ,3.918e+08   ,-2.4  ,-2.5  ,2.8
7126  ,3.118e+08   ,-2.5  ,-2.4  ,2.8
7128  ,1.124e+08   ,-2.4707  ,-2.4707  ,0.1
7129  ,1.064e+08   ,-2.4  ,-2.4707  ,0.029289
7141  ,7.766e+08   ,-1.7  ,-2.4  ,5
7145  ,3.892e+08   ,1.1  ,2.4  ,0
7163  ,3.496e+08   ,-1.7102  ,2.4  ,5
7172  ,6.882e+08   ,2.5  ,-2.4  ,3.2
7174  ,4.037e+08   ,-2.5  ,2.4  ,3.6
7183  ,3.406e+08   ,-1.4531  ,-2.5  ,4.8
7204  ,1.351e+09   ,2.3  ,-0.81068  ,4.8
7220  ,6.477e+08   ,2.5  ,0.063638  ,4.9
7227  ,2.960e+08   ,2.5  ,-1.9  ,0.1
7256  ,1.919e+08   ,-0.1  ,-2.4  ,5
7280  ,8.171e+08   ,-0.33054  ,2.4  ,5
7299  ,5.720e+08   ,2.5  ,-1.1189  ,4.9
7316  ,8.076e+07   ,-2.5  ,-2.4  ,0.8
7323  ,1.877e+08   ,-2.4  ,-2.5  ,1
7396  ,1.086e+09   ,1.1  ,-2.4  ,5
7400  ,6.907e+08   ,-2.5  ,0.7  ,0.1
7409  ,1.002e+09   ,1.3  ,-2.4  ,5
7420  ,1.502e+08   ,2.5  ,2.1  ,0.1
7429  ,1.827e+08   ,2.4  ,1.9  ,0
7436  ,2.589e+08   ,2.5  ,-1.7  ,0.1
7438  ,3.451e+08   ,2.4  ,-2.5  ,2.8
7445  ,1.851e+10   ,2.4325  ,2.1656  ,4.9888
7464  ,2.208e+08   ,2.5  ,-1.5  ,0.1
7480  ,4.063e+08   ,2.5  ,-2.4  ,0.2
7482  ,2.672e+08   ,1.9  ,-2.5  ,0.1
7483  ,2.894e+08   ,1.7  ,-2.5  ,0.1
7486  ,2.775e+08   ,1.9  ,-2.4  ,5
7488  ,1.847e+08   ,1.6937  ,-2.5  ,4.8
7492  ,9.906e+08   ,2.1  ,-2.4  ,5
7495  ,4.386e+08   ,0.1  ,-2.5  ,0.1
7504  ,3.654e+08   ,0.3  ,-2.4  ,0
7507  ,3.410e+08   ,0.9  ,-2.5  ,0.1
7533  ,6.451e+08   ,-2.5  ,0.9  ,0.1
7536  ,3.579e+08   ,-2.4  ,-2.5  ,3.2
7540  ,3.885e+08   ,-2.4  ,-2.5  ,3
7545  ,4.335e+08   ,-2.5  ,-2.4  ,3
7582  ,2.444e+08   ,1.3  ,2.5  ,0.1
7588  ,9.770e+08   ,2.5  ,2.4  ,2.3665
7598  ,2.342e+08   ,-2.5  ,2.4  ,4.2
7607  ,7.553e+08   ,1.5333  ,2.3  ,0.2
7627  ,2.236e+08   ,-2.5  ,1.1  ,4.9
7651  ,2.883e+08   ,2.4  ,-1.9  ,0
7656  ,1.661e+08   ,2.5  ,2.4  ,0.39564
7660  ,6.985e+09   ,2.2299  ,2.3  ,4.7299
7668  ,2.313e+08   ,1.4531  ,-2.5  ,4.8
7676  ,2.548e+08   ,0.1  ,-2.5  ,4.9
7683  ,6.916e+07   ,0.1  ,-2.4  ,5
7686  ,3.340e+08   ,-2.4  ,-1.1  ,5
7702  ,2.205e+08   ,-2.3  ,-2.5  ,4.433
7710  ,2.686e+08   ,-2.3  ,-2.5  ,4.6765
7752  ,9.600e+08   ,0.9  ,-2.4  ,5
7763  ,3.739e+08   ,0.24243  ,-2.5  ,4.8
7767  ,6.022e+08   ,-2.5  ,-2.4  ,3.2
7768  ,2.440e+08   ,-2.4  ,-2.1  ,0
7776  ,6.521e+08   ,-2.4  ,0.9  ,0
7786  ,5.134e+08   ,-0.4838  ,-2.5  ,4.8
7800  ,9.885e+08   ,2.5  ,-2.4  ,4.6
7805  ,2.355e+08   ,-2.5  ,-1.3  ,4.9
7811  ,2.937e+08   ,-2.5  ,-1.1  ,4.9
7820  ,3.083e+08   ,2.5  ,-2.1  ,0.1
7824  ,2.963e+08   ,2.4  ,-2.1  ,0
7828  ,4.500e+08   ,2.4  ,-2.5  ,4.2
7831  ,4.079e+08   ,2.4  ,-2.5  ,4
7838  ,3.874e+08   ,2.5  ,-2.4  ,4.2
7839  ,1.044e+09   ,2.5  ,2.4  ,2.7607
7840  ,1.199e+09   ,2.5  ,2.4  ,2.9578
7863  ,2.570e+08   ,-2.4  ,-1.5  ,0
7890  ,3.779e+08   ,2.4  ,0.9  ,0
7897  ,3.890e+08   ,-2.4  ,-0.7  ,0
7912  ,1.970e+08   ,-1.5  ,-2.4  ,0
7917  ,1.979e+08   ,-1.3  ,-2.5  ,0.1
7931  ,5.366e+08   ,0.5  ,2.4  ,0
7934  ,8.390e+08   ,1.1  ,-2.4  ,0
7937  ,1.373e+08   ,2.4  ,-2.5  ,0.8
7941  ,6.179e+07   ,-2.4  ,-2.5  ,0.6
7969  ,8.935e+07   ,-2.5  ,2.3  ,0.1
7971  ,3.186e+08   ,-2.4  ,1.9  ,0
7972  ,2.999e+08   ,-1.9  ,2.5  ,0.1
7978  ,5.602e+08   ,-2.4  ,1.1  ,0
7996  ,3.186e+08   ,-2.4  ,-0.5  ,5
8000  ,4.345e+07   ,-2.5  ,-2.4  ,0.6
8003  ,1.665e+08   ,-2.5  ,-2.4  ,0.4
8025  ,4.871e+08   ,0.9  ,2.5  ,0.1
8035  ,7.048e+08   ,0.3  ,2.5  ,0.1
8039  ,6.279e+08   ,2.3  ,-2.5  ,0.32348
8041  ,4.003e+08   ,2.3  ,-2.3379  ,0.2
8043  ,2.681e+08   ,2.1765  ,-2.5  ,0.2
8045  ,4.195e+07   ,-0.96359  ,-2.5  ,0.2
8054  ,3.091e+08   ,1.3  ,2.4  ,0
8058  ,3.307e+08   ,1.1  ,2.5  ,0.1
8062  ,4.128e+08   ,-2.5  ,2.4  ,1.4
8067  ,3.169e+08   ,-2.5  ,2.4  ,0.8
8087  ,4.394e+08   ,-2.5  ,1.5  ,0.1
8132  ,9.465e+08   ,-0.13345  ,2.4  ,5
8183  ,3.135e+08   ,2.5  ,-0.9  ,0.1
8184  ,3.547e+08   ,1.6937  ,-2.5  ,0.2
8214  ,2.255e+08   ,-2.4707  ,-2.4  ,4.9707
8217  ,6.448e+08   ,-2.1  ,-2.4  ,5
8219  ,2.964e+08   ,-2.4  ,-2.5  ,4.4
8227  ,1.397e+09   ,2.5  ,2.4  ,3.1549
8242  ,4.510e+08   ,0.7  ,-2.5  ,4.9
8248  ,1.090e+09   ,2.5  ,-2.4  ,3.6
8254  ,2.824e+08   ,2.5  ,-0.3  ,0.1
8256  ,3.117e+08   ,2.5  ,-0.5  ,0.1
8258  ,3.305e+08   ,-0.3  ,-2.5  ,4.9
8263  ,3.571e+08   ,-0.5  ,-2.5  ,4.9
8268  ,2.615e+08   ,-2.3  ,-2.5  ,3.7085
8277  ,4.124e+08   ,-0.1  ,-2.5  ,0.1
8285  ,4.267e+08   ,1.1  ,-2.5  ,4.9
8307  ,5.125e+08   ,0.1  ,2.4  ,0
8308  ,2.951e+08   ,-0.1  ,2.5  ,0.1
8309  ,5.218e+08   ,-0.1  ,2.4  ,0
8313  ,2.728e+08   ,2.5  ,-2.3  ,0.1
8318  ,4.622e+08   ,2.5  ,-2.4  ,3
8338  ,1.327e+09   ,2.5  ,2.4  ,3.352
8339  ,1.349e+09   ,2.4  ,2.5  ,3.1549
8344  ,5.252e+08   ,-2.5  ,2.4  ,3.4
8357  ,1.769e+10   ,2.4888  ,2.1656  ,4.9325
8358  ,5.508e+09   ,2.5  ,2.1998  ,4.8333
8383  ,4.544e+07   ,-1.7  ,-2.4  ,0
8396  ,3.179e+08   ,1.1  ,-2.5  ,0.1
8399  ,7.315e+09   ,2.4526  ,2.1331  ,4.9851
8405  ,6.039e+08   ,2.5  ,-2.4  ,1
8412  ,5.937e+08   ,2.3  ,-2.5  ,0.8063
8417  ,5.300e+08   ,-2.3  ,-2.5  ,2.5
8434  ,2.760e+08   ,0.9636  ,-2.5  ,4.8
8438  ,3.372e+08   ,-0.3  ,-2.5  ,0.1
8452  ,2.613e+08   ,-2.4  ,-0.1  ,5
8468  ,1.547e+09   ,2.5  ,2.4  ,3.7462
8471  ,2.404e+08   ,-1.3  ,-2.5  ,4.9
8493  ,3.615e+08   ,-1.1  ,-2.5  ,4.9
8509  ,2.924e+08   ,-2.5  ,-1.7  ,0.1
8517  ,5.961e+08   ,-2.4  ,2.5  ,3
8531  ,3.925e+08   ,-2.4  ,1.7  ,0
8556  ,1.328e+09   ,2.5  ,2.4  ,3.5491
8573  ,6.752e+08   ,-1.316  ,2.4  ,5
8576  ,4.892e+08   ,-2.4  ,1.3  ,0
8611  ,1.207e+08   ,2.3  ,-2.5  ,1.2915
8618  ,2.071e+08   ,-2.4  ,2.5  ,4
8646  ,5.532e+08   ,-2.5  ,1.1  ,0.1
8656  ,2.757e+08   ,2.5  ,-1.3  ,0.1
8657  ,1.632e+08   ,2.4  ,2.1  ,0
8673  ,3.704e+08   ,-1.3  ,2.4  ,0
8692  ,1.551e+08   ,0.72263  ,-2.5  ,4.8
8696  ,2.927e+08   ,2.3  ,-2.5  ,1.0469
8706  ,9.923e+08   ,2.5  ,0.65491  ,4.9
8721  ,2.219e+08   ,-2.4  ,-2.5  ,1.6
8725  ,1.416e+09   ,0.65491  ,2.4  ,5
8739  ,1.889e+10   ,2.1656  ,2.4325  ,4.9888
8741  ,6.051e+09   ,2.1998  ,2.3333  ,5
8746  ,1.382e+08   ,-2.1  ,-2.4  ,0
8748  ,3.436e+08   ,-2.5  ,-2.4  ,1.2
8752  ,8.680e+09   ,2.1331  ,2.4526  ,4.9851
8759  ,1.006e+08   ,-2.3  ,-2.5  ,1.0469
8787  ,1.826e+08   ,-0.1  ,-2.4  ,0
8793  ,5.395e+08   ,-2.3  ,-2.5  ,2.2576
8795  ,3.737e+08   ,-2.4  ,-2.5  ,2.4
8798  ,3.718e+08   ,-2.3  ,-2.5  ,4.1937
8808  ,3.909e+08   ,-2.3  ,-2.5  ,3.9531
8814  ,4.122e+08   ,-2.4  ,-1.5  ,5
8849  ,2.040e+08   ,0.4838  ,-2.5  ,4.8
8851  ,2.917e+08   ,-2.4  ,-2.5  ,4.2
8868  ,3.655e+08   ,2.4  ,-2.5  ,3
8874  ,1.384e+09   ,0.852  ,2.4  ,5
8883  ,2.630e+08   ,-0.5  ,-2.4  ,5
8886  ,4.257e+08   ,-0.72262  ,-2.5  ,4.8
8893  ,2.992e+08   ,-0.7  ,-2.5  ,4.9
8897  ,8.157e+08   ,-2.5  ,-2.4  ,3.6
8899  ,1.543e+08   ,-2.3  ,-2.5  ,3.4636
8900  ,1.665e+08   ,-2.3  ,-1.4729  ,0.2
8906  ,2.183e+08   ,-2.5  ,-1.3  ,0.1
8910  ,1.483e+09   ,0.852  ,2.5  ,4.9
8925  ,4.492e+08   ,-2.4  ,2.5  ,1.4
8941  ,8.676e+07   ,2.4707  ,2.4  ,0.029289
8942  ,1.292e+08   ,2.5  ,2.3  ,0.1
8945  ,2.572e+08   ,-2.5  ,0.1  ,4.9
8950  ,9.269e+07   ,2.4707  ,2.4707  ,0.1
8951  ,7.537e+07   ,2.4  ,2.4707  ,0.029289
8959  ,6.347e+08   ,2.4  ,0.26073  ,5
8965  ,1.204e+09   ,0.45782  ,2.4  ,5
8978  ,1.009e+09   ,2.4  ,0.852  ,5
8983  ,2.818e+08   ,2.5  ,-1.1  ,0.1
8991  ,2.345e+08   ,-2.5  ,2.4  ,0.6
9008  ,1.039e+09   ,2.5  ,0.852  ,4.9
9011  ,4.569e+08   ,-2.4  ,-0.5  ,0
9025  ,1.843e+08   ,-1.5  ,-2.5  ,0.1
9038  ,3.369e+08   ,2.4  ,-2.5  ,2
9041  ,4.125e+08   ,2.5  ,0.9  ,0.1
9050  ,3.683e+08   ,2.5  ,0.5  ,0.1
9054  ,7.586e+08   ,0.9  ,-2.4  ,0
9060  ,3.610e+08   ,2.4  ,-2.5  ,0.4
9062  ,6.968e+08   ,2.3  ,-2.5  ,0.56701
9064  ,7.029e+08   ,2.5  ,-2.4  ,0.4
9069  ,3.268e+08   ,2.4  ,-2.5  ,0.6
9071  ,3.696e+08   ,1.4531  ,-2.5  ,0.2
9082  ,5.927e+07   ,-2.3  ,-2.5  ,1.2915
9086  ,1.833e+08   ,-2.4  ,-2.5  ,1.4
9091  ,3.682e+08   ,-2.5  ,-2.4  ,1.4
9094  ,3.963e+08   ,1.3  ,-2.5  ,4.9
9097  ,2.762e+08   ,-0.7  ,-2.5  ,0.1
9137  ,3.313e+08   ,-2.5  ,-0.7  ,4.9
9143  ,2.650e+08   ,-2.5  ,-0.1  ,4.9
9146  ,1.227e+08   ,-2.1  ,2.4  ,0
9148  ,1.681e+08   ,-2.5  ,1.7  ,4.9
9173  ,5.352e+08   ,-2.5  ,2.4  ,3
9192  ,2.685e+08   ,-0.7  ,-2.4  ,5
9195  ,6.318e+07   ,0.72263  ,-2.5  ,0.2
9209  ,9.432e+08   ,2.5  ,-2.4  ,3.4
9215  ,1.628e+08   ,0.9636  ,-2.5  ,0.2
9217  ,4.213e+08   ,2.4  ,-2.5  ,3.2
9218  ,2.910e+08   ,-0.96359  ,-2.5  ,4.8
9229  ,5.602e+08   ,-2.4  ,2.5  ,2.8
9248  ,5.914e+08   ,2.3  ,-2.5  ,4.433
9255  ,1.810e+08   ,2.5  ,1.3  ,0.1
9257  ,1.531e+08   ,2.4  ,1.5  ,0
9262  ,4.636e+08   ,0.5  ,-2.4  ,5
9264  ,4.977e+08   ,2.4  ,-0.13345  ,5
9272  ,8.669e+08   ,0.063638  ,2.4  ,5
9277  ,3.904e+08   ,-2.5  ,2.4  ,1.2
9279  ,6.888e+08   ,2.5  ,0.26073  ,4.9
9282  ,3.308e+08   ,1.2085  ,-2.5  ,4.8
9286  ,4.689e+08   ,0.9  ,-2.5  ,4.9
9292  ,9.420e+07   ,-2.4  ,2.4707  ,4.9707
9293  ,1.018e+08   ,-2.3015  ,2.4  ,5
9296  ,2.859e+08   ,-2.4  ,-2.1  ,5
9303  ,3.242e+08   ,-2.4  ,-1.9  ,5
9311  ,1.432e+08   ,-2.4  ,2.3  ,5
9313  ,2.923e+08   ,-2.4  ,0.1  ,5
9319  ,1.527e+08   ,-0.5  ,-2.4  ,0
9328  ,5.755e+07   ,-2.3  ,-2.5  ,1.5364
9334  ,5.486e+07   ,-2.3  ,2.5  ,0.1
9338  ,1.587e+08   ,-2.5  ,-2.4  ,2.4
9339  ,4.801e+08   ,-2.5  ,1.3  ,0.1
9341  ,4.581e+08   ,-2.3  ,-2.5  ,2.7424
9344  ,1.253e+08   ,-2.5  ,-2.4  ,2.2
9358  ,1.312e+09   ,-2.3  ,2.3  ,2.5
9364  ,3.132e+08   ,-2.5  ,-2.1  ,4.9
9367  ,3.069e+08   ,-2.4  ,-2.3  ,5
9374  ,3.328e+08   ,-2.4  ,-1.3  ,5
9378  ,5.017e+08   ,-2.5  ,2.4  ,1.8
9384  ,4.985e+08   ,2.3  ,-2.5  ,2.0162
9385  ,1.889e+08   ,-2.5  ,2.4  ,4.4
9389  ,4.869e+08   ,-2.5  ,2.4  ,2
9395  ,6.803e+08   ,2.4  ,-2.3015  ,5
9396  ,3.086e+08   ,-2.4  ,-1.7  ,0
9407  ,6.145e+08   ,-2.3  ,-1.4729  ,4.8
9411  ,2.395e+08   ,-2.5  ,-1.7  ,4.9
9423  ,3.195e+08   ,-2.4  ,-2.5  ,3.6
9432  ,6.981e+08   ,0.7  ,-2.4  ,5
9438  ,3.323e+08   ,-2.5  ,-0.9  ,4.9
9443  ,2.652e+08   ,-2.5  ,-0.3  ,4.9
9445  ,9.244e+07   ,-2.4707  ,2.4  ,4.9707
9448  ,5.474e+08   ,2.4  ,-1.1189  ,5
9453  ,3.904e+08   ,2.4  ,0.7  ,0
9455  ,9.203e+07   ,2.5  ,-2.4  ,2.6
9457  ,1.914e+08   ,2.3  ,-2.5  ,2.9838
9494  ,4.265e+08   ,-2.4  ,2.5  ,1
9500  ,3.110e+08   ,0.3  ,-2.5  ,4.9
9504  ,2.595e+08   ,0.3  ,-2.4  ,5
9506  ,2.796e+08   ,2.1  ,-2.5  ,0.1
9518  ,6.947e+07   ,-1.9  ,-2.5  ,0.1
9528  ,2.568e+08   ,2.3  ,-2.5  ,0.1
9531  ,3.137e+08   ,2.4707  ,-2.4707  ,0.1
9533  ,2.159e+08   ,2.4707  ,-2.4  ,0.029289
9534  ,2.726e+08   ,2.4  ,-2.4707  ,0.029289
9541  ,3.655e+08   ,0.5  ,-2.5  ,4.9
9544  ,2.979e+08   ,-0.5  ,-2.5  ,0.1
9559  ,2.642e+08   ,-2.5  ,-1.9  ,4.9
9562  ,1.658e+08   ,-2.5  ,2.4  ,4.6
9565  ,5.427e+08   ,-2.4  ,2.5  ,2
9571  ,8.501e+08   ,-2.5  ,-2.4  ,3.8
9574  ,3.123e+08   ,-2.4  ,-2.5  ,3.8
9577  ,2.949e+08   ,1.3  ,-2.5  ,0.1
9582  ,3.243e+08   ,-2.5  ,-0.9  ,0.1
9596  ,1.695e+08   ,2.1  ,2.4  ,0
9598  ,5.824e+08   ,-2.4  ,2.5  ,3.2
9602  ,2.189e+08   ,1.5  ,2.5  ,0.1
9610  ,1.695e+08   ,2.4  ,2.5  ,0.39564
9612  ,8.673e+08   ,-0.72473  ,2.5  ,4.9
9614  ,2.123e+08   ,1.7  ,2.5  ,0.1
9635  ,1.740e+08   ,2.5  ,1.7  ,0.1
9646  ,1.111e+08   ,2.3  ,2.5  ,0.1
9651  ,1.793e+10   ,2.1656  ,2.4888  ,4.9325
9653  ,5.532e+08   ,2.5  ,-1.316  ,4.9
9656  ,2.858e+08   ,-2.4  ,-1.7  ,5
9659  ,1.337e+09   ,2.3  ,-2.5  ,4.6765
9661  ,2.233e+08   ,2.3  ,-2.5  ,3.9531
9664  ,3.875e+08   ,-2.3  ,-2.4  ,5
9666  ,3.594e+08   ,1.9  ,-2.4  ,0
9677  ,2.870e+08   ,2.4  ,0.5  ,0
9678  ,2.323e+08   ,-2.5  ,-1.1  ,0.1
9680  ,6.078e+08   ,2.5  ,2.4  ,1.184
9681  ,1.088e+08   ,2.5  ,2.4  ,0.19855
9696  ,4.254e+08   ,-2.3  ,-2.5  ,2.0162
9698  ,2.745e+08   ,2.4  ,-2.3  ,0
9699  ,5.826e+08   ,-0.24243  ,-2.5  ,0.2
9701  ,3.065e+08   ,0.1  ,-2.4  ,0
9704  ,4.552e+08   ,-0.4838  ,-2.5  ,0.2
9718  ,2.329e+08   ,-0.72262  ,-2.5  ,0.2
9726  ,8.354e+08   ,2.3  ,-0.76628  ,0.2
9727  ,1.318e+08   ,-2.5  ,2.4  ,0.4
9730  ,5.676e+08   ,1.9433E-06  ,-2.5  ,4.8
9731  ,6.194e+08   ,-0.24243  ,-2.5  ,4.8
9732  ,4.916e+08   ,-2.5  ,2.4  ,2.2
9738  ,8.296e+08   ,-2.5  ,-2.4  ,4
9743  ,6.038e+08   ,-1.6937  ,-2.5  ,4.8
9744  ,2.453e+08   ,-2.4  ,-2.5  ,4
9750  ,9.815e+07   ,-1.7  ,-2.5  ,0.1
9752  ,1.734e+08   ,-1.6937  ,-2.5  ,0.2
9754  ,3.435e+08   ,-1.3  ,-2.4  ,0
9759  ,5.690e+07   ,-2.4707  ,2.4  ,0.029289
9760  ,5.465e+07   ,-2.4  ,2.4707  ,0.029289
9768  ,2.353e+08   ,2.3  ,-2.5  ,4.1937
9770  ,5.487e+08   ,1.9433E-06  ,-2.5  ,0.2
9771  ,3.005e+08   ,0.4838  ,-2.5  ,0.2
9772  ,3.663e+08   ,2.4  ,-2.5  ,0.2
9773  ,5.456e+08   ,2.4  ,-2.5  ,4.6
9776  ,5.308e+08   ,2.4  ,0.063638  ,5
9780  ,1.417e+09   ,0.65491  ,2.5  ,4.9
9781  ,8.901e+07   ,2.4  ,2.5  ,0.19855
9782  ,2.793e+08   ,-2.3  ,-2.5  ,2.9838
9786  ,1.100e+08   ,-1.2085  ,-2.5  ,0.2
9787  ,1.152e+08   ,-1.4531  ,-2.5  ,0.2
9790  ,2.886e+08   ,2.3  ,-2.4  ,0
9793  ,5.870e+09   ,2.0345  ,2.4  ,5
9797  ,3.029e+08   ,2.3  ,-2.5  ,1.5364
9798  ,1.135e+09   ,2.4  ,1.0491  ,5
9809  ,1.360e+09   ,2.4  ,2.5  ,3.352
