Date:  11:25, Monday, July 10, 2023
Model name: Hollow_DropBox
Study name: Drop Test_hollow_draft1(-Default-)
Plot type:  Stress1
Plot step: 20   time : 104.949 Microseconds
Result Type: von Mises 


Node  ,Value (N/m^2)  ,X (in)  ,Y (in)  ,Z (in)
1  ,4.023e+09   ,2.5  ,2.1331  ,4.9
2  ,1.949e+10   ,2.4577  ,2.1908  ,4.9577
3  ,5.749e+09   ,2.4894  ,2.1331  ,4.9447
4  ,5.970e+09   ,2.1331  ,2.5  ,4.9
5  ,1.252e+10   ,2.1331  ,2.4894  ,4.9447
6  ,1.962e+10   ,2.1908  ,2.4577  ,4.9577
7  ,1.199e+08   ,-2.4  ,2.4  ,5
8  ,1.223e+09   ,-2.4  ,-2.4  ,5
9  ,1.739e+09   ,2.4  ,-2.4  ,5
10  ,4.152e+09   ,2.4  ,2.1331  ,5
11  ,5.454e+09   ,2.1331  ,2.4  ,5
12  ,1.897e+09   ,2.5  ,-2.4  ,4.9
13  ,1.117e+09   ,2.5  ,-2.4  ,0.1
14  ,1.239e+08   ,2.5  ,2.4  ,0.1
15  ,6.058e+09   ,2.5  ,2.4  ,4.6331
16  ,1.317e+08   ,2.4  ,2.5  ,0.1
17  ,2.174e+08   ,-2.4  ,2.5  ,0.1
18  ,9.277e+07   ,-2.4  ,2.5  ,4.9
19  ,6.150e+09   ,2.4  ,2.5  ,4.6331
20  ,1.081e+08   ,-2.5  ,2.4  ,0.1
21  ,9.522e+07   ,-2.5  ,-2.4  ,0.1
22  ,7.836e+08   ,-2.5  ,-2.4  ,4.9
23  ,1.351e+08   ,-2.5  ,2.4  ,4.9
24  ,2.650e+08   ,-2.3  ,-2.5  ,0.2
25  ,9.059e+08   ,-2.3  ,-2.5  ,4.8
26  ,1.608e+09   ,2.3  ,-2.5  ,4.8
27  ,8.212e+08   ,2.3  ,-2.5  ,0.2
28  ,1.019e+09   ,-2.4  ,-2.5  ,4.9
29  ,1.933e+09   ,2.4  ,-2.5  ,4.9
30  ,1.299e+08   ,-2.4  ,-2.5  ,0.1
31  ,1.021e+09   ,2.4  ,-2.5  ,0.1
32  ,8.499e+08   ,2.4  ,-2.4  ,0
33  ,1.454e+08   ,2.4  ,2.4  ,0
34  ,8.016e+07   ,-2.4  ,-2.4  ,0
35  ,1.400e+08   ,-2.4  ,2.4  ,0
36  ,2.323e+10   ,2.4577  ,2.4577  ,4.6908
37  ,2.948e+08   ,-2.3  ,2.3  ,4.8
38  ,6.344e+09   ,2.1599  ,2.3  ,4.8
39  ,5.885e+09   ,2.3  ,2.1599  ,4.8
40  ,6.153e+09   ,2.3  ,2.3  ,4.6599
41  ,3.375e+08   ,2.3  ,2.3  ,0.2
42  ,1.389e+08   ,-2.3  ,2.3  ,0.2
43  ,2.987e+08   ,-2.4  ,2.2  ,5
44  ,4.146e+08   ,-2.4  ,2  ,5
45  ,4.210e+08   ,-2.4  ,1.8  ,5
46  ,4.080e+08   ,-2.4  ,1.6  ,5
47  ,3.768e+08   ,-2.4  ,1.4  ,5
48  ,4.547e+08   ,-2.4  ,1.2  ,5
49  ,5.454e+08   ,-2.4  ,1  ,5
50  ,6.782e+08   ,-2.4  ,0.8  ,5
51  ,4.472e+08   ,-2.4  ,0.6  ,5
52  ,3.822e+08   ,-2.4  ,0.4  ,5
53  ,3.778e+08   ,-2.4  ,0.2  ,5
54  ,3.599e+08   ,-2.4  ,5.8879E-16  ,5
55  ,3.216e+08   ,-2.4  ,-0.2  ,5
56  ,2.921e+08   ,-2.4  ,-0.4  ,5
57  ,2.207e+08   ,-2.4  ,-0.6  ,5
58  ,1.584e+08   ,-2.4  ,-0.8  ,5
59  ,2.323e+08   ,-2.4  ,-1  ,5
60  ,2.228e+08   ,-2.4  ,-1.2  ,5
61  ,5.200e+08   ,-2.4  ,-1.4  ,5
62  ,4.715e+08   ,-2.4  ,-1.6  ,5
63  ,4.790e+08   ,-2.4  ,-1.8  ,5
64  ,7.027e+08   ,-2.4  ,-2  ,5
65  ,6.773e+08   ,-2.4  ,-2.2  ,5
66  ,1.636e+09   ,-2.2  ,-2.4  ,5
67  ,1.237e+09   ,-2  ,-2.4  ,5
68  ,1.027e+09   ,-1.8  ,-2.4  ,5
69  ,6.778e+08   ,-1.6  ,-2.4  ,5
70  ,3.819e+08   ,-1.4  ,-2.4  ,5
71  ,2.376e+08   ,-1.2  ,-2.4  ,5
72  ,1.081e+08   ,-1  ,-2.4  ,5
73  ,1.586e+08   ,-0.8  ,-2.4  ,5
74  ,3.188e+08   ,-0.6  ,-2.4  ,5
75  ,5.069e+08   ,-0.4  ,-2.4  ,5
76  ,6.877e+08   ,-0.2  ,-2.4  ,5
77  ,9.319e+08   ,-5.8879E-16  ,-2.4  ,5
78  ,1.142e+09   ,0.2  ,-2.4  ,5
79  ,1.354e+09   ,0.4  ,-2.4  ,5
80  ,1.716e+09   ,0.6  ,-2.4  ,5
81  ,1.694e+09   ,0.8  ,-2.4  ,5
82  ,1.634e+09   ,1  ,-2.4  ,5
83  ,1.470e+09   ,1.2  ,-2.4  ,5
84  ,1.197e+09   ,1.4  ,-2.4  ,5
85  ,6.041e+08   ,1.6  ,-2.4  ,5
86  ,8.587e+08   ,1.8  ,-2.4  ,5
87  ,1.352e+09   ,2  ,-2.4  ,5
88  ,2.996e+09   ,2.2  ,-2.4  ,5
89  ,1.540e+09   ,2.4  ,-2.2029  ,5
90  ,1.652e+09   ,2.4  ,-2.0058  ,5
91  ,1.250e+09   ,2.4  ,-1.8087  ,5
92  ,1.146e+09   ,2.4  ,-1.6116  ,5
93  ,1.223e+09   ,2.4  ,-1.4145  ,5
94  ,1.045e+09   ,2.4  ,-1.2175  ,5
95  ,1.113e+09   ,2.4  ,-1.0204  ,5
96  ,1.084e+09   ,2.4  ,-0.82327  ,5
97  ,1.080e+09   ,2.4  ,-0.62618  ,5
98  ,9.095e+08   ,2.4  ,-0.42909  ,5
99  ,8.332e+08   ,2.4  ,-0.232  ,5
100  ,7.372e+08   ,2.4  ,-0.034907  ,5
101  ,6.591e+08   ,2.4  ,0.16218  ,5
102  ,6.954e+08   ,2.4  ,0.35927  ,5
103  ,8.845e+08   ,2.4  ,0.55637  ,5
104  ,8.864e+08   ,2.4  ,0.75346  ,5
105  ,7.377e+08   ,2.4  ,0.95055  ,5
106  ,8.478e+08   ,2.4  ,1.1476  ,5
107  ,1.284e+09   ,2.4  ,1.3447  ,5
108  ,1.692e+09   ,2.4  ,1.5418  ,5
109  ,2.306e+09   ,2.4  ,1.7389  ,5
110  ,3.618e+09   ,2.4  ,1.936  ,5
111  ,4.981e+09   ,2.2665  ,2.2665  ,5
112  ,4.342e+09   ,1.936  ,2.4  ,5
113  ,2.531e+09   ,1.7389  ,2.4  ,5
114  ,1.986e+09   ,1.5418  ,2.4  ,5
115  ,1.490e+09   ,1.3447  ,2.4  ,5
116  ,1.219e+09   ,1.1476  ,2.4  ,5
117  ,1.095e+09   ,0.95055  ,2.4  ,5
118  ,1.111e+09   ,0.75346  ,2.4  ,5
119  ,1.070e+09   ,0.55637  ,2.4  ,5
120  ,9.114e+08   ,0.35927  ,2.4  ,5
121  ,8.937e+08   ,0.16218  ,2.4  ,5
122  ,8.424e+08   ,-0.034907  ,2.4  ,5
123  ,9.390e+08   ,-0.232  ,2.4  ,5
124  ,8.859e+08   ,-0.42909  ,2.4  ,5
125  ,7.793e+08   ,-0.62618  ,2.4  ,5
126  ,1.089e+09   ,-0.82327  ,2.4  ,5
127  ,1.035e+09   ,-1.0204  ,2.4  ,5
128  ,9.524e+08   ,-1.2175  ,2.4  ,5
129  ,8.020e+08   ,-1.4145  ,2.4  ,5
130  ,5.496e+08   ,-1.6116  ,2.4  ,5
131  ,3.541e+08   ,-1.8087  ,2.4  ,5
132  ,2.215e+08   ,-2.0058  ,2.4  ,5
133  ,1.627e+08   ,-2.2029  ,2.4  ,5
294  ,1.326e+09   ,2.5  ,-2.2029  ,4.9
295  ,1.595e+09   ,2.5  ,-2.0058  ,4.9
296  ,1.243e+09   ,2.5  ,-1.8087  ,4.9
297  ,1.270e+09   ,2.5  ,-1.6116  ,4.9
298  ,1.048e+09   ,2.5  ,-1.4145  ,4.9
299  ,1.022e+09   ,2.5  ,-1.2175  ,4.9
300  ,1.145e+09   ,2.5  ,-1.0204  ,4.9
301  ,8.747e+08   ,2.5  ,-0.82327  ,4.9
302  ,1.001e+09   ,2.5  ,-0.62618  ,4.9
303  ,9.129e+08   ,2.5  ,-0.42909  ,4.9
304  ,1.055e+09   ,2.5  ,-0.232  ,4.9
305  ,1.131e+09   ,2.5  ,-0.034907  ,4.9
306  ,8.383e+08   ,2.5  ,0.16218  ,4.9
307  ,7.313e+08   ,2.5  ,0.35927  ,4.9
308  ,8.848e+08   ,2.5  ,0.55637  ,4.9
309  ,8.258e+08   ,2.5  ,0.75346  ,4.9
310  ,8.807e+08   ,2.5  ,0.95055  ,4.9
311  ,1.062e+09   ,2.5  ,1.1476  ,4.9
312  ,1.332e+09   ,2.5  ,1.3447  ,4.9
313  ,1.752e+09   ,2.5  ,1.5418  ,4.9
314  ,2.590e+09   ,2.5  ,1.7389  ,4.9
315  ,3.782e+09   ,2.5  ,1.936  ,4.9
316  ,3.075e+09   ,2.5  ,-2.4  ,4.7
317  ,1.355e+09   ,2.5  ,-2.4  ,4.5
318  ,9.028e+08   ,2.5  ,-2.4  ,4.3
319  ,6.163e+08   ,2.5  ,-2.4  ,4.1
320  ,1.084e+09   ,2.5  ,-2.4  ,3.9
321  ,1.445e+09   ,2.5  ,-2.4  ,3.7
322  ,1.606e+09   ,2.5  ,-2.4  ,3.5
323  ,1.609e+09   ,2.5  ,-2.4  ,3.3
324  ,1.535e+09   ,2.5  ,-2.4  ,3.1
325  ,1.290e+09   ,2.5  ,-2.4  ,2.9
326  ,1.190e+09   ,2.5  ,-2.4  ,2.7
327  ,1.058e+09   ,2.5  ,-2.4  ,2.5
328  ,7.664e+08   ,2.5  ,-2.4  ,2.3
329  ,5.148e+08   ,2.5  ,-2.4  ,2.1
330  ,1.989e+08   ,2.5  ,-2.4  ,1.9
331  ,1.016e+08   ,2.5  ,-2.4  ,1.7
332  ,1.710e+08   ,2.5  ,-2.4  ,1.5
333  ,2.163e+08   ,2.5  ,-2.4  ,1.3
334  ,3.108e+08   ,2.5  ,-2.4  ,1.1
335  ,5.874e+08   ,2.5  ,-2.4  ,0.9
336  ,1.079e+09   ,2.5  ,-2.4  ,0.7
337  ,1.298e+09   ,2.5  ,-2.4  ,0.5
338  ,1.551e+09   ,2.5  ,-2.4  ,0.3
339  ,6.868e+08   ,2.5  ,-2.2  ,0.1
340  ,7.236e+08   ,2.5  ,-2  ,0.1
341  ,4.736e+08   ,2.5  ,-1.8  ,0.1
342  ,4.290e+08   ,2.5  ,-1.6  ,0.1
343  ,2.861e+08   ,2.5  ,-1.4  ,0.1
344  ,2.509e+08   ,2.5  ,-1.2  ,0.1
345  ,2.515e+08   ,2.5  ,-1  ,0.1
346  ,1.586e+08   ,2.5  ,-0.8  ,0.1
347  ,2.082e+08   ,2.5  ,-0.6  ,0.1
348  ,2.713e+08   ,2.5  ,-0.4  ,0.1
349  ,2.681e+08   ,2.5  ,-0.2  ,0.1
350  ,2.478e+08   ,2.5  ,-1.7664E-15  ,0.1
351  ,2.507e+08   ,2.5  ,0.2  ,0.1
352  ,3.699e+08   ,2.5  ,0.4  ,0.1
353  ,5.608e+08   ,2.5  ,0.6  ,0.1
354  ,7.760e+08   ,2.5  ,0.8  ,0.1
355  ,5.555e+08   ,2.5  ,1  ,0.1
356  ,5.300e+08   ,2.5  ,1.2  ,0.1
357  ,4.516e+08   ,2.5  ,1.4  ,0.1
358  ,4.229e+08   ,2.5  ,1.6  ,0.1
359  ,3.200e+08   ,2.5  ,1.8  ,0.1
360  ,3.051e+08   ,2.5  ,2  ,0.1
361  ,2.851e+08   ,2.5  ,2.2  ,0.1
362  ,4.267e+09   ,2.5  ,2.4  ,4.436
363  ,2.828e+09   ,2.5  ,2.4  ,4.2389
364  ,1.840e+09   ,2.5  ,2.4  ,4.0418
365  ,1.507e+09   ,2.5  ,2.4  ,3.8447
366  ,1.144e+09   ,2.5  ,2.4  ,3.6476
367  ,1.047e+09   ,2.5  ,2.4  ,3.4505
368  ,1.070e+09   ,2.5  ,2.4  ,3.2535
369  ,1.047e+09   ,2.5  ,2.4  ,3.0564
370  ,9.592e+08   ,2.5  ,2.4  ,2.8593
371  ,8.581e+08   ,2.5  ,2.4  ,2.6622
372  ,9.600e+08   ,2.5  ,2.4  ,2.4651
373  ,8.465e+08   ,2.5  ,2.4  ,2.268
374  ,9.218e+08   ,2.5  ,2.4  ,2.0709
375  ,9.264e+08   ,2.5  ,2.4  ,1.8738
376  ,1.054e+09   ,2.5  ,2.4  ,1.6767
377  ,7.515e+08   ,2.5  ,2.4  ,1.4796
378  ,8.031e+08   ,2.5  ,2.4  ,1.2825
379  ,7.762e+08   ,2.5  ,2.4  ,1.0855
380  ,7.054e+08   ,2.5  ,2.4  ,0.88836
381  ,5.535e+08   ,2.5  ,2.4  ,0.69127
382  ,3.317e+08   ,2.5  ,2.4  ,0.49418
383  ,1.953e+08   ,2.5  ,2.4  ,0.29709
384  ,5.024e+09   ,2.5  ,2.2665  ,4.7665
544  ,2.891e+08   ,2.2  ,2.5  ,0.1
545  ,4.114e+08   ,2  ,2.5  ,0.1
546  ,4.104e+08   ,1.8  ,2.5  ,0.1
547  ,4.325e+08   ,1.6  ,2.5  ,0.1
548  ,3.477e+08   ,1.4  ,2.5  ,0.1
549  ,4.856e+08   ,1.2  ,2.5  ,0.1
550  ,6.145e+08   ,1  ,2.5  ,0.1
551  ,8.578e+08   ,0.8  ,2.5  ,0.1
552  ,7.334e+08   ,0.6  ,2.5  ,0.1
553  ,6.189e+08   ,0.4  ,2.5  ,0.1
554  ,6.052e+08   ,0.2  ,2.5  ,0.1
555  ,4.730e+08   ,5.8879E-16  ,2.5  ,0.1
556  ,4.946e+08   ,-0.2  ,2.5  ,0.1
557  ,5.270e+08   ,-0.4  ,2.5  ,0.1
558  ,5.908e+08   ,-0.6  ,2.5  ,0.1
559  ,8.196e+08   ,-0.8  ,2.5  ,0.1
560  ,8.049e+08   ,-1  ,2.5  ,0.1
561  ,8.422e+08   ,-1.2  ,2.5  ,0.1
562  ,7.465e+08   ,-1.4  ,2.5  ,0.1
563  ,7.417e+08   ,-1.6  ,2.5  ,0.1
564  ,7.137e+08   ,-1.8  ,2.5  ,0.1
565  ,6.637e+08   ,-2  ,2.5  ,0.1
566  ,5.191e+08   ,-2.2  ,2.5  ,0.1
567  ,2.696e+08   ,-2.4  ,2.5  ,4.7
568  ,3.971e+08   ,-2.4  ,2.5  ,4.5
569  ,3.830e+08   ,-2.4  ,2.5  ,4.3
570  ,4.306e+08   ,-2.4  ,2.5  ,4.1
571  ,3.633e+08   ,-2.4  ,2.5  ,3.9
572  ,3.993e+08   ,-2.4  ,2.5  ,3.7
573  ,5.491e+08   ,-2.4  ,2.5  ,3.5
574  ,8.201e+08   ,-2.4  ,2.5  ,3.3
575  ,6.401e+08   ,-2.4  ,2.5  ,3.1
576  ,5.096e+08   ,-2.4  ,2.5  ,2.9
577  ,5.192e+08   ,-2.4  ,2.5  ,2.7
578  ,4.008e+08   ,-2.4  ,2.5  ,2.5
579  ,4.435e+08   ,-2.4  ,2.5  ,2.3
580  ,5.357e+08   ,-2.4  ,2.5  ,2.1
581  ,5.983e+08   ,-2.4  ,2.5  ,1.9
582  ,7.795e+08   ,-2.4  ,2.5  ,1.7
583  ,7.749e+08   ,-2.4  ,2.5  ,1.5
584  ,8.020e+08   ,-2.4  ,2.5  ,1.3
585  ,7.930e+08   ,-2.4  ,2.5  ,1.1
586  ,7.916e+08   ,-2.4  ,2.5  ,0.9
587  ,7.237e+08   ,-2.4  ,2.5  ,0.7
588  ,6.593e+08   ,-2.4  ,2.5  ,0.5
589  ,5.384e+08   ,-2.4  ,2.5  ,0.3
590  ,4.833e+09   ,1.936  ,2.5  ,4.9
591  ,2.401e+09   ,1.7389  ,2.5  ,4.9
592  ,1.790e+09   ,1.5418  ,2.5  ,4.9
593  ,1.521e+09   ,1.3447  ,2.5  ,4.9
594  ,1.176e+09   ,1.1476  ,2.5  ,4.9
595  ,1.132e+09   ,0.95055  ,2.5  ,4.9
596  ,1.112e+09   ,0.75346  ,2.5  ,4.9
597  ,1.105e+09   ,0.55637  ,2.5  ,4.9
598  ,1.023e+09   ,0.35927  ,2.5  ,4.9
599  ,8.331e+08   ,0.16218  ,2.5  ,4.9
600  ,8.034e+08   ,-0.034907  ,2.5  ,4.9
601  ,7.521e+08   ,-0.232  ,2.5  ,4.9
602  ,1.101e+09   ,-0.42909  ,2.5  ,4.9
603  ,1.150e+09   ,-0.62618  ,2.5  ,4.9
604  ,1.091e+09   ,-0.82327  ,2.5  ,4.9
605  ,1.254e+09   ,-1.0204  ,2.5  ,4.9
606  ,1.141e+09   ,-1.2175  ,2.5  ,4.9
607  ,8.639e+08   ,-1.4145  ,2.5  ,4.9
608  ,6.721e+08   ,-1.6116  ,2.5  ,4.9
609  ,4.269e+08   ,-1.8087  ,2.5  ,4.9
610  ,2.871e+08   ,-2.0058  ,2.5  ,4.9
611  ,2.109e+08   ,-2.2029  ,2.5  ,4.9
612  ,6.074e+09   ,2.2665  ,2.5  ,4.7665
613  ,4.158e+09   ,2.4  ,2.5  ,4.436
614  ,2.612e+09   ,2.4  ,2.5  ,4.2389
615  ,1.836e+09   ,2.4  ,2.5  ,4.0418
616  ,1.382e+09   ,2.4  ,2.5  ,3.8447
617  ,1.158e+09   ,2.4  ,2.5  ,3.6476
618  ,1.055e+09   ,2.4  ,2.5  ,3.4505
619  ,1.122e+09   ,2.4  ,2.5  ,3.2535
620  ,1.096e+09   ,2.4  ,2.5  ,3.0564
621  ,8.996e+08   ,2.4  ,2.5  ,2.8593
622  ,8.227e+08   ,2.4  ,2.5  ,2.6622
623  ,7.814e+08   ,2.4  ,2.5  ,2.4651
624  ,7.861e+08   ,2.4  ,2.5  ,2.268
625  ,8.220e+08   ,2.4  ,2.5  ,2.0709
626  ,9.383e+08   ,2.4  ,2.5  ,1.8738
627  ,1.006e+09   ,2.4  ,2.5  ,1.6767
628  ,1.140e+09   ,2.4  ,2.5  ,1.4796
629  ,1.184e+09   ,2.4  ,2.5  ,1.2825
630  ,8.059e+08   ,2.4  ,2.5  ,1.0855
631  ,6.305e+08   ,2.4  ,2.5  ,0.88836
632  ,4.658e+08   ,2.4  ,2.5  ,0.69127
633  ,3.615e+08   ,2.4  ,2.5  ,0.49418
634  ,2.027e+08   ,2.4  ,2.5  ,0.29709
796  ,2.837e+08   ,-2.5  ,2.2  ,0.1
797  ,4.149e+08   ,-2.5  ,2  ,0.1
798  ,4.916e+08   ,-2.5  ,1.8  ,0.1
799  ,5.369e+08   ,-2.5  ,1.6  ,0.1
800  ,6.143e+08   ,-2.5  ,1.4  ,0.1
801  ,6.651e+08   ,-2.5  ,1.2  ,0.1
802  ,6.754e+08   ,-2.5  ,1  ,0.1
803  ,7.036e+08   ,-2.5  ,0.8  ,0.1
804  ,7.431e+08   ,-2.5  ,0.6  ,0.1
805  ,7.868e+08   ,-2.5  ,0.4  ,0.1
806  ,7.358e+08   ,-2.5  ,0.2  ,0.1
807  ,6.963e+08   ,-2.5  ,5.8879E-16  ,0.1
808  ,6.918e+08   ,-2.5  ,-0.2  ,0.1
809  ,6.786e+08   ,-2.5  ,-0.4  ,0.1
810  ,6.317e+08   ,-2.5  ,-0.6  ,0.1
811  ,5.382e+08   ,-2.5  ,-0.8  ,0.1
812  ,5.336e+08   ,-2.5  ,-1  ,0.1
813  ,4.310e+08   ,-2.5  ,-1.2  ,0.1
814  ,4.131e+08   ,-2.5  ,-1.4  ,0.1
815  ,3.550e+08   ,-2.5  ,-1.6  ,0.1
816  ,2.959e+08   ,-2.5  ,-1.8  ,0.1
817  ,2.737e+08   ,-2.5  ,-2  ,0.1
818  ,1.426e+08   ,-2.5  ,-2.2  ,0.1
819  ,1.056e+09   ,-2.5  ,-2.4  ,4.7
820  ,4.923e+08   ,-2.5  ,-2.4  ,4.5
821  ,5.490e+08   ,-2.5  ,-2.4  ,4.3
822  ,9.799e+08   ,-2.5  ,-2.4  ,4.1
823  ,1.142e+09   ,-2.5  ,-2.4  ,3.9
824  ,1.281e+09   ,-2.5  ,-2.4  ,3.7
825  ,1.576e+09   ,-2.5  ,-2.4  ,3.5
826  ,1.377e+09   ,-2.5  ,-2.4  ,3.3
827  ,1.319e+09   ,-2.5  ,-2.4  ,3.1
828  ,1.105e+09   ,-2.5  ,-2.4  ,2.9
829  ,8.973e+08   ,-2.5  ,-2.4  ,2.7
830  ,8.309e+08   ,-2.5  ,-2.4  ,2.5
831  ,6.197e+08   ,-2.5  ,-2.4  ,2.3
832  ,5.096e+08   ,-2.5  ,-2.4  ,2.1
833  ,3.690e+08   ,-2.5  ,-2.4  ,1.9
834  ,2.511e+08   ,-2.5  ,-2.4  ,1.7
835  ,1.038e+08   ,-2.5  ,-2.4  ,1.5
836  ,2.201e+08   ,-2.5  ,-2.4  ,1.3
837  ,3.728e+08   ,-2.5  ,-2.4  ,1.1
838  ,4.892e+08   ,-2.5  ,-2.4  ,0.9
839  ,5.585e+08   ,-2.5  ,-2.4  ,0.7
840  ,5.633e+08   ,-2.5  ,-2.4  ,0.5
841  ,3.860e+08   ,-2.5  ,-2.4  ,0.3
842  ,2.829e+08   ,-2.5  ,2.2  ,4.9
843  ,4.324e+08   ,-2.5  ,2  ,4.9
844  ,4.240e+08   ,-2.5  ,1.8  ,4.9
845  ,4.230e+08   ,-2.5  ,1.6  ,4.9
846  ,3.895e+08   ,-2.5  ,1.4  ,4.9
847  ,4.414e+08   ,-2.5  ,1.2  ,4.9
848  ,4.717e+08   ,-2.5  ,1  ,4.9
849  ,5.917e+08   ,-2.5  ,0.8  ,4.9
850  ,5.102e+08   ,-2.5  ,0.6  ,4.9
851  ,4.596e+08   ,-2.5  ,0.4  ,4.9
852  ,4.057e+08   ,-2.5  ,0.2  ,4.9
853  ,3.048e+08   ,-2.5  ,5.8879E-16  ,4.9
854  ,2.675e+08   ,-2.5  ,-0.2  ,4.9
855  ,2.033e+08   ,-2.5  ,-0.4  ,4.9
856  ,1.563e+08   ,-2.5  ,-0.6  ,4.9
857  ,1.365e+08   ,-2.5  ,-0.8  ,4.9
858  ,1.836e+08   ,-2.5  ,-1  ,4.9
859  ,2.404e+08   ,-2.5  ,-1.2  ,4.9
860  ,3.198e+08   ,-2.5  ,-1.4  ,4.9
861  ,3.395e+08   ,-2.5  ,-1.6  ,4.9
862  ,4.413e+08   ,-2.5  ,-1.8  ,4.9
863  ,5.971e+08   ,-2.5  ,-2  ,4.9
864  ,6.117e+08   ,-2.5  ,-2.2  ,4.9
865  ,2.455e+08   ,-2.5  ,2.4  ,4.7
866  ,3.709e+08   ,-2.5  ,2.4  ,4.5
867  ,4.246e+08   ,-2.5  ,2.4  ,4.3
868  ,3.284e+08   ,-2.5  ,2.4  ,4.1
869  ,4.325e+08   ,-2.5  ,2.4  ,3.9
870  ,4.362e+08   ,-2.5  ,2.4  ,3.7
871  ,5.286e+08   ,-2.5  ,2.4  ,3.5
872  ,7.313e+08   ,-2.5  ,2.4  ,3.3
873  ,6.143e+08   ,-2.5  ,2.4  ,3.1
874  ,3.753e+08   ,-2.5  ,2.4  ,2.9
875  ,3.753e+08   ,-2.5  ,2.4  ,2.7
876  ,3.824e+08   ,-2.5  ,2.4  ,2.5
877  ,4.103e+08   ,-2.5  ,2.4  ,2.3
878  ,4.725e+08   ,-2.5  ,2.4  ,2.1
879  ,4.373e+08   ,-2.5  ,2.4  ,1.9
880  ,5.600e+08   ,-2.5  ,2.4  ,1.7
881  ,7.074e+08   ,-2.5  ,2.4  ,1.5
882  ,7.790e+08   ,-2.5  ,2.4  ,1.3
883  ,7.443e+08   ,-2.5  ,2.4  ,1.1
884  ,7.259e+08   ,-2.5  ,2.4  ,0.9
885  ,6.468e+08   ,-2.5  ,2.4  ,0.7
886  ,5.985e+08   ,-2.5  ,2.4  ,0.5
887  ,4.245e+08   ,-2.5  ,2.4  ,0.3
1044  ,2.674e+08   ,-2.3  ,-2.5  ,0.44697
1045  ,3.977e+08   ,-2.3  ,-2.5  ,0.68705
1046  ,3.535e+08   ,-2.3  ,-2.5  ,0.92554
1047  ,2.302e+08   ,-2.3  ,-2.5  ,1.1682
1048  ,9.197e+07   ,-2.3  ,-2.5  ,1.4148
1049  ,1.411e+08   ,-2.3  ,-2.5  ,1.6581
1050  ,1.747e+08   ,-2.3  ,-2.5  ,1.8967
1051  ,1.453e+08   ,-2.3  ,-2.5  ,2.1357
1052  ,1.945e+08   ,-2.3  ,-2.5  ,2.3794
1053  ,2.857e+08   ,-2.3  ,-2.5  ,2.6206
1054  ,4.353e+08   ,-2.3  ,-2.5  ,2.8643
1055  ,5.776e+08   ,-2.3  ,-2.5  ,3.1033
1056  ,8.139e+08   ,-2.3  ,-2.5  ,3.342
1057  ,8.142e+08   ,-2.3  ,-2.5  ,3.5852
1058  ,6.035e+08   ,-2.3  ,-2.5  ,3.8318
1059  ,5.585e+08   ,-2.3  ,-2.5  ,4.0745
1060  ,3.344e+08   ,-2.3  ,-2.5  ,4.3129
1061  ,6.351e+08   ,-2.3  ,-2.5  ,4.553
1062  ,1.628e+09   ,-2.053  ,-2.5  ,4.8
1063  ,9.490e+08   ,-1.8129  ,-2.5  ,4.8
1064  ,5.025e+08   ,-1.5745  ,-2.5  ,4.8
1065  ,1.508e+08   ,-1.3318  ,-2.5  ,4.8
1066  ,1.686e+08   ,-1.0852  ,-2.5  ,4.8
1067  ,1.272e+08   ,-0.84195  ,-2.5  ,4.8
1068  ,9.635e+07   ,-0.60329  ,-2.5  ,4.8
1069  ,1.839e+08   ,-0.3643  ,-2.5  ,4.8
1070  ,3.179e+08   ,-0.12055  ,-2.5  ,4.8
1071  ,3.239e+08   ,0.12056  ,-2.5  ,4.8
1072  ,5.127e+08   ,0.3643  ,-2.5  ,4.8
1073  ,6.681e+08   ,0.6033  ,-2.5  ,4.8
1074  ,6.147e+08   ,0.84195  ,-2.5  ,4.8
1075  ,4.474e+08   ,1.0852  ,-2.5  ,4.8
1076  ,3.651e+08   ,1.3318  ,-2.5  ,4.8
1077  ,5.596e+08   ,1.5745  ,-2.5  ,4.8
1078  ,1.233e+09   ,1.8129  ,-2.5  ,4.8
1079  ,2.479e+09   ,2.053  ,-2.5  ,4.8
1080  ,2.500e+09   ,2.3  ,-2.5  ,4.553
1081  ,1.263e+09   ,2.3  ,-2.5  ,4.3129
1082  ,5.792e+08   ,2.3  ,-2.5  ,4.0745
1083  ,2.995e+08   ,2.3  ,-2.5  ,3.8318
1084  ,4.282e+08   ,2.3  ,-2.5  ,3.5852
1085  ,5.937e+08   ,2.3  ,-2.5  ,3.3419
1086  ,6.216e+08   ,2.3  ,-2.5  ,3.1033
1087  ,4.844e+08   ,2.3  ,-2.5  ,2.8643
1088  ,4.163e+08   ,2.3  ,-2.5  ,2.6206
1089  ,3.994e+08   ,2.3  ,-2.5  ,2.3794
1090  ,2.839e+08   ,2.3  ,-2.5  ,2.1357
1091  ,1.867e+08   ,2.3  ,-2.5  ,1.8967
1092  ,1.223e+08   ,2.3  ,-2.5  ,1.658
1093  ,8.419e+07   ,2.3  ,-2.5  ,1.4148
1094  ,1.478e+08   ,2.3  ,-2.5  ,1.1682
1095  ,4.315e+08   ,2.3  ,-2.5  ,0.92554
1096  ,9.643e+08   ,2.3  ,-2.5  ,0.68705
1097  ,1.504e+09   ,2.3  ,-2.5  ,0.44697
1098  ,3.025e+08   ,-2.053  ,-2.5  ,0.2
1099  ,4.241e+08   ,-1.8129  ,-2.5  ,0.2
1100  ,4.826e+08   ,-1.5745  ,-2.5  ,0.2
1101  ,3.871e+08   ,-1.3318  ,-2.5  ,0.2
1102  ,1.612e+08   ,-1.0852  ,-2.5  ,0.2
1103  ,1.655e+08   ,-0.84195  ,-2.5  ,0.2
1104  ,2.082e+08   ,-0.60329  ,-2.5  ,0.2
1105  ,1.652e+08   ,-0.3643  ,-2.5  ,0.2
1106  ,1.385e+08   ,-0.12055  ,-2.5  ,0.2
1107  ,2.440e+08   ,0.12056  ,-2.5  ,0.2
1108  ,4.484e+08   ,0.3643  ,-2.5  ,0.2
1109  ,6.055e+08   ,0.6033  ,-2.5  ,0.2
1110  ,7.815e+08   ,0.84195  ,-2.5  ,0.2
1111  ,7.857e+08   ,1.0852  ,-2.5  ,0.2
1112  ,6.202e+08   ,1.3318  ,-2.5  ,0.2
1113  ,5.587e+08   ,1.5745  ,-2.5  ,0.2
1114  ,3.753e+08   ,1.8129  ,-2.5  ,0.2
1115  ,8.305e+08   ,2.053  ,-2.5  ,0.2
1116  ,5.427e+08   ,-2.2  ,-2.5  ,4.9
1117  ,4.435e+08   ,-2  ,-2.5  ,4.9
1118  ,5.503e+08   ,-1.8  ,-2.5  ,4.9
1119  ,5.033e+08   ,-1.6  ,-2.5  ,4.9
1120  ,3.510e+08   ,-1.4  ,-2.5  ,4.9
1121  ,1.751e+08   ,-1.2  ,-2.5  ,4.9
1122  ,6.451e+07   ,-1  ,-2.5  ,4.9
1123  ,1.581e+08   ,-0.8  ,-2.5  ,4.9
1124  ,2.428e+08   ,-0.6  ,-2.5  ,4.9
1125  ,2.998e+08   ,-0.4  ,-2.5  ,4.9
1126  ,4.221e+08   ,-0.2  ,-2.5  ,4.9
1127  ,5.120e+08   ,-1.7664E-15  ,-2.5  ,4.9
1128  ,6.501e+08   ,0.2  ,-2.5  ,4.9
1129  ,7.722e+08   ,0.4  ,-2.5  ,4.9
1130  ,6.063e+08   ,0.6  ,-2.5  ,4.9
1131  ,6.330e+08   ,0.8  ,-2.5  ,4.9
1132  ,7.092e+08   ,1  ,-2.5  ,4.9
1133  ,9.086e+08   ,1.2  ,-2.5  ,4.9
1134  ,7.913e+08   ,1.4  ,-2.5  ,4.9
1135  ,8.006e+08   ,1.6  ,-2.5  ,4.9
1136  ,7.872e+08   ,1.8  ,-2.5  ,4.9
1137  ,6.868e+08   ,2  ,-2.5  ,4.9
1138  ,6.557e+08   ,2.2  ,-2.5  ,4.9
1139  ,6.790e+08   ,-2.4  ,-2.5  ,4.7
1140  ,6.197e+08   ,-2.4  ,-2.5  ,4.5
1141  ,5.029e+08   ,-2.4  ,-2.5  ,4.3
1142  ,3.214e+08   ,-2.4  ,-2.5  ,4.1
1143  ,3.727e+08   ,-2.4  ,-2.5  ,3.9
1144  ,5.352e+08   ,-2.4  ,-2.5  ,3.7
1145  ,3.658e+08   ,-2.4  ,-2.5  ,3.5
1146  ,4.727e+08   ,-2.4  ,-2.5  ,3.3
1147  ,3.392e+08   ,-2.4  ,-2.5  ,3.1
1148  ,4.326e+08   ,-2.4  ,-2.5  ,2.9
1149  ,4.443e+08   ,-2.4  ,-2.5  ,2.7
1150  ,3.710e+08   ,-2.4  ,-2.5  ,2.5
1151  ,3.659e+08   ,-2.4  ,-2.5  ,2.3
1152  ,2.474e+08   ,-2.4  ,-2.5  ,2.1
1153  ,1.933e+08   ,-2.4  ,-2.5  ,1.9
1154  ,1.730e+08   ,-2.4  ,-2.5  ,1.7
1155  ,1.567e+08   ,-2.4  ,-2.5  ,1.5
1156  ,1.483e+08   ,-2.4  ,-2.5  ,1.3
1157  ,1.091e+08   ,-2.4  ,-2.5  ,1.1
1158  ,1.996e+08   ,-2.4  ,-2.5  ,0.9
1159  ,2.353e+08   ,-2.4  ,-2.5  ,0.7
1160  ,2.442e+08   ,-2.4  ,-2.5  ,0.5
1161  ,3.538e+08   ,-2.4  ,-2.5  ,0.3
1162  ,3.235e+08   ,-2.2  ,-2.5  ,0.1
1163  ,2.554e+08   ,-2  ,-2.5  ,0.1
1164  ,2.668e+08   ,-1.8  ,-2.5  ,0.1
1165  ,2.481e+08   ,-1.6  ,-2.5  ,0.1
1166  ,9.200e+07   ,-1.4  ,-2.5  ,0.1
1167  ,1.389e+08   ,-1.2  ,-2.5  ,0.1
1168  ,1.827e+08   ,-1  ,-2.5  ,0.1
1169  ,1.960e+08   ,-0.8  ,-2.5  ,0.1
1170  ,1.971e+08   ,-0.6  ,-2.5  ,0.1
1171  ,2.485e+08   ,-0.4  ,-2.5  ,0.1
1172  ,3.141e+08   ,-0.2  ,-2.5  ,0.1
1173  ,3.566e+08   ,-1.7664E-15  ,-2.5  ,0.1
1174  ,3.932e+08   ,0.2  ,-2.5  ,0.1
1175  ,4.193e+08   ,0.4  ,-2.5  ,0.1
1176  ,4.851e+08   ,0.6  ,-2.5  ,0.1
1177  ,3.194e+08   ,0.8  ,-2.5  ,0.1
1178  ,4.353e+08   ,1  ,-2.5  ,0.1
1179  ,4.724e+08   ,1.2  ,-2.5  ,0.1
1180  ,3.940e+08   ,1.4  ,-2.5  ,0.1
1181  ,4.215e+08   ,1.6  ,-2.5  ,0.1
1182  ,5.912e+08   ,1.8  ,-2.5  ,0.1
1183  ,6.945e+08   ,2  ,-2.5  ,0.1
1184  ,6.336e+08   ,2.2  ,-2.5  ,0.1
1185  ,7.231e+08   ,2.4  ,-2.5  ,4.7
1186  ,6.774e+08   ,2.4  ,-2.5  ,4.5
1187  ,7.861e+08   ,2.4  ,-2.5  ,4.3
1188  ,8.556e+08   ,2.4  ,-2.5  ,4.1
1189  ,7.730e+08   ,2.4  ,-2.5  ,3.9
1190  ,7.407e+08   ,2.4  ,-2.5  ,3.7
1191  ,5.838e+08   ,2.4  ,-2.5  ,3.5
1192  ,5.981e+08   ,2.4  ,-2.5  ,3.3
1193  ,6.020e+08   ,2.4  ,-2.5  ,3.1
1194  ,6.426e+08   ,2.4  ,-2.5  ,2.9
1195  ,5.816e+08   ,2.4  ,-2.5  ,2.7
1196  ,5.719e+08   ,2.4  ,-2.5  ,2.5
1197  ,5.444e+08   ,2.4  ,-2.5  ,2.3
1198  ,3.987e+08   ,2.4  ,-2.5  ,2.1
1199  ,2.337e+08   ,2.4  ,-2.5  ,1.9
1200  ,7.614e+07   ,2.4  ,-2.5  ,1.7
1201  ,9.281e+07   ,2.4  ,-2.5  ,1.5
1202  ,1.753e+08   ,2.4  ,-2.5  ,1.3
1203  ,2.991e+08   ,2.4  ,-2.5  ,1.1
1204  ,5.265e+08   ,2.4  ,-2.5  ,0.9
1205  ,5.253e+08   ,2.4  ,-2.5  ,0.7
1206  ,4.595e+08   ,2.4  ,-2.5  ,0.5
1207  ,5.031e+08   ,2.4  ,-2.5  ,0.3
1208  ,6.166e+08   ,2.4  ,-2.2  ,0
1209  ,6.231e+08   ,2.4  ,-2  ,0
1210  ,4.512e+08   ,2.4  ,-1.8  ,0
1211  ,3.556e+08   ,2.4  ,-1.6  ,0
1212  ,3.291e+08   ,2.4  ,-1.4  ,0
1213  ,2.513e+08   ,2.4  ,-1.2  ,0
1214  ,2.313e+08   ,2.4  ,-1  ,0
1215  ,2.009e+08   ,2.4  ,-0.8  ,0
1216  ,1.544e+08   ,2.4  ,-0.6  ,0
1217  ,1.732e+08   ,2.4  ,-0.4  ,0
1218  ,1.859e+08   ,2.4  ,-0.2  ,0
1219  ,2.090e+08   ,2.4  ,-1.7664E-15  ,0
1220  ,2.734e+08   ,2.4  ,0.2  ,0
1221  ,3.583e+08   ,2.4  ,0.4  ,0
1222  ,5.244e+08   ,2.4  ,0.6  ,0
1223  ,6.141e+08   ,2.4  ,0.8  ,0
1224  ,4.925e+08   ,2.4  ,1  ,0
1225  ,4.306e+08   ,2.4  ,1.2  ,0
1226  ,4.105e+08   ,2.4  ,1.4  ,0
1227  ,3.825e+08   ,2.4  ,1.6  ,0
1228  ,4.786e+08   ,2.4  ,1.8  ,0
1229  ,4.371e+08   ,2.4  ,2  ,0
1230  ,2.793e+08   ,2.4  ,2.2  ,0
1231  ,3.400e+08   ,-2.2  ,-2.4  ,0
1232  ,4.692e+08   ,-2  ,-2.4  ,0
1233  ,4.998e+08   ,-1.8  ,-2.4  ,0
1234  ,4.612e+08   ,-1.6  ,-2.4  ,0
1235  ,3.342e+08   ,-1.4  ,-2.4  ,0
1236  ,1.936e+08   ,-1.2  ,-2.4  ,0
1237  ,1.496e+08   ,-1  ,-2.4  ,0
1238  ,3.005e+08   ,-0.8  ,-2.4  ,0
1239  ,4.210e+08   ,-0.6  ,-2.4  ,0
1240  ,5.434e+08   ,-0.4  ,-2.4  ,0
1241  ,6.417e+08   ,-0.2  ,-2.4  ,0
1242  ,7.304e+08   ,5.8879E-16  ,-2.4  ,0
1243  ,8.795e+08   ,0.2  ,-2.4  ,0
1244  ,1.078e+09   ,0.4  ,-2.4  ,0
1245  ,1.187e+09   ,0.6  ,-2.4  ,0
1246  ,1.482e+09   ,0.8  ,-2.4  ,0
1247  ,1.492e+09   ,1  ,-2.4  ,0
1248  ,1.408e+09   ,1.2  ,-2.4  ,0
1249  ,1.196e+09   ,1.4  ,-2.4  ,0
1250  ,9.958e+08   ,1.6  ,-2.4  ,0
1251  ,6.426e+08   ,1.8  ,-2.4  ,0
1252  ,5.410e+08   ,2  ,-2.4  ,0
1253  ,1.216e+09   ,2.2  ,-2.4  ,0
1254  ,2.909e+08   ,-2.4  ,2.2  ,0
1255  ,4.228e+08   ,-2.4  ,2  ,0
1256  ,4.763e+08   ,-2.4  ,1.8  ,0
1257  ,5.361e+08   ,-2.4  ,1.6  ,0
1258  ,6.228e+08   ,-2.4  ,1.4  ,0
1259  ,6.907e+08   ,-2.4  ,1.2  ,0
1260  ,6.955e+08   ,-2.4  ,1  ,0
1261  ,7.270e+08   ,-2.4  ,0.8  ,0
1262  ,7.131e+08   ,-2.4  ,0.6  ,0
1263  ,7.121e+08   ,-2.4  ,0.4  ,0
1264  ,7.105e+08   ,-2.4  ,0.2  ,0
1265  ,7.443e+08   ,-2.4  ,5.8879E-16  ,0
1266  ,7.851e+08   ,-2.4  ,-0.2  ,0
1267  ,6.670e+08   ,-2.4  ,-0.4  ,0
1268  ,6.156e+08   ,-2.4  ,-0.6  ,0
1269  ,5.120e+08   ,-2.4  ,-0.8  ,0
1270  ,5.310e+08   ,-2.4  ,-1  ,0
1271  ,4.922e+08   ,-2.4  ,-1.2  ,0
1272  ,4.113e+08   ,-2.4  ,-1.4  ,0
1273  ,4.026e+08   ,-2.4  ,-1.6  ,0
1274  ,3.230e+08   ,-2.4  ,-1.8  ,0
1275  ,2.774e+08   ,-2.4  ,-2  ,0
1276  ,1.171e+08   ,-2.4  ,-2.2  ,0
1277  ,2.197e+08   ,2.2  ,2.4  ,0
1278  ,3.689e+08   ,2  ,2.4  ,0
1279  ,4.147e+08   ,1.8  ,2.4  ,0
1280  ,3.310e+08   ,1.6  ,2.4  ,0
1281  ,2.863e+08   ,1.4  ,2.4  ,0
1282  ,4.342e+08   ,1.2  ,2.4  ,0
1283  ,5.538e+08   ,1  ,2.4  ,0
1284  ,7.064e+08   ,0.8  ,2.4  ,0
1285  ,6.019e+08   ,0.6  ,2.4  ,0
1286  ,4.325e+08   ,0.4  ,2.4  ,0
1287  ,4.044e+08   ,0.2  ,2.4  ,0
1288  ,2.804e+08   ,5.8879E-16  ,2.4  ,0
1289  ,3.613e+08   ,-0.2  ,2.4  ,0
1290  ,4.091e+08   ,-0.4  ,2.4  ,0
1291  ,4.409e+08   ,-0.6  ,2.4  ,0
1292  ,6.409e+08   ,-0.8  ,2.4  ,0
1293  ,7.192e+08   ,-1  ,2.4  ,0
1294  ,7.396e+08   ,-1.2  ,2.4  ,0
1295  ,7.044e+08   ,-1.4  ,2.4  ,0
1296  ,6.611e+08   ,-1.6  ,2.4  ,0
1297  ,6.073e+08   ,-1.8  ,2.4  ,0
1298  ,5.233e+08   ,-2  ,2.4  ,0
1299  ,4.246e+08   ,-2.2  ,2.4  ,0
1460  ,7.278e+09   ,2.3243  ,2.3243  ,4.9577
1461  ,7.142e+09   ,2.4577  ,2.3243  ,4.8243
1462  ,7.147e+09   ,2.3243  ,2.4577  ,4.8243
1463  ,5.661e+08   ,-2.3  ,-2.1759  ,4.8
1464  ,4.768e+08   ,-2.3  ,-1.7631  ,4.8
1465  ,6.350e+08   ,-2.3  ,-1.1827  ,4.8
1466  ,9.745e+08   ,-2.3  ,-0.34986  ,4.8
1467  ,1.078e+09   ,-2.3  ,0.80545  ,4.8
1468  ,9.994e+08   ,-0.81337  ,2.3  ,4.8
1469  ,1.551e+09   ,0.67326  ,2.3  ,4.8
1470  ,1.218e+09   ,2.3  ,-2.1824  ,4.8
1471  ,8.220e+08   ,2.3  ,-1.7784  ,4.8
1472  ,9.125e+08   ,2.3  ,-1.2138  ,4.8
1473  ,9.867e+08   ,2.3  ,-0.40752  ,4.8
1474  ,1.241e+09   ,2.3  ,0.70532  ,4.8
1516  ,9.856e+08   ,2.3  ,2.3  ,1.6866
1517  ,1.521e+09   ,2.3  ,2.3  ,3.1733
1518  ,5.804e+08   ,2.3  ,-2.1759  ,0.2
1519  ,4.797e+08   ,2.3  ,-1.7631  ,0.2
1520  ,5.789e+08   ,2.3  ,-1.1827  ,0.2
1521  ,8.882e+08   ,2.3  ,-0.34986  ,0.2
1522  ,1.106e+09   ,2.3  ,0.80545  ,0.2
1564  ,7.068e+08   ,-0.76667  ,2.3  ,0.2
1565  ,1.144e+09   ,0.76667  ,2.3  ,0.2
1566  ,6.826e+08   ,-2.3  ,2.3  ,1.7333
1567  ,1.200e+09   ,-2.3  ,2.3  ,3.2667
1574  ,1.630e+08   ,-2.3  ,-2.1759  ,0.2
1575  ,1.684e+08   ,-2.3  ,-1.7631  ,0.2
1576  ,1.795e+08   ,-2.3  ,-1.1827  ,0.2
1577  ,3.048e+08   ,-2.3  ,-0.34986  ,0.2
1578  ,2.095e+08   ,-2.3  ,0.80545  ,0.2
1777  ,1.160e+09   ,-0.52764  ,2.5  ,4.9
1801  ,5.824e+08   ,-2.3  ,1.5527  ,0.2
1825  ,4.425e+08   ,-1.5333  ,2.3  ,0.2
1841  ,8.341e+08   ,0.063638  ,2.5  ,4.9
1876  ,4.187e+08   ,-0.5  ,2.4  ,0
1894  ,9.922e+08   ,2.3  ,1.5527  ,0.2
1907  ,3.472e+08   ,2.1  ,2.5  ,0.1
1928  ,3.751e+08   ,1.9  ,2.4  ,0
1974  ,4.170e+08   ,2.4  ,1.1  ,0
1981  ,4.278e+08   ,2.4  ,2.5  ,0.59273
1987  ,4.001e+08   ,-2.5  ,2.4  ,4
2004  ,3.534e+08   ,-2.4  ,2.5  ,4.6
2009  ,3.889e+08   ,2.4  ,1.3  ,0
2020  ,4.905e+08   ,2.5  ,1.1  ,0.1
2035  ,6.124e+08   ,-2.3  ,-0.76628  ,0.2
2070  ,2.266e+09   ,1.6404  ,2.4  ,5
2081  ,8.714e+08   ,2.4  ,2.5  ,1.9724
2095  ,5.855e+08   ,2.4  ,2.5  ,0.78982
2138  ,6.957e+08   ,-2.4  ,-0.1  ,0
2146  ,1.029e+09   ,-0.92182  ,2.4  ,5
2174  ,9.344e+08   ,2.4  ,2.5  ,1.184
2190  ,7.316e+08   ,2.5  ,2.4  ,0.98691
2203  ,1.184e+09   ,2.5  ,-0.13345  ,4.9
2232  ,1.665e+09   ,2.3  ,0.1489  ,4.8
2242  ,1.017e+09   ,2.4  ,2.5  ,2.9578
2293  ,8.022e+08   ,-2.5  ,0.5  ,0.1
2311  ,1.791e+09   ,2.3  ,2.3  ,2.4299
2313  ,6.736e+08   ,2.5  ,2.4  ,0.78982
2329  ,7.966e+08   ,2.4  ,2.5  ,2.1695
2355  ,3.845e+08   ,-2.4  ,2.5  ,4.4
2380  ,3.692e+08   ,-2.5  ,-1.5  ,0.1
2383  ,1.039e+09   ,0.45782  ,2.5  ,4.9
2408  ,1.288e+09   ,2.3  ,-1.4961  ,4.8
2445  ,1.098e+09   ,2.5  ,-1.5131  ,4.9
2484  ,1.515e+08   ,-2.5  ,-2.4  ,1.6
2495  ,4.026e+08   ,-2.4  ,1.7  ,5
2508  ,3.054e+08   ,2.4  ,0.3  ,0
2514  ,1.248e+09   ,2.3  ,0.2278  ,0.2
2570  ,3.842e+08   ,-2.4  ,1.5  ,5
2580  ,2.186e+09   ,1.6404  ,2.5  ,4.9
2603  ,1.246e+09   ,-1.1189  ,2.5  ,4.9
2695  ,7.800e+08   ,2.3  ,2.3  ,0.94331
2705  ,1.222e+09   ,2.4  ,2.5  ,1.3811
2714  ,8.181e+08   ,2.5  ,0.45782  ,4.9
2734  ,2.106e+08   ,2.4  ,-0.9  ,0
2775  ,2.390e+08   ,2.5  ,-0.1  ,0.1
2779  ,1.895e+08   ,2.4  ,-0.1  ,0
2801  ,2.775e+09   ,1.4166  ,2.3  ,4.8
2814  ,1.620e+09   ,1.4433  ,2.5  ,4.9
2863  ,6.662e+08   ,-2.4  ,2.5  ,0.6
2884  ,7.549e+08   ,-2.4  ,2.5  ,0.8
2886  ,7.938e+08   ,-2.4  ,2.5  ,1.2
2967  ,4.121e+08   ,2.4  ,1.7  ,0
2973  ,4.195e+08   ,2.5  ,1.5  ,0.1
2987  ,4.640e+08   ,-0.3  ,2.5  ,0.1
3008  ,4.341e+08   ,-2.3  ,2.3  ,0.96667
3012  ,3.734e+08   ,-2.5  ,2.4  ,2.6
3021  ,3.670e+08   ,-2.5  ,2.4  ,2.8
3025  ,3.912e+08   ,-2.5  ,2.4  ,2.4
3030  ,4.032e+08   ,-2.4  ,2.5  ,2.4
3033  ,4.454e+08   ,-2.4  ,2.5  ,2.2
3047  ,7.642e+08   ,2.4  ,2.5  ,2.3665
3052  ,8.882e+08   ,2.5  ,2.4  ,2.5636
3061  ,7.807e+08   ,2.4  ,2.5  ,2.5636
3081  ,4.102e+08   ,-2.4  ,1.3  ,5
3088  ,2.725e+08   ,-1.9073  ,2.4  ,5
3099  ,4.200e+08   ,-2.4  ,1.9  ,5
3107  ,3.631e+08   ,-2.4  ,2.5  ,3.8
3139  ,6.708e+08   ,-1.5131  ,2.4  ,5
3145  ,7.644e+08   ,-1.5131  ,2.5  ,4.9
3148  ,5.565e+08   ,-1.7102  ,2.5  ,4.9
3168  ,5.667e+08   ,-2.4  ,1.5  ,0
3188  ,4.453e+08   ,-2.5  ,-2.4  ,1
3202  ,8.412e+08   ,0.26073  ,2.5  ,4.9
3212  ,2.034e+09   ,2.5  ,1.6404  ,4.9
3247  ,2.987e+09   ,2.5  ,1.8375  ,4.9
3265  ,2.720e+09   ,2.3  ,1.4326  ,4.8
3271  ,5.884e+09   ,2.2299  ,2.2299  ,4.8
3284  ,1.476e+09   ,2.4  ,1.4433  ,5
3291  ,1.499e+09   ,2.5  ,1.4433  ,4.9
3296  ,8.589e+08   ,-2.3  ,-0.76628  ,4.8
3303  ,2.077e+08   ,-2.4  ,-0.9  ,5
3311  ,1.808e+08   ,-2.4  ,-0.7  ,5
3315  ,4.042e+08   ,1.9  ,2.5  ,0.1
3336  ,7.023e+08   ,-2.4  ,0.3  ,0
3340  ,7.017e+08   ,-2.5  ,0.1  ,0.1
3344  ,7.156e+08   ,-2.4  ,0.1  ,0
3356  ,3.647e+08   ,-0.3  ,2.4  ,0
3361  ,8.380e+08   ,-0.33054  ,2.5  ,4.9
3364  ,7.715e+08   ,-0.13345  ,2.5  ,4.9
3383  ,1.109e+09   ,2.4  ,2.5  ,3.5491
3402  ,5.019e+09   ,2.4  ,2.5  ,4.5345
3421  ,9.889e+08   ,-1.316  ,2.5  ,4.9
3439  ,1.528e+09   ,2.5  ,2.4  ,3.9433
3447  ,1.604e+09   ,2.4  ,2.5  ,3.9433
3451  ,1.264e+09   ,2.4  ,2.5  ,3.7462
3468  ,1.651e+09   ,1.4433  ,2.4  ,5
3480  ,1.169e+09   ,1.0491  ,2.4  ,5
3519  ,3.427e+08   ,1.5  ,2.4  ,0
3527  ,6.185e+08   ,2.3  ,-1.4729  ,0.2
3550  ,6.247e+08   ,-1.7  ,2.4  ,0
3554  ,7.018e+08   ,-1.7  ,2.5  ,0.1
3558  ,6.891e+08   ,-1.5  ,2.4  ,0
3562  ,7.270e+08   ,-1.5  ,2.5  ,0.1
3574  ,3.425e+08   ,-2.4  ,2.1  ,5
3581  ,5.004e+08   ,-2.5  ,1.7  ,0.1
3583  ,4.538e+08   ,-2.5  ,1.9  ,0.1
3584  ,3.248e+08   ,-1.9073  ,2.5  ,4.9
3591  ,3.173e+08   ,2.5  ,0.3  ,0.1
3595  ,2.274e+08   ,2.5  ,0.1  ,0.1
3603  ,1.177e+10   ,2.4577  ,2.391  ,4.7576
3663  ,3.638e+08   ,-1.933  ,-2.5  ,0.2
3669  ,1.956e+08   ,-2.1765  ,-2.5  ,0.2
3672  ,1.481e+08   ,-2.3  ,-2.3379  ,0.2
3682  ,4.590e+08   ,-1.9  ,-2.4  ,0
3700  ,4.592e+08   ,2.3  ,-2.5  ,2.7424
3712  ,3.315e+08   ,-2.1  ,-2.5  ,4.9
3715  ,4.237e+08   ,-1.9  ,-2.5  ,4.9
3740  ,2.484e+08   ,-1.3  ,-2.4  ,5
3746  ,1.380e+08   ,-1.2085  ,-2.5  ,4.8
3755  ,4.550e+08   ,-1.5  ,-2.4  ,5
3760  ,4.946e+08   ,-1.7  ,-2.5  ,4.9
3786  ,1.005e+09   ,2.4  ,2.5  ,1.5782
3813  ,9.055e+08   ,0.26073  ,2.4  ,5
3858  ,8.487e+07   ,-0.9  ,-2.4  ,5
3863  ,5.207e+08   ,-2.5  ,0.9  ,4.9
3875  ,1.016e+09   ,-1.9  ,-2.4  ,5
3885  ,1.039e+09   ,2.4  ,-0.72473  ,5
3910  ,3.750e+08   ,-2.4  ,-2.5  ,3.4
3959  ,2.277e+09   ,2.5  ,2.4  ,4.1404
3969  ,9.861e+08   ,2.5  ,1.0491  ,4.9
3992  ,1.076e+10   ,2.391  ,2.2576  ,4.9577
3993  ,9.778e+09   ,2.4577  ,2.2576  ,4.891
4016  ,1.286e+08   ,-2.3015  ,2.5  ,4.9
4018  ,1.476e+08   ,-2.4  ,2.5  ,4.8
4021  ,1.302e+09   ,1.2462  ,2.4  ,5
4042  ,2.461e+08   ,2.4  ,-1.1  ,0
4046  ,6.711e+08   ,-0.9  ,2.4  ,0
4055  ,7.381e+08   ,1.7  ,-2.5  ,4.9
4087  ,4.028e+08   ,1.7  ,2.4  ,0
4114  ,9.902e+08   ,2.5  ,-0.33054  ,4.9
4120  ,1.247e+08   ,2.4  ,-2.5  ,1.8
4125  ,5.753e+08   ,2.4  ,2.5  ,0.98691
4144  ,3.415e+09   ,2.4  ,2.5  ,4.3375
4161  ,4.063e+08   ,-2.4  ,0.3  ,5
4201  ,3.999e+08   ,1.933  ,-2.5  ,0.2
4225  ,1.690e+08   ,-2.3  ,-2.4  ,0
4230  ,3.687e+08   ,-2.3  ,-2.5  ,0.56701
4269  ,1.372e+08   ,-0.9  ,-2.5  ,4.9
4277  ,1.781e+08   ,-1.1  ,-2.4  ,5
4288  ,1.490e+09   ,-0.070055  ,2.3  ,4.8
4328  ,7.325e+08   ,-2.5  ,-2.4  ,4.2
4336  ,4.212e+08   ,-2.5  ,-2.4  ,4.4
4342  ,7.111e+08   ,-2.5  ,-2.4  ,4.6
4348  ,1.115e+09   ,-2.4  ,-2.4707  ,4.9707
4352  ,4.420e+08   ,-2.3  ,-2.5  ,4.9
4354  ,1.865e+09   ,-2.1765  ,-2.5  ,4.8
4355  ,8.888e+08   ,-2.3  ,-2.3379  ,4.8
4362  ,3.840e+08   ,2.5  ,2.4  ,0.59273
4364  ,8.582e+08   ,2.5  ,-2.4  ,2.4
4366  ,6.258e+08   ,2.5  ,-2.4  ,2.2
4372  ,4.793e+08   ,2.4  ,-2.5  ,2.2
4385  ,2.945e+08   ,-2.5  ,-1.9  ,0.1
4399  ,3.419e+08   ,-2.5  ,2.1  ,0.1
4407  ,3.441e+08   ,-0.7  ,-2.4  ,0
4436  ,6.902e+08   ,-2.5  ,-0.1  ,0.1
4462  ,8.069e+08   ,-2.3  ,2.3  ,4.0333
4491  ,8.941e+08   ,2.5  ,-0.52764  ,4.9
4494  ,1.903e+08   ,2.5  ,-2.4  ,1.4
4503  ,1.112e+08   ,2.4  ,-2.5  ,1.4
4508  ,2.118e+08   ,2.4  ,-2.5  ,1.2
4515  ,8.952e+07   ,2.5  ,-2.4  ,1.8
4517  ,7.621e+07   ,2.4  ,-2.5  ,1.6
4522  ,1.298e+09   ,0.7  ,-2.4  ,0
4538  ,9.759e+08   ,-1.1189  ,2.4  ,5
4546  ,2.099e+09   ,2.4  ,2.5  ,4.1404
4559  ,8.087e+08   ,1.7  ,-2.4  ,0
4590  ,1.128e+09   ,0.5  ,-2.4  ,0
4631  ,5.553e+08   ,2.4  ,-2.5  ,2.6
4634  ,1.236e+09   ,2.5  ,-2.4  ,2.8
4657  ,4.109e+08   ,-2.5  ,-2.4  ,2
4660  ,3.120e+08   ,-2.5  ,-2.4  ,1.8
4664  ,5.726e+08   ,-0.3  ,-2.4  ,0
4675  ,5.691e+08   ,-2.4  ,-2.5  ,4.8
4681  ,6.746e+08   ,-2.5  ,-0.3  ,0.1
4684  ,4.708e+08   ,1.7  ,-2.4  ,5
4703  ,5.751e+08   ,-2.4  ,0.7  ,5
4707  ,4.158e+08   ,-2.5  ,0.3  ,4.9
4714  ,8.608e+08   ,2.4  ,-0.33054  ,5
4723  ,1.092e+09   ,-1.5567  ,2.3  ,4.8
4739  ,2.360e+08   ,-2.1044  ,2.5  ,4.9
4763  ,5.764e+08   ,-1.9  ,2.4  ,0
4780  ,1.459e+08   ,-2.3  ,-1.9695  ,0.2
4782  ,7.766e+07   ,-2.4707  ,-2.4  ,0.029289
4784  ,2.906e+08   ,-2.4  ,-1.9  ,0
4791  ,1.600e+08   ,-2.4  ,-2.5  ,1.8
4796  ,1.743e+09   ,2.4707  ,-2.4707  ,4.9
4799  ,2.141e+09   ,2.5  ,-2.4  ,4.8
4806  ,1.232e+09   ,2.3  ,-2.5  ,4.9
4809  ,2.797e+09   ,2.3  ,2.3  ,3.9166
4833  ,5.703e+08   ,-2.4  ,2.5  ,0.4
4841  ,4.292e+08   ,-2.4  ,2.5  ,2.6
4846  ,3.505e+08   ,-2.5  ,2.1  ,4.9
4848  ,1.901e+08   ,-2.5  ,2.3  ,4.9
4849  ,1.788e+08   ,-2.5  ,2.4  ,4.8
4893  ,3.981e+08   ,-2.4  ,2.5  ,4.2
4897  ,4.129e+09   ,2.3333  ,2.1998  ,5
4900  ,1.247e+10   ,2.391  ,2.4577  ,4.7576
4908  ,1.114e+10   ,2.2576  ,2.391  ,4.9577
4911  ,1.240e+10   ,2.2576  ,2.4577  ,4.891
4926  ,7.288e+08   ,-2.5  ,2.4  ,1
4932  ,7.670e+08   ,-2.4  ,2.5  ,1.6
4937  ,8.597e+08   ,-1.1  ,2.5  ,0.1
4939  ,5.782e+09   ,2.3  ,2.2299  ,4.7299
4944  ,1.364e+09   ,2.5  ,-1.9073  ,4.9
4987  ,9.027e+08   ,-2.3  ,1.5527  ,4.8
5010  ,4.893e+09   ,2.4973  ,2.1331  ,4.923
5013  ,3.998e+09   ,2.5  ,2.0345  ,4.9
5017  ,4.244e+09   ,2.4  ,2.0345  ,5
5035  ,1.244e+09   ,1.3  ,-2.4  ,0
5038  ,6.951e+08   ,1.2085  ,-2.5  ,0.2
5092  ,1.268e+08   ,-2.4  ,-2.5  ,1.2
5123  ,1.179e+09   ,2.5  ,-2.4  ,0.6
5151  ,6.413e+08   ,-2.5  ,-0.5  ,0.1
5160  ,5.648e+08   ,-2.5  ,-0.7  ,0.1
5164  ,5.977e+08   ,-2.4  ,0.9  ,5
5168  ,4.140e+08   ,-2.4  ,0.5  ,5
5176  ,1.654e+08   ,2.5  ,-0.7  ,0.1
5179  ,1.396e+08   ,2.4  ,-0.5  ,0
5189  ,5.789e+08   ,2.4  ,-2.5  ,2.4
5194  ,3.450e+08   ,2.3  ,-2.5  ,2.2576
5198  ,2.257e+08   ,-2.3  ,-2.5  ,0.32348
5205  ,2.403e+08   ,-2.4  ,-2.5  ,0.2
5207  ,2.876e+08   ,-2.1  ,-2.5  ,0.1
5246  ,6.832e+08   ,-2.5  ,2.4  ,3.2
5257  ,3.904e+08   ,-2.5  ,1.5  ,4.9
5263  ,6.568e+08   ,-2.3  ,0.2278  ,0.2
5272  ,7.103e+08   ,-2.5  ,0.3  ,0.1
5275  ,4.402e+08   ,-2.5  ,0.5  ,4.9
5281  ,2.888e+09   ,1.8375  ,2.5  ,4.9
5297  ,8.101e+08   ,-0.9  ,2.5  ,0.1
5306  ,5.240e+08   ,-0.7  ,2.4  ,0
5309  ,5.409e+08   ,-0.5  ,2.5  ,0.1
5324  ,8.603e+08   ,2.4  ,2.5  ,2.7607
5332  ,7.632e+08   ,2.5  ,-2.4  ,0.8
5334  ,4.237e+08   ,2.4  ,-2.5  ,1
5360  ,1.190e+09   ,2.4  ,-1.7102  ,5
5362  ,1.184e+09   ,2.4  ,-1.5131  ,5
5368  ,2.812e+09   ,2.4  ,1.8375  ,5
5371  ,2.107e+10   ,2.4325  ,2.4888  ,4.6656
5372  ,5.576e+09   ,2.3333  ,2.5  ,4.6998
5376  ,4.414e+09   ,2.4707  ,2.4707  ,4.6331
5377  ,5.222e+09   ,2.5  ,2.4  ,4.5345
5379  ,4.387e+08   ,-1.5  ,-2.5  ,4.9
5406  ,1.467e+09   ,-2.5  ,-2.4  ,3.4
5420  ,6.910e+08   ,-2.3  ,-2.5  ,3.2226
5423  ,1.060e+09   ,1.5  ,-2.4  ,0
5502  ,1.023e+08   ,-2.5  ,-2.3  ,0.1
5504  ,2.163e+08   ,-2.5  ,-2.4  ,0.2
5506  ,7.097e+07   ,-2.4  ,-2.3  ,0
5511  ,1.874e+08   ,-2.5  ,-2.1  ,0.1
5513  ,6.893e+08   ,-2.4  ,0.5  ,0
5517  ,2.095e+08   ,-0.9  ,-2.5  ,0.1
5532  ,8.813e+07   ,-2.4707  ,2.4707  ,4.9
5534  ,1.642e+08   ,2.4  ,-0.7  ,0
5551  ,1.258e+09   ,2.5  ,-2.4  ,3.8
5566  ,8.191e+08   ,2.5  ,2.4  ,1.3811
5603  ,1.735e+08   ,2.4  ,-0.3  ,0
5617  ,5.835e+08   ,-2.1  ,2.5  ,0.1
5637  ,4.795e+08   ,-2.3  ,-1.9695  ,4.8
5641  ,5.173e+08   ,2.3  ,-2.5  ,3.4636
5645  ,2.161e+08   ,-2.4  ,-2.5  ,2
5649  ,2.956e+08   ,-2.4  ,-2.5  ,2.2
5659  ,1.748e+08   ,-2.3  ,-2.5  ,1.7774
5662  ,2.800e+09   ,2.1765  ,-2.5  ,4.8
5666  ,1.235e+09   ,2.4  ,-2.5  ,4.8
5669  ,1.551e+09   ,2.3  ,-2.3412  ,4.8
5695  ,6.976e+08   ,-2.4  ,0.7  ,0
5701  ,6.340e+08   ,-2.5  ,2.4  ,1.6
5715  ,6.704e+08   ,-2.4  ,2.5  ,1.8
5726  ,6.708e+08   ,-0.7  ,2.5  ,0.1
5727  ,7.074e+08   ,-1.1  ,2.4  ,0
5730  ,1.562e+08   ,2.3  ,-2.5  ,1.7774
5746  ,9.897e+08   ,2.5  ,2.4  ,1.7753
5755  ,1.070e+09   ,2.5  ,-2.4  ,4.4
5763  ,6.442e+08   ,2.4  ,-2.5  ,4.4
5773  ,1.128e+09   ,1.0491  ,2.5  ,4.9
5791  ,9.335e+08   ,-0.72473  ,2.4  ,5
5795  ,3.099e+09   ,1.8375  ,2.4  ,5
5803  ,5.793e+08   ,-0.3  ,-2.4  ,5
5810  ,1.937e+09   ,2.4  ,1.6404  ,5
5836  ,3.859e+08   ,-2.5  ,1.3  ,4.9
5860  ,1.359e+08   ,2.5  ,-2.4  ,1.6
5866  ,3.876e+08   ,1.5  ,-2.5  ,0.1
5884  ,3.030e+08   ,-2.4  ,-0.3  ,5
5888  ,1.567e+08   ,-2.5  ,-0.5  ,4.9
5901  ,4.203e+08   ,2.3  ,-2.5  ,2.5
5908  ,2.442e+08   ,2.5  ,-2.4  ,1.2
5909  ,3.133e+08   ,2.5  ,-2.4  ,2
5934  ,6.651e+08   ,1.9  ,-2.5  ,4.9
5938  ,1.684e+09   ,1.933  ,-2.5  ,4.8
5948  ,6.736e+08   ,-2.4  ,-2.5  ,4.6
5950  ,8.568e+08   ,-2.4707  ,-2.4707  ,4.9
5951  ,8.602e+08   ,-2.5  ,-2.4  ,4.8
5952  ,6.491e+08   ,-2.5  ,-2.3  ,4.9
5986  ,3.505e+08   ,2.3  ,-2.5  ,3.7085
5990  ,1.076e+09   ,-0.92182  ,2.5  ,4.9
6019  ,3.021e+08   ,2.5  ,1.9  ,0.1
6025  ,2.659e+08   ,2.4  ,-1.3  ,0
6035  ,4.162e+08   ,-2.5  ,1.9  ,4.9
6044  ,6.124e+08   ,0.1  ,2.5  ,0.1
6054  ,2.250e+08   ,2.4  ,0.1  ,0
6070  ,1.902e+08   ,-2.4  ,2.3  ,0
6071  ,2.659e+08   ,-2.3  ,2.4  ,0
6076  ,3.626e+08   ,-2.4  ,2.1  ,0
6083  ,8.411e+08   ,2.1  ,-2.4  ,0
6084  ,1.956e+08   ,2.4  ,2.3  ,0
6087  ,1.682e+08   ,2.3  ,2.4  ,0
6092  ,2.550e+08   ,-2.4  ,-2.5  ,0.4
6096  ,2.139e+08   ,-2.3  ,-2.5  ,0.1
6099  ,3.971e+08   ,0.7  ,-2.5  ,0.1
6149  ,5.239e+08   ,-2.4  ,-0.9  ,0
6159  ,8.481e+08   ,-2.5  ,-2.4  ,2.6
6183  ,1.319e+09   ,1.2462  ,2.5  ,4.9
6224  ,8.680e+08   ,2.5  ,-2.4  ,4
6228  ,7.528e+08   ,2.4  ,-2.5  ,3.8
6237  ,6.546e+08   ,2.5  ,0.7  ,0.1
6241  ,4.963e+09   ,2.5  ,2.3333  ,4.6998
6245  ,8.433e+08   ,2.5  ,2.4  ,1.5782
6259  ,1.461e+09   ,2.5  ,-2.1044  ,4.9
6265  ,1.085e+09   ,2.3  ,-1.9804  ,4.8
6267  ,1.580e+09   ,2.5  ,-2.3015  ,4.9
6268  ,1.421e+09   ,2.4707  ,-2.4  ,4.9707
6270  ,1.492e+09   ,2.4  ,-2.1044  ,5
6317  ,1.094e+09   ,-2.3  ,0.2278  ,4.8
6349  ,1.024e+09   ,-0.52764  ,2.4  ,5
6391  ,9.645e+08   ,2.4  ,2.5  ,1.7753
6440  ,4.358e+08   ,-2.5  ,2.4  ,3.8
6471  ,1.011e+09   ,2.5  ,-0.92182  ,4.9
6489  ,1.174e+09   ,2.5  ,1.2462  ,4.9
6523  ,1.287e+08   ,-1.1  ,-2.4  ,0
6528  ,1.905e+08   ,-1.1  ,-2.5  ,0.1
6535  ,2.206e+08   ,-0.9  ,-2.4  ,0
6538  ,8.517e+08   ,1.5  ,-2.4  ,5
6541  ,8.419e+08   ,1.5  ,-2.5  ,4.9
6551  ,9.595e+08   ,2.5  ,-0.72473  ,4.9
6564  ,9.651e+09   ,2.1331  ,2.4973  ,4.923
6565  ,5.226e+09   ,2.0345  ,2.5  ,4.9
6572  ,3.960e+08   ,2.4  ,-1.7  ,0
6581  ,1.328e+09   ,0  ,2.3  ,0.2
6592  ,4.645e+08   ,2.3  ,-1.9695  ,0.2
6594  ,4.066e+08   ,0.3  ,2.4  ,0
6601  ,6.452e+08   ,0.5  ,2.5  ,0.1
6605  ,4.278e+08   ,-2.4  ,-1.3  ,0
6606  ,4.677e+08   ,-2.4  ,-1.1  ,0
6615  ,7.624e+08   ,-2.4  ,-0.3  ,0
6634  ,9.104e+08   ,2.1  ,-2.5  ,4.9
6635  ,1.731e+09   ,2.4  ,-2.4707  ,4.9707
6636  ,2.067e+09   ,2.3  ,-2.4  ,5
6647  ,3.715e+08   ,0.5  ,-2.5  ,0.1
6704  ,1.215e+08   ,-2.4707  ,2.4707  ,0.1
6708  ,2.640e+08   ,-2.5  ,2.4  ,0.2
6712  ,4.686e+08   ,-2.4  ,2.5  ,3.6
6715  ,6.502e+08   ,-2.4  ,2.5  ,3.4
6728  ,5.375e+08   ,-2.5  ,0.7  ,4.9
6753  ,1.899e+08   ,-2.1044  ,2.4  ,5
6788  ,3.359e+09   ,2.5  ,2.4  ,4.3375
6791  ,1.250e+09   ,-1.933  ,-2.5  ,4.8
6795  ,5.115e+09   ,2.1998  ,2.5  ,4.8333
6837  ,3.902e+08   ,-2.3  ,-2.5  ,0.8063
6869  ,1.236e+09   ,2.5  ,-1.7102  ,4.9
6873  ,1.477e+09   ,2.4  ,-1.9073  ,5
6880  ,1.054e+09   ,2.4  ,-0.92182  ,5
6885  ,9.689e+08   ,2.4  ,-0.52764  ,5
6893  ,1.110e+09   ,2.4  ,1.2462  ,5
6914  ,7.691e+08   ,0.7  ,2.5  ,0.1
6920  ,6.374e+08   ,0.9  ,2.4  ,0
6923  ,6.485e+08   ,0.7  ,2.4  ,0
6936  ,5.776e+08   ,2.4  ,-2.5  ,3.4
6939  ,6.626e+08   ,2.3  ,-2.5  ,3.2226
6961  ,4.669e+08   ,-0.1  ,-2.5  ,4.9
6967  ,3.528e+08   ,-2.5  ,-1.5  ,4.9
6975  ,4.681e+08   ,-2.4  ,1.1  ,5
6978  ,3.617e+08   ,-2.4  ,2.5  ,0.2
6987  ,1.095e+09   ,2.4  ,-1.316  ,5
6994  ,3.668e+08   ,2.4  ,-1.5  ,0
7004  ,6.828e+08   ,2.4  ,-2.5  ,3.6
7011  ,9.271e+08   ,2.4  ,0.65491  ,5
7016  ,7.938e+08   ,2.4  ,0.45782  ,5
7019  ,8.190e+08   ,2.5  ,2.4  ,2.1695
7021  ,9.152e+08   ,2.5  ,2.4  ,1.9724
7052  ,7.520e+08   ,-1.3  ,2.5  ,0.1
7054  ,1.844e+08   ,-2.4  ,-2.5  ,0.8
7057  ,3.820e+08   ,0.3  ,-2.5  ,0.1
7065  ,3.555e+08   ,0.24243  ,-2.5  ,0.2
7075  ,2.090e+10   ,2.4888  ,2.4325  ,4.6656
7113  ,3.820e+08   ,-2.4  ,-2.5  ,2.6
7121  ,4.263e+08   ,-2.4  ,-2.5  ,2.8
7126  ,1.007e+09   ,-2.5  ,-2.4  ,2.8
7128  ,8.748e+07   ,-2.4707  ,-2.4707  ,0.1
7129  ,8.088e+07   ,-2.4  ,-2.4707  ,0.029289
7141  ,7.871e+08   ,-1.7  ,-2.4  ,5
7145  ,4.730e+08   ,1.1  ,2.4  ,0
7163  ,4.055e+08   ,-1.7102  ,2.4  ,5
7172  ,1.541e+09   ,2.5  ,-2.4  ,3.2
7174  ,4.629e+08   ,-2.5  ,2.4  ,3.6
7183  ,3.011e+08   ,-1.4531  ,-2.5  ,4.8
7204  ,2.140e+09   ,2.3  ,-0.81068  ,4.8
7220  ,8.562e+08   ,2.5  ,0.063638  ,4.9
7227  ,5.935e+08   ,2.5  ,-1.9  ,0.1
7256  ,7.449e+08   ,-0.1  ,-2.4  ,5
7280  ,8.605e+08   ,-0.33054  ,2.4  ,5
7299  ,1.066e+09   ,2.5  ,-1.1189  ,4.9
7316  ,5.031e+08   ,-2.5  ,-2.4  ,0.8
7323  ,1.396e+08   ,-2.4  ,-2.5  ,1
7396  ,1.564e+09   ,1.1  ,-2.4  ,5
7400  ,7.074e+08   ,-2.5  ,0.7  ,0.1
7409  ,1.356e+09   ,1.3  ,-2.4  ,5
7420  ,3.223e+08   ,2.5  ,2.1  ,0.1
7429  ,4.475e+08   ,2.4  ,1.9  ,0
7436  ,4.433e+08   ,2.5  ,-1.7  ,0.1
7438  ,5.636e+08   ,2.4  ,-2.5  ,2.8
7445  ,1.359e+10   ,2.4325  ,2.1656  ,4.9888
7464  ,2.878e+08   ,2.5  ,-1.5  ,0.1
7480  ,1.165e+09   ,2.5  ,-2.4  ,0.2
7482  ,5.958e+08   ,1.9  ,-2.5  ,0.1
7483  ,4.924e+08   ,1.7  ,-2.5  ,0.1
7486  ,1.036e+09   ,1.9  ,-2.4  ,5
7488  ,9.548e+08   ,1.6937  ,-2.5  ,4.8
7492  ,2.326e+09   ,2.1  ,-2.4  ,5
7495  ,3.446e+08   ,0.1  ,-2.5  ,0.1
7504  ,9.348e+08   ,0.3  ,-2.4  ,0
7507  ,3.586e+08   ,0.9  ,-2.5  ,0.1
7533  ,6.832e+08   ,-2.5  ,0.9  ,0.1
7536  ,3.431e+08   ,-2.4  ,-2.5  ,3.2
7540  ,4.041e+08   ,-2.4  ,-2.5  ,3
7545  ,1.155e+09   ,-2.5  ,-2.4  ,3
7582  ,3.598e+08   ,1.3  ,2.5  ,0.1
7588  ,9.117e+08   ,2.5  ,2.4  ,2.3665
7598  ,4.173e+08   ,-2.5  ,2.4  ,4.2
7607  ,8.254e+08   ,1.5333  ,2.3  ,0.2
7627  ,4.288e+08   ,-2.5  ,1.1  ,4.9
7651  ,5.524e+08   ,2.4  ,-1.9  ,0
7656  ,2.708e+08   ,2.5  ,2.4  ,0.39564
7660  ,5.865e+09   ,2.2299  ,2.3  ,4.7299
7668  ,3.861e+08   ,1.4531  ,-2.5  ,4.8
7676  ,5.695e+08   ,0.1  ,-2.5  ,4.9
7683  ,9.797e+08   ,0.1  ,-2.4  ,5
7686  ,2.090e+08   ,-2.4  ,-1.1  ,5
7702  ,3.271e+08   ,-2.3  ,-2.5  ,4.433
7710  ,1.049e+09   ,-2.3  ,-2.5  ,4.6765
7752  ,1.660e+09   ,0.9  ,-2.4  ,5
7763  ,4.076e+08   ,0.24243  ,-2.5  ,4.8
7767  ,1.308e+09   ,-2.5  ,-2.4  ,3.2
7768  ,1.978e+08   ,-2.4  ,-2.1  ,0
7776  ,7.042e+08   ,-2.4  ,0.9  ,0
7786  ,1.259e+08   ,-0.4838  ,-2.5  ,4.8
7800  ,2.369e+09   ,2.5  ,-2.4  ,4.6
7805  ,2.750e+08   ,-2.5  ,-1.3  ,4.9
7811  ,2.120e+08   ,-2.5  ,-1.1  ,4.9
7820  ,6.867e+08   ,2.5  ,-2.1  ,0.1
7824  ,5.874e+08   ,2.4  ,-2.1  ,0
7828  ,7.898e+08   ,2.4  ,-2.5  ,4.2
7831  ,8.454e+08   ,2.4  ,-2.5  ,4
7838  ,5.159e+08   ,2.5  ,-2.4  ,4.2
7839  ,8.642e+08   ,2.5  ,2.4  ,2.7607
7840  ,1.014e+09   ,2.5  ,2.4  ,2.9578
7863  ,4.207e+08   ,-2.4  ,-1.5  ,0
7890  ,5.289e+08   ,2.4  ,0.9  ,0
7897  ,5.425e+08   ,-2.4  ,-0.7  ,0
7912  ,4.067e+08   ,-1.5  ,-2.4  ,0
7917  ,9.142e+07   ,-1.3  ,-2.5  ,0.1
7931  ,4.715e+08   ,0.5  ,2.4  ,0
7934  ,1.438e+09   ,1.1  ,-2.4  ,0
7937  ,6.008e+08   ,2.4  ,-2.5  ,0.8
7941  ,2.090e+08   ,-2.4  ,-2.5  ,0.6
7969  ,1.868e+08   ,-2.5  ,2.3  ,0.1
7971  ,4.457e+08   ,-2.4  ,1.9  ,0
7972  ,6.884e+08   ,-1.9  ,2.5  ,0.1
7978  ,6.595e+08   ,-2.4  ,1.1  ,0
7996  ,2.463e+08   ,-2.4  ,-0.5  ,5
8000  ,5.318e+08   ,-2.5  ,-2.4  ,0.6
8003  ,4.706e+08   ,-2.5  ,-2.4  ,0.4
8025  ,6.969e+08   ,0.9  ,2.5  ,0.1
8035  ,6.090e+08   ,0.3  ,2.5  ,0.1
8039  ,1.699e+09   ,2.3  ,-2.5  ,0.32348
8041  ,8.518e+08   ,2.3  ,-2.3379  ,0.2
8043  ,1.159e+09   ,2.1765  ,-2.5  ,0.2
8045  ,1.239e+08   ,-0.96359  ,-2.5  ,0.2
8054  ,3.365e+08   ,1.3  ,2.4  ,0
8058  ,5.392e+08   ,1.1  ,2.5  ,0.1
8062  ,7.326e+08   ,-2.5  ,2.4  ,1.4
8067  ,6.621e+08   ,-2.5  ,2.4  ,0.8
8087  ,5.668e+08   ,-2.5  ,1.5  ,0.1
8132  ,8.811e+08   ,-0.13345  ,2.4  ,5
8183  ,2.258e+08   ,2.5  ,-0.9  ,0.1
8184  ,5.223e+08   ,1.6937  ,-2.5  ,0.2
8214  ,7.075e+08   ,-2.4707  ,-2.4  ,4.9707
8217  ,1.454e+09   ,-2.1  ,-2.4  ,5
8219  ,5.571e+08   ,-2.4  ,-2.5  ,4.4
8227  ,1.061e+09   ,2.5  ,2.4  ,3.1549
8242  ,6.065e+08   ,0.7  ,-2.5  ,4.9
8248  ,1.479e+09   ,2.5  ,-2.4  ,3.6
8254  ,2.790e+08   ,2.5  ,-0.3  ,0.1
8256  ,2.151e+08   ,2.5  ,-0.5  ,0.1
8258  ,3.406e+08   ,-0.3  ,-2.5  ,4.9
8263  ,2.544e+08   ,-0.5  ,-2.5  ,4.9
8268  ,6.930e+08   ,-2.3  ,-2.5  ,3.7085
8277  ,3.119e+08   ,-0.1  ,-2.5  ,0.1
8285  ,7.691e+08   ,1.1  ,-2.5  ,4.9
8307  ,3.207e+08   ,0.1  ,2.4  ,0
8308  ,5.566e+08   ,-0.1  ,2.5  ,0.1
8309  ,2.930e+08   ,-0.1  ,2.4  ,0
8313  ,7.298e+08   ,2.5  ,-2.3  ,0.1
8318  ,1.399e+09   ,2.5  ,-2.4  ,3
8338  ,1.017e+09   ,2.5  ,2.4  ,3.352
8339  ,1.083e+09   ,2.4  ,2.5  ,3.1549
8344  ,6.247e+08   ,-2.5  ,2.4  ,3.4
8357  ,1.316e+10   ,2.4888  ,2.1656  ,4.9325
8358  ,3.874e+09   ,2.5  ,2.1998  ,4.8333
8383  ,4.529e+08   ,-1.7  ,-2.4  ,0
8396  ,4.310e+08   ,1.1  ,-2.5  ,0.1
8399  ,3.811e+09   ,2.4526  ,2.1331  ,4.9851
8405  ,4.132e+08   ,2.5  ,-2.4  ,1
8412  ,6.933e+08   ,2.3  ,-2.5  ,0.8063
8417  ,2.315e+08   ,-2.3  ,-2.5  ,2.5
8434  ,5.285e+08   ,0.9636  ,-2.5  ,4.8
8438  ,2.688e+08   ,-0.3  ,-2.5  ,0.1
8452  ,3.271e+08   ,-2.4  ,-0.1  ,5
8468  ,1.322e+09   ,2.5  ,2.4  ,3.7462
8471  ,2.678e+08   ,-1.3  ,-2.5  ,4.9
8493  ,6.528e+07   ,-1.1  ,-2.5  ,4.9
8509  ,3.323e+08   ,-2.5  ,-1.7  ,0.1
8517  ,5.696e+08   ,-2.4  ,2.5  ,3
8531  ,4.943e+08   ,-2.4  ,1.7  ,0
8556  ,1.118e+09   ,2.5  ,2.4  ,3.5491
8573  ,8.247e+08   ,-1.316  ,2.4  ,5
8576  ,6.236e+08   ,-2.4  ,1.3  ,0
8611  ,1.087e+08   ,2.3  ,-2.5  ,1.2915
8618  ,3.736e+08   ,-2.4  ,2.5  ,4
8646  ,6.846e+08   ,-2.5  ,1.1  ,0.1
8656  ,3.247e+08   ,2.5  ,-1.3  ,0.1
8657  ,3.497e+08   ,2.4  ,2.1  ,0
8673  ,6.871e+08   ,-1.3  ,2.4  ,0
8692  ,6.862e+08   ,0.72263  ,-2.5  ,4.8
8696  ,2.782e+08   ,2.3  ,-2.5  ,1.0469
8706  ,8.652e+08   ,2.5  ,0.65491  ,4.9
8721  ,1.877e+08   ,-2.4  ,-2.5  ,1.6
8725  ,1.091e+09   ,0.65491  ,2.4  ,5
8739  ,1.744e+10   ,2.1656  ,2.4325  ,4.9888
8741  ,4.881e+09   ,2.1998  ,2.3333  ,5
8746  ,4.003e+08   ,-2.1  ,-2.4  ,0
8748  ,3.054e+08   ,-2.5  ,-2.4  ,1.2
8752  ,7.544e+09   ,2.1331  ,2.4526  ,4.9851
8759  ,3.102e+08   ,-2.3  ,-2.5  ,1.0469
8787  ,6.573e+08   ,-0.1  ,-2.4  ,0
8793  ,1.661e+08   ,-2.3  ,-2.5  ,2.2576
8795  ,3.715e+08   ,-2.4  ,-2.5  ,2.4
8798  ,4.867e+08   ,-2.3  ,-2.5  ,4.1937
8808  ,5.700e+08   ,-2.3  ,-2.5  ,3.9531
8814  ,5.396e+08   ,-2.4  ,-1.5  ,5
8849  ,6.228e+08   ,0.4838  ,-2.5  ,4.8
8851  ,4.411e+08   ,-2.4  ,-2.5  ,4.2
8868  ,5.759e+08   ,2.4  ,-2.5  ,3
8874  ,1.115e+09   ,0.852  ,2.4  ,5
8883  ,3.628e+08   ,-0.5  ,-2.4  ,5
8886  ,9.676e+07   ,-0.72262  ,-2.5  ,4.8
8893  ,1.955e+08   ,-0.7  ,-2.5  ,4.9
8897  ,1.398e+09   ,-2.5  ,-2.4  ,3.6
8899  ,8.491e+08   ,-2.3  ,-2.5  ,3.4636
8900  ,3.159e+08   ,-2.3  ,-1.4729  ,0.2
8906  ,4.161e+08   ,-2.5  ,-1.3  ,0.1
8910  ,1.122e+09   ,0.852  ,2.5  ,4.9
8925  ,7.611e+08   ,-2.4  ,2.5  ,1.4
8941  ,1.213e+08   ,2.4707  ,2.4  ,0.029289
8942  ,2.163e+08   ,2.5  ,2.3  ,0.1
8945  ,3.963e+08   ,-2.5  ,0.1  ,4.9
8950  ,1.101e+08   ,2.4707  ,2.4707  ,0.1
8951  ,7.993e+07   ,2.4  ,2.4707  ,0.029289
8959  ,6.266e+08   ,2.4  ,0.26073  ,5
8965  ,1.016e+09   ,0.45782  ,2.4  ,5
8978  ,7.710e+08   ,2.4  ,0.852  ,5
8983  ,2.365e+08   ,2.5  ,-1.1  ,0.1
8991  ,5.975e+08   ,-2.5  ,2.4  ,0.6
9008  ,7.858e+08   ,2.5  ,0.852  ,4.9
9011  ,6.251e+08   ,-2.4  ,-0.5  ,0
9025  ,1.606e+08   ,-1.5  ,-2.5  ,0.1
9038  ,3.125e+08   ,2.4  ,-2.5  ,2
9041  ,6.508e+08   ,2.5  ,0.9  ,0.1
9050  ,4.284e+08   ,2.5  ,0.5  ,0.1
9054  ,1.422e+09   ,0.9  ,-2.4  ,0
9060  ,4.765e+08   ,2.4  ,-2.5  ,0.4
9062  ,1.227e+09   ,2.3  ,-2.5  ,0.56701
9064  ,1.393e+09   ,2.5  ,-2.4  ,0.4
9069  ,4.190e+08   ,2.4  ,-2.5  ,0.6
9071  ,5.919e+08   ,1.4531  ,-2.5  ,0.2
9082  ,1.477e+08   ,-2.3  ,-2.5  ,1.2915
9086  ,1.561e+08   ,-2.4  ,-2.5  ,1.4
9091  ,1.485e+08   ,-2.5  ,-2.4  ,1.4
9094  ,8.344e+08   ,1.3  ,-2.5  ,4.9
9097  ,1.867e+08   ,-0.7  ,-2.5  ,0.1
9137  ,1.497e+08   ,-2.5  ,-0.7  ,4.9
9143  ,2.709e+08   ,-2.5  ,-0.1  ,4.9
9146  ,4.692e+08   ,-2.1  ,2.4  ,0
9148  ,4.095e+08   ,-2.5  ,1.7  ,4.9
9173  ,4.821e+08   ,-2.5  ,2.4  ,3
9192  ,2.450e+08   ,-0.7  ,-2.4  ,5
9195  ,7.077e+08   ,0.72263  ,-2.5  ,0.2
9209  ,1.544e+09   ,2.5  ,-2.4  ,3.4
9215  ,8.005e+08   ,0.9636  ,-2.5  ,0.2
9217  ,5.591e+08   ,2.4  ,-2.5  ,3.2
9218  ,1.542e+08   ,-0.96359  ,-2.5  ,4.8
9229  ,5.566e+08   ,-2.4  ,2.5  ,2.8
9248  ,1.703e+09   ,2.3  ,-2.5  ,4.433
9255  ,4.804e+08   ,2.5  ,1.3  ,0.1
9257  ,3.523e+08   ,2.4  ,1.5  ,0
9262  ,1.491e+09   ,0.5  ,-2.4  ,5
9264  ,7.267e+08   ,2.4  ,-0.13345  ,5
9272  ,8.289e+08   ,0.063638  ,2.4  ,5
9277  ,7.498e+08   ,-2.5  ,2.4  ,1.2
9279  ,7.638e+08   ,2.5  ,0.26073  ,4.9
9282  ,3.948e+08   ,1.2085  ,-2.5  ,4.8
9286  ,6.591e+08   ,0.9  ,-2.5  ,4.9
9292  ,1.008e+08   ,-2.4  ,2.4707  ,4.9707
9293  ,1.270e+08   ,-2.3015  ,2.4  ,5
9296  ,6.336e+08   ,-2.4  ,-2.1  ,5
9303  ,6.202e+08   ,-2.4  ,-1.9  ,5
9311  ,1.959e+08   ,-2.4  ,2.3  ,5
9313  ,3.469e+08   ,-2.4  ,0.1  ,5
9319  ,4.588e+08   ,-0.5  ,-2.4  ,0
9328  ,1.030e+08   ,-2.3  ,-2.5  ,1.5364
9334  ,3.748e+08   ,-2.3  ,2.5  ,0.1
9338  ,6.907e+08   ,-2.5  ,-2.4  ,2.4
9339  ,6.171e+08   ,-2.5  ,1.3  ,0.1
9341  ,3.692e+08   ,-2.3  ,-2.5  ,2.7424
9344  ,5.406e+08   ,-2.5  ,-2.4  ,2.2
9358  ,1.924e+09   ,-2.3  ,2.3  ,2.5
9364  ,6.088e+08   ,-2.5  ,-2.1  ,4.9
9367  ,8.159e+08   ,-2.4  ,-2.3  ,5
9374  ,3.334e+08   ,-2.4  ,-1.3  ,5
9378  ,4.839e+08   ,-2.5  ,2.4  ,1.8
9384  ,2.355e+08   ,2.3  ,-2.5  ,2.0162
9385  ,3.775e+08   ,-2.5  ,2.4  ,4.4
9389  ,4.622e+08   ,-2.5  ,2.4  ,2
9395  ,1.461e+09   ,2.4  ,-2.3015  ,5
9396  ,3.507e+08   ,-2.4  ,-1.7  ,0
9407  ,5.396e+08   ,-2.3  ,-1.4729  ,4.8
9411  ,3.887e+08   ,-2.5  ,-1.7  ,4.9
9423  ,4.364e+08   ,-2.4  ,-2.5  ,3.6
9432  ,1.658e+09   ,0.7  ,-2.4  ,5
9438  ,1.499e+08   ,-2.5  ,-0.9  ,4.9
9443  ,2.445e+08   ,-2.5  ,-0.3  ,4.9
9445  ,8.836e+07   ,-2.4707  ,2.4  ,4.9707
9448  ,1.029e+09   ,2.4  ,-1.1189  ,5
9453  ,5.676e+08   ,2.4  ,0.7  ,0
9455  ,1.071e+09   ,2.5  ,-2.4  ,2.6
9457  ,5.635e+08   ,2.3  ,-2.5  ,2.9838
9494  ,7.615e+08   ,-2.4  ,2.5  ,1
9500  ,6.805e+08   ,0.3  ,-2.5  ,4.9
9504  ,1.232e+09   ,0.3  ,-2.4  ,5
9506  ,5.701e+08   ,2.1  ,-2.5  ,0.1
9518  ,2.271e+08   ,-1.9  ,-2.5  ,0.1
9528  ,6.051e+08   ,2.3  ,-2.5  ,0.1
9531  ,1.109e+09   ,2.4707  ,-2.4707  ,0.1
9533  ,7.141e+08   ,2.4707  ,-2.4  ,0.029289
9534  ,8.730e+08   ,2.4  ,-2.4707  ,0.029289
9541  ,7.124e+08   ,0.5  ,-2.5  ,4.9
9544  ,1.986e+08   ,-0.5  ,-2.5  ,0.1
9559  ,4.828e+08   ,-2.5  ,-1.9  ,4.9
9562  ,3.066e+08   ,-2.5  ,2.4  ,4.6
9565  ,6.045e+08   ,-2.4  ,2.5  ,2
9571  ,1.195e+09   ,-2.5  ,-2.4  ,3.8
9574  ,3.808e+08   ,-2.4  ,-2.5  ,3.8
9577  ,4.201e+08   ,1.3  ,-2.5  ,0.1
9582  ,5.234e+08   ,-2.5  ,-0.9  ,0.1
9596  ,2.828e+08   ,2.1  ,2.4  ,0
9598  ,7.351e+08   ,-2.4  ,2.5  ,3.2
9602  ,3.773e+08   ,1.5  ,2.5  ,0.1
9610  ,2.514e+08   ,2.4  ,2.5  ,0.39564
9612  ,1.072e+09   ,-0.72473  ,2.5  ,4.9
9614  ,3.908e+08   ,1.7  ,2.5  ,0.1
9635  ,4.132e+08   ,2.5  ,1.7  ,0.1
9646  ,1.814e+08   ,2.3  ,2.5  ,0.1
9651  ,1.640e+10   ,2.1656  ,2.4888  ,4.9325
9653  ,1.039e+09   ,2.5  ,-1.316  ,4.9
9656  ,4.546e+08   ,-2.4  ,-1.7  ,5
9659  ,2.789e+09   ,2.3  ,-2.5  ,4.6765
9661  ,3.688e+08   ,2.3  ,-2.5  ,3.9531
9664  ,1.184e+09   ,-2.3  ,-2.4  ,5
9666  ,5.010e+08   ,1.9  ,-2.4  ,0
9677  ,4.772e+08   ,2.4  ,0.5  ,0
9678  ,4.775e+08   ,-2.5  ,-1.1  ,0.1
9680  ,7.756e+08   ,2.5  ,2.4  ,1.184
9681  ,1.187e+08   ,2.5  ,2.4  ,0.19855
9696  ,1.568e+08   ,-2.3  ,-2.5  ,2.0162
9698  ,7.301e+08   ,2.4  ,-2.3  ,0
9699  ,1.405e+08   ,-0.24243  ,-2.5  ,0.2
9701  ,7.579e+08   ,0.1  ,-2.4  ,0
9704  ,1.967e+08   ,-0.4838  ,-2.5  ,0.2
9718  ,2.078e+08   ,-0.72262  ,-2.5  ,0.2
9726  ,8.638e+08   ,2.3  ,-0.76628  ,0.2
9727  ,5.260e+08   ,-2.5  ,2.4  ,0.4
9730  ,3.335e+08   ,1.9433E-06  ,-2.5  ,4.8
9731  ,2.577e+08   ,-0.24243  ,-2.5  ,4.8
9732  ,4.288e+08   ,-2.5  ,2.4  ,2.2
9738  ,1.010e+09   ,-2.5  ,-2.4  ,4
9743  ,7.526e+08   ,-1.6937  ,-2.5  ,4.8
9744  ,3.057e+08   ,-2.4  ,-2.5  ,4
9750  ,2.426e+08   ,-1.7  ,-2.5  ,0.1
9752  ,4.549e+08   ,-1.6937  ,-2.5  ,0.2
9754  ,2.681e+08   ,-1.3  ,-2.4  ,0
9759  ,9.523e+07   ,-2.4707  ,2.4  ,0.029289
9760  ,1.002e+08   ,-2.4  ,2.4707  ,0.029289
9768  ,9.783e+08   ,2.3  ,-2.5  ,4.1937
9770  ,1.692e+08   ,1.9433E-06  ,-2.5  ,0.2
9771  ,5.430e+08   ,0.4838  ,-2.5  ,0.2
9772  ,4.778e+08   ,2.4  ,-2.5  ,0.2
9773  ,9.295e+08   ,2.4  ,-2.5  ,4.6
9776  ,7.023e+08   ,2.4  ,0.063638  ,5
9780  ,1.112e+09   ,0.65491  ,2.5  ,4.9
9781  ,1.650e+08   ,2.4  ,2.5  ,0.19855
9782  ,5.104e+08   ,-2.3  ,-2.5  ,2.9838
9786  ,2.750e+08   ,-1.2085  ,-2.5  ,0.2
9787  ,4.655e+08   ,-1.4531  ,-2.5  ,0.2
9790  ,8.898e+08   ,2.3  ,-2.4  ,0
9793  ,5.167e+09   ,2.0345  ,2.4  ,5
9797  ,9.143e+07   ,2.3  ,-2.5  ,1.5364
9798  ,8.976e+08   ,2.4  ,1.0491  ,5
9809  ,1.059e+09   ,2.4  ,2.5  ,3.352
