Date:  11:29, Monday, July 10, 2023
Model name: Hollow_DropBox
Study name: Drop Test_hollow_draft1(-Default-)
Plot type:  Stress1
Plot step: 24   time : 125.949 Microseconds
Result Type: von Mises 


Node  ,Value (N/m^2)  ,X (in)  ,Y (in)  ,Z (in)
1  ,1.875e+09   ,2.5  ,2.1331  ,4.9
2  ,7.530e+09   ,2.4577  ,2.1908  ,4.9577
3  ,2.451e+09   ,2.4894  ,2.1331  ,4.9447
4  ,4.672e+09   ,2.1331  ,2.5  ,4.9
5  ,8.968e+09   ,2.1331  ,2.4894  ,4.9447
6  ,1.826e+10   ,2.1908  ,2.4577  ,4.9577
7  ,8.764e+07   ,-2.4  ,2.4  ,5
8  ,1.025e+09   ,-2.4  ,-2.4  ,5
9  ,1.899e+09   ,2.4  ,-2.4  ,5
10  ,1.868e+09   ,2.4  ,2.1331  ,5
11  ,4.269e+09   ,2.1331  ,2.4  ,5
12  ,2.046e+09   ,2.5  ,-2.4  ,4.9
13  ,9.071e+08   ,2.5  ,-2.4  ,0.1
14  ,1.244e+08   ,2.5  ,2.4  ,0.1
15  ,4.811e+09   ,2.5  ,2.4  ,4.6331
16  ,1.355e+08   ,2.4  ,2.5  ,0.1
17  ,3.783e+08   ,-2.4  ,2.5  ,0.1
18  ,1.753e+08   ,-2.4  ,2.5  ,4.9
19  ,5.114e+09   ,2.4  ,2.5  ,4.6331
20  ,2.230e+08   ,-2.5  ,2.4  ,0.1
21  ,2.923e+08   ,-2.5  ,-2.4  ,0.1
22  ,7.290e+08   ,-2.5  ,-2.4  ,4.9
23  ,1.891e+08   ,-2.5  ,2.4  ,4.9
24  ,2.495e+08   ,-2.3  ,-2.5  ,0.2
25  ,7.699e+08   ,-2.3  ,-2.5  ,4.8
26  ,1.560e+09   ,2.3  ,-2.5  ,4.8
27  ,5.973e+08   ,2.3  ,-2.5  ,0.2
28  ,8.665e+08   ,-2.4  ,-2.5  ,4.9
29  ,2.114e+09   ,2.4  ,-2.5  ,4.9
30  ,3.713e+08   ,-2.4  ,-2.5  ,0.1
31  ,8.717e+08   ,2.4  ,-2.5  ,0.1
32  ,7.126e+08   ,2.4  ,-2.4  ,0
33  ,1.709e+08   ,2.4  ,2.4  ,0
34  ,3.423e+08   ,-2.4  ,-2.4  ,0
35  ,2.575e+08   ,-2.4  ,2.4  ,0
36  ,1.909e+10   ,2.4577  ,2.4577  ,4.6908
37  ,2.709e+08   ,-2.3  ,2.3  ,4.8
38  ,4.833e+09   ,2.1599  ,2.3  ,4.8
39  ,3.887e+09   ,2.3  ,2.1599  ,4.8
40  ,4.573e+09   ,2.3  ,2.3  ,4.6599
41  ,2.714e+08   ,2.3  ,2.3  ,0.2
42  ,5.072e+08   ,-2.3  ,2.3  ,0.2
43  ,2.839e+08   ,-2.4  ,2.2  ,5
44  ,4.834e+08   ,-2.4  ,2  ,5
45  ,5.303e+08   ,-2.4  ,1.8  ,5
46  ,5.704e+08   ,-2.4  ,1.6  ,5
47  ,5.909e+08   ,-2.4  ,1.4  ,5
48  ,6.741e+08   ,-2.4  ,1.2  ,5
49  ,7.995e+08   ,-2.4  ,1  ,5
50  ,9.644e+08   ,-2.4  ,0.8  ,5
51  ,6.589e+08   ,-2.4  ,0.6  ,5
52  ,6.386e+08   ,-2.4  ,0.4  ,5
53  ,7.449e+08   ,-2.4  ,0.2  ,5
54  ,6.830e+08   ,-2.4  ,5.8879E-16  ,5
55  ,5.310e+08   ,-2.4  ,-0.2  ,5
56  ,3.296e+08   ,-2.4  ,-0.4  ,5
57  ,2.464e+08   ,-2.4  ,-0.6  ,5
58  ,2.990e+08   ,-2.4  ,-0.8  ,5
59  ,3.364e+08   ,-2.4  ,-1  ,5
60  ,2.735e+08   ,-2.4  ,-1.2  ,5
61  ,4.602e+08   ,-2.4  ,-1.4  ,5
62  ,4.199e+08   ,-2.4  ,-1.6  ,5
63  ,4.103e+08   ,-2.4  ,-1.8  ,5
64  ,6.190e+08   ,-2.4  ,-2  ,5
65  ,5.678e+08   ,-2.4  ,-2.2  ,5
66  ,1.266e+09   ,-2.2  ,-2.4  ,5
67  ,9.546e+08   ,-2  ,-2.4  ,5
68  ,8.983e+08   ,-1.8  ,-2.4  ,5
69  ,7.773e+08   ,-1.6  ,-2.4  ,5
70  ,6.400e+08   ,-1.4  ,-2.4  ,5
71  ,6.329e+08   ,-1.2  ,-2.4  ,5
72  ,6.578e+08   ,-1  ,-2.4  ,5
73  ,7.289e+08   ,-0.8  ,-2.4  ,5
74  ,8.411e+08   ,-0.6  ,-2.4  ,5
75  ,1.168e+09   ,-0.4  ,-2.4  ,5
76  ,1.179e+09   ,-0.2  ,-2.4  ,5
77  ,1.469e+09   ,-5.8879E-16  ,-2.4  ,5
78  ,1.463e+09   ,0.2  ,-2.4  ,5
79  ,1.369e+09   ,0.4  ,-2.4  ,5
80  ,1.463e+09   ,0.6  ,-2.4  ,5
81  ,1.370e+09   ,0.8  ,-2.4  ,5
82  ,1.122e+09   ,1  ,-2.4  ,5
83  ,7.947e+08   ,1.2  ,-2.4  ,5
84  ,3.827e+08   ,1.4  ,-2.4  ,5
85  ,7.307e+08   ,1.6  ,-2.4  ,5
86  ,1.540e+09   ,1.8  ,-2.4  ,5
87  ,1.944e+09   ,2  ,-2.4  ,5
88  ,3.480e+09   ,2.2  ,-2.4  ,5
89  ,1.682e+09   ,2.4  ,-2.2029  ,5
90  ,1.954e+09   ,2.4  ,-2.0058  ,5
91  ,1.470e+09   ,2.4  ,-1.8087  ,5
92  ,1.424e+09   ,2.4  ,-1.6116  ,5
93  ,1.556e+09   ,2.4  ,-1.4145  ,5
94  ,1.347e+09   ,2.4  ,-1.2175  ,5
95  ,1.445e+09   ,2.4  ,-1.0204  ,5
96  ,1.312e+09   ,2.4  ,-0.82327  ,5
97  ,1.285e+09   ,2.4  ,-0.62618  ,5
98  ,1.062e+09   ,2.4  ,-0.42909  ,5
99  ,9.777e+08   ,2.4  ,-0.232  ,5
100  ,8.261e+08   ,2.4  ,-0.034907  ,5
101  ,7.618e+08   ,2.4  ,0.16218  ,5
102  ,6.767e+08   ,2.4  ,0.35927  ,5
103  ,8.001e+08   ,2.4  ,0.55637  ,5
104  ,6.411e+08   ,2.4  ,0.75346  ,5
105  ,5.272e+08   ,2.4  ,0.95055  ,5
106  ,7.318e+08   ,2.4  ,1.1476  ,5
107  ,1.003e+09   ,2.4  ,1.3447  ,5
108  ,1.282e+09   ,2.4  ,1.5418  ,5
109  ,1.682e+09   ,2.4  ,1.7389  ,5
110  ,2.186e+09   ,2.4  ,1.936  ,5
111  ,3.229e+09   ,2.2665  ,2.2665  ,5
112  ,3.340e+09   ,1.936  ,2.4  ,5
113  ,2.008e+09   ,1.7389  ,2.4  ,5
114  ,1.580e+09   ,1.5418  ,2.4  ,5
115  ,1.148e+09   ,1.3447  ,2.4  ,5
116  ,8.856e+08   ,1.1476  ,2.4  ,5
117  ,7.304e+08   ,0.95055  ,2.4  ,5
118  ,6.432e+08   ,0.75346  ,2.4  ,5
119  ,6.560e+08   ,0.55637  ,2.4  ,5
120  ,6.482e+08   ,0.35927  ,2.4  ,5
121  ,6.826e+08   ,0.16218  ,2.4  ,5
122  ,8.025e+08   ,-0.034907  ,2.4  ,5
123  ,9.575e+08   ,-0.232  ,2.4  ,5
124  ,9.257e+08   ,-0.42909  ,2.4  ,5
125  ,8.757e+08   ,-0.62618  ,2.4  ,5
126  ,1.244e+09   ,-0.82327  ,2.4  ,5
127  ,1.364e+09   ,-1.0204  ,2.4  ,5
128  ,1.268e+09   ,-1.2175  ,2.4  ,5
129  ,9.978e+08   ,-1.4145  ,2.4  ,5
130  ,7.147e+08   ,-1.6116  ,2.4  ,5
131  ,4.825e+08   ,-1.8087  ,2.4  ,5
132  ,3.469e+08   ,-2.0058  ,2.4  ,5
133  ,1.937e+08   ,-2.2029  ,2.4  ,5
294  ,1.473e+09   ,2.5  ,-2.2029  ,4.9
295  ,1.883e+09   ,2.5  ,-2.0058  ,4.9
296  ,1.498e+09   ,2.5  ,-1.8087  ,4.9
297  ,1.570e+09   ,2.5  ,-1.6116  ,4.9
298  ,1.327e+09   ,2.5  ,-1.4145  ,4.9
299  ,1.305e+09   ,2.5  ,-1.2175  ,4.9
300  ,1.430e+09   ,2.5  ,-1.0204  ,4.9
301  ,1.065e+09   ,2.5  ,-0.82327  ,4.9
302  ,1.194e+09   ,2.5  ,-0.62618  ,4.9
303  ,1.069e+09   ,2.5  ,-0.42909  ,4.9
304  ,1.250e+09   ,2.5  ,-0.232  ,4.9
305  ,1.342e+09   ,2.5  ,-0.034907  ,4.9
306  ,8.758e+08   ,2.5  ,0.16218  ,4.9
307  ,6.965e+08   ,2.5  ,0.35927  ,4.9
308  ,7.699e+08   ,2.5  ,0.55637  ,4.9
309  ,6.294e+08   ,2.5  ,0.75346  ,4.9
310  ,7.496e+08   ,2.5  ,0.95055  ,4.9
311  ,8.875e+08   ,2.5  ,1.1476  ,4.9
312  ,1.077e+09   ,2.5  ,1.3447  ,4.9
313  ,1.317e+09   ,2.5  ,1.5418  ,4.9
314  ,1.758e+09   ,2.5  ,1.7389  ,4.9
315  ,2.282e+09   ,2.5  ,1.936  ,4.9
316  ,3.515e+09   ,2.5  ,-2.4  ,4.7
317  ,1.978e+09   ,2.5  ,-2.4  ,4.5
318  ,1.595e+09   ,2.5  ,-2.4  ,4.3
319  ,7.452e+08   ,2.5  ,-2.4  ,4.1
320  ,3.001e+08   ,2.5  ,-2.4  ,3.9
321  ,6.956e+08   ,2.5  ,-2.4  ,3.7
322  ,1.100e+09   ,2.5  ,-2.4  ,3.5
323  ,1.277e+09   ,2.5  ,-2.4  ,3.3
324  ,1.399e+09   ,2.5  ,-2.4  ,3.1
325  ,1.386e+09   ,2.5  ,-2.4  ,2.9
326  ,1.498e+09   ,2.5  ,-2.4  ,2.7
327  ,1.558e+09   ,2.5  ,-2.4  ,2.5
328  ,1.220e+09   ,2.5  ,-2.4  ,2.3
329  ,1.170e+09   ,2.5  ,-2.4  ,2.1
330  ,8.964e+08   ,2.5  ,-2.4  ,1.9
331  ,7.636e+08   ,2.5  ,-2.4  ,1.7
332  ,6.320e+08   ,2.5  ,-2.4  ,1.5
333  ,5.944e+08   ,2.5  ,-2.4  ,1.3
334  ,6.378e+08   ,2.5  ,-2.4  ,1.1
335  ,7.455e+08   ,2.5  ,-2.4  ,0.9
336  ,9.207e+08   ,2.5  ,-2.4  ,0.7
337  ,9.872e+08   ,2.5  ,-2.4  ,0.5
338  ,1.279e+09   ,2.5  ,-2.4  ,0.3
339  ,5.806e+08   ,2.5  ,-2.2  ,0.1
340  ,6.482e+08   ,2.5  ,-2  ,0.1
341  ,4.489e+08   ,2.5  ,-1.8  ,0.1
342  ,4.232e+08   ,2.5  ,-1.6  ,0.1
343  ,2.701e+08   ,2.5  ,-1.4  ,0.1
344  ,2.212e+08   ,2.5  ,-1.2  ,0.1
345  ,2.230e+08   ,2.5  ,-1  ,0.1
346  ,1.743e+08   ,2.5  ,-0.8  ,0.1
347  ,1.982e+08   ,2.5  ,-0.6  ,0.1
348  ,2.640e+08   ,2.5  ,-0.4  ,0.1
349  ,4.432e+08   ,2.5  ,-0.2  ,0.1
350  ,5.658e+08   ,2.5  ,-1.7664E-15  ,0.1
351  ,6.199e+08   ,2.5  ,0.2  ,0.1
352  ,6.269e+08   ,2.5  ,0.4  ,0.1
353  ,8.458e+08   ,2.5  ,0.6  ,0.1
354  ,1.060e+09   ,2.5  ,0.8  ,0.1
355  ,8.138e+08   ,2.5  ,1  ,0.1
356  ,7.589e+08   ,2.5  ,1.2  ,0.1
357  ,6.105e+08   ,2.5  ,1.4  ,0.1
358  ,5.277e+08   ,2.5  ,1.6  ,0.1
359  ,4.629e+08   ,2.5  ,1.8  ,0.1
360  ,4.178e+08   ,2.5  ,2  ,0.1
361  ,3.036e+08   ,2.5  ,2.2  ,0.1
362  ,3.344e+09   ,2.5  ,2.4  ,4.436
363  ,2.269e+09   ,2.5  ,2.4  ,4.2389
364  ,1.535e+09   ,2.5  ,2.4  ,4.0418
365  ,1.250e+09   ,2.5  ,2.4  ,3.8447
366  ,9.976e+08   ,2.5  ,2.4  ,3.6476
367  ,7.922e+08   ,2.5  ,2.4  ,3.4505
368  ,6.709e+08   ,2.5  ,2.4  ,3.2535
369  ,7.814e+08   ,2.5  ,2.4  ,3.0564
370  ,7.696e+08   ,2.5  ,2.4  ,2.8593
371  ,7.469e+08   ,2.5  ,2.4  ,2.6622
372  ,8.824e+08   ,2.5  ,2.4  ,2.4651
373  ,9.372e+08   ,2.5  ,2.4  ,2.268
374  ,1.025e+09   ,2.5  ,2.4  ,2.0709
375  ,9.964e+08   ,2.5  ,2.4  ,1.8738
376  ,1.149e+09   ,2.5  ,2.4  ,1.6767
377  ,9.742e+08   ,2.5  ,2.4  ,1.4796
378  ,1.021e+09   ,2.5  ,2.4  ,1.2825
379  ,9.548e+08   ,2.5  ,2.4  ,1.0855
380  ,8.347e+08   ,2.5  ,2.4  ,0.88836
381  ,6.326e+08   ,2.5  ,2.4  ,0.69127
382  ,3.317e+08   ,2.5  ,2.4  ,0.49418
383  ,1.995e+08   ,2.5  ,2.4  ,0.29709
384  ,3.210e+09   ,2.5  ,2.2665  ,4.7665
544  ,4.224e+08   ,2.2  ,2.5  ,0.1
545  ,6.165e+08   ,2  ,2.5  ,0.1
546  ,6.524e+08   ,1.8  ,2.5  ,0.1
547  ,7.220e+08   ,1.6  ,2.5  ,0.1
548  ,6.520e+08   ,1.4  ,2.5  ,0.1
549  ,8.358e+08   ,1.2  ,2.5  ,0.1
550  ,9.349e+08   ,1  ,2.5  ,0.1
551  ,1.222e+09   ,0.8  ,2.5  ,0.1
552  ,8.834e+08   ,0.6  ,2.5  ,0.1
553  ,4.321e+08   ,0.4  ,2.5  ,0.1
554  ,3.600e+08   ,0.2  ,2.5  ,0.1
555  ,1.581e+08   ,5.8879E-16  ,2.5  ,0.1
556  ,3.657e+08   ,-0.2  ,2.5  ,0.1
557  ,3.829e+08   ,-0.4  ,2.5  ,0.1
558  ,3.265e+08   ,-0.6  ,2.5  ,0.1
559  ,6.002e+08   ,-0.8  ,2.5  ,0.1
560  ,6.593e+08   ,-1  ,2.5  ,0.1
561  ,7.316e+08   ,-1.2  ,2.5  ,0.1
562  ,7.217e+08   ,-1.4  ,2.5  ,0.1
563  ,7.485e+08   ,-1.6  ,2.5  ,0.1
564  ,7.651e+08   ,-1.8  ,2.5  ,0.1
565  ,7.837e+08   ,-2  ,2.5  ,0.1
566  ,6.834e+08   ,-2.2  ,2.5  ,0.1
567  ,4.737e+08   ,-2.4  ,2.5  ,4.7
568  ,6.869e+08   ,-2.4  ,2.5  ,4.5
569  ,6.870e+08   ,-2.4  ,2.5  ,4.3
570  ,7.736e+08   ,-2.4  ,2.5  ,4.1
571  ,6.658e+08   ,-2.4  ,2.5  ,3.9
572  ,7.107e+08   ,-2.4  ,2.5  ,3.7
573  ,8.462e+08   ,-2.4  ,2.5  ,3.5
574  ,1.056e+09   ,-2.4  ,2.5  ,3.3
575  ,6.997e+08   ,-2.4  ,2.5  ,3.1
576  ,5.098e+08   ,-2.4  ,2.5  ,2.9
577  ,4.566e+08   ,-2.4  ,2.5  ,2.7
578  ,3.205e+08   ,-2.4  ,2.5  ,2.5
579  ,2.828e+08   ,-2.4  ,2.5  ,2.3
580  ,3.515e+08   ,-2.4  ,2.5  ,2.1
581  ,3.932e+08   ,-2.4  ,2.5  ,1.9
582  ,5.295e+08   ,-2.4  ,2.5  ,1.7
583  ,6.258e+08   ,-2.4  ,2.5  ,1.5
584  ,7.593e+08   ,-2.4  ,2.5  ,1.3
585  ,7.672e+08   ,-2.4  ,2.5  ,1.1
586  ,8.250e+08   ,-2.4  ,2.5  ,0.9
587  ,7.822e+08   ,-2.4  ,2.5  ,0.7
588  ,7.738e+08   ,-2.4  ,2.5  ,0.5
589  ,7.322e+08   ,-2.4  ,2.5  ,0.3
590  ,3.802e+09   ,1.936  ,2.5  ,4.9
591  ,1.920e+09   ,1.7389  ,2.5  ,4.9
592  ,1.398e+09   ,1.5418  ,2.5  ,4.9
593  ,1.175e+09   ,1.3447  ,2.5  ,4.9
594  ,8.456e+08   ,1.1476  ,2.5  ,4.9
595  ,7.202e+08   ,0.95055  ,2.5  ,4.9
596  ,7.209e+08   ,0.75346  ,2.5  ,4.9
597  ,6.702e+08   ,0.55637  ,2.5  ,4.9
598  ,7.373e+08   ,0.35927  ,2.5  ,4.9
599  ,6.645e+08   ,0.16218  ,2.5  ,4.9
600  ,7.002e+08   ,-0.034907  ,2.5  ,4.9
601  ,7.981e+08   ,-0.232  ,2.5  ,4.9
602  ,1.297e+09   ,-0.42909  ,2.5  ,4.9
603  ,1.344e+09   ,-0.62618  ,2.5  ,4.9
604  ,1.328e+09   ,-0.82327  ,2.5  ,4.9
605  ,1.490e+09   ,-1.0204  ,2.5  ,4.9
606  ,1.356e+09   ,-1.2175  ,2.5  ,4.9
607  ,1.046e+09   ,-1.4145  ,2.5  ,4.9
608  ,7.919e+08   ,-1.6116  ,2.5  ,4.9
609  ,5.315e+08   ,-1.8087  ,2.5  ,4.9
610  ,3.474e+08   ,-2.0058  ,2.5  ,4.9
611  ,2.540e+08   ,-2.2029  ,2.5  ,4.9
612  ,4.878e+09   ,2.2665  ,2.5  ,4.7665
613  ,3.373e+09   ,2.4  ,2.5  ,4.436
614  ,2.104e+09   ,2.4  ,2.5  ,4.2389
615  ,1.484e+09   ,2.4  ,2.5  ,4.0418
616  ,1.139e+09   ,2.4  ,2.5  ,3.8447
617  ,9.241e+08   ,2.4  ,2.5  ,3.6476
618  ,7.640e+08   ,2.4  ,2.5  ,3.4505
619  ,7.769e+08   ,2.4  ,2.5  ,3.2535
620  ,7.373e+08   ,2.4  ,2.5  ,3.0564
621  ,7.134e+08   ,2.4  ,2.5  ,2.8593
622  ,6.943e+08   ,2.4  ,2.5  ,2.6622
623  ,7.415e+08   ,2.4  ,2.5  ,2.4651
624  ,7.377e+08   ,2.4  ,2.5  ,2.268
625  ,8.510e+08   ,2.4  ,2.5  ,2.0709
626  ,9.790e+08   ,2.4  ,2.5  ,1.8738
627  ,1.192e+09   ,2.4  ,2.5  ,1.6767
628  ,1.363e+09   ,2.4  ,2.5  ,1.4796
629  ,1.420e+09   ,2.4  ,2.5  ,1.2825
630  ,9.529e+08   ,2.4  ,2.5  ,1.0855
631  ,7.189e+08   ,2.4  ,2.5  ,0.88836
632  ,5.009e+08   ,2.4  ,2.5  ,0.69127
633  ,3.758e+08   ,2.4  ,2.5  ,0.49418
634  ,2.488e+08   ,2.4  ,2.5  ,0.29709
796  ,3.933e+08   ,-2.5  ,2.2  ,0.1
797  ,4.874e+08   ,-2.5  ,2  ,0.1
798  ,6.136e+08   ,-2.5  ,1.8  ,0.1
799  ,6.417e+08   ,-2.5  ,1.6  ,0.1
800  ,7.157e+08   ,-2.5  ,1.4  ,0.1
801  ,8.012e+08   ,-2.5  ,1.2  ,0.1
802  ,7.565e+08   ,-2.5  ,1  ,0.1
803  ,8.033e+08   ,-2.5  ,0.8  ,0.1
804  ,8.695e+08   ,-2.5  ,0.6  ,0.1
805  ,9.332e+08   ,-2.5  ,0.4  ,0.1
806  ,8.284e+08   ,-2.5  ,0.2  ,0.1
807  ,7.444e+08   ,-2.5  ,5.8879E-16  ,0.1
808  ,7.206e+08   ,-2.5  ,-0.2  ,0.1
809  ,7.195e+08   ,-2.5  ,-0.4  ,0.1
810  ,7.362e+08   ,-2.5  ,-0.6  ,0.1
811  ,6.538e+08   ,-2.5  ,-0.8  ,0.1
812  ,7.166e+08   ,-2.5  ,-1  ,0.1
813  ,5.844e+08   ,-2.5  ,-1.2  ,0.1
814  ,6.012e+08   ,-2.5  ,-1.4  ,0.1
815  ,4.972e+08   ,-2.5  ,-1.6  ,0.1
816  ,4.309e+08   ,-2.5  ,-1.8  ,0.1
817  ,5.042e+08   ,-2.5  ,-2  ,0.1
818  ,3.466e+08   ,-2.5  ,-2.2  ,0.1
819  ,1.092e+09   ,-2.5  ,-2.4  ,4.7
820  ,7.288e+08   ,-2.5  ,-2.4  ,4.5
821  ,4.783e+08   ,-2.5  ,-2.4  ,4.3
822  ,6.790e+08   ,-2.5  ,-2.4  ,4.1
823  ,9.997e+08   ,-2.5  ,-2.4  ,3.9
824  ,1.140e+09   ,-2.5  ,-2.4  ,3.7
825  ,1.359e+09   ,-2.5  ,-2.4  ,3.5
826  ,1.439e+09   ,-2.5  ,-2.4  ,3.3
827  ,1.803e+09   ,-2.5  ,-2.4  ,3.1
828  ,1.800e+09   ,-2.5  ,-2.4  ,2.9
829  ,1.674e+09   ,-2.5  ,-2.4  ,2.7
830  ,1.826e+09   ,-2.5  ,-2.4  ,2.5
831  ,1.356e+09   ,-2.5  ,-2.4  ,2.3
832  ,1.067e+09   ,-2.5  ,-2.4  ,2.1
833  ,6.832e+08   ,-2.5  ,-2.4  ,1.9
834  ,4.628e+08   ,-2.5  ,-2.4  ,1.7
835  ,8.987e+07   ,-2.5  ,-2.4  ,1.5
836  ,2.419e+08   ,-2.5  ,-2.4  ,1.3
837  ,4.397e+08   ,-2.5  ,-2.4  ,1.1
838  ,7.026e+08   ,-2.5  ,-2.4  ,0.9
839  ,8.662e+08   ,-2.5  ,-2.4  ,0.7
840  ,8.015e+08   ,-2.5  ,-2.4  ,0.5
841  ,6.309e+08   ,-2.5  ,-2.4  ,0.3
842  ,3.656e+08   ,-2.5  ,2.2  ,4.9
843  ,5.252e+08   ,-2.5  ,2  ,4.9
844  ,5.913e+08   ,-2.5  ,1.8  ,4.9
845  ,5.854e+08   ,-2.5  ,1.6  ,4.9
846  ,5.373e+08   ,-2.5  ,1.4  ,4.9
847  ,5.567e+08   ,-2.5  ,1.2  ,4.9
848  ,5.843e+08   ,-2.5  ,1  ,4.9
849  ,8.421e+08   ,-2.5  ,0.8  ,4.9
850  ,8.377e+08   ,-2.5  ,0.6  ,4.9
851  ,8.212e+08   ,-2.5  ,0.4  ,4.9
852  ,7.808e+08   ,-2.5  ,0.2  ,4.9
853  ,5.485e+08   ,-2.5  ,5.8879E-16  ,4.9
854  ,5.122e+08   ,-2.5  ,-0.2  ,4.9
855  ,3.945e+08   ,-2.5  ,-0.4  ,4.9
856  ,3.512e+08   ,-2.5  ,-0.6  ,4.9
857  ,3.441e+08   ,-2.5  ,-0.8  ,4.9
858  ,3.031e+08   ,-2.5  ,-1  ,4.9
859  ,2.586e+08   ,-2.5  ,-1.2  ,4.9
860  ,2.888e+08   ,-2.5  ,-1.4  ,4.9
861  ,2.899e+08   ,-2.5  ,-1.6  ,4.9
862  ,3.701e+08   ,-2.5  ,-1.8  ,4.9
863  ,5.252e+08   ,-2.5  ,-2  ,4.9
864  ,5.381e+08   ,-2.5  ,-2.2  ,4.9
865  ,4.697e+08   ,-2.5  ,2.4  ,4.7
866  ,7.180e+08   ,-2.5  ,2.4  ,4.5
867  ,7.248e+08   ,-2.5  ,2.4  ,4.3
868  ,5.841e+08   ,-2.5  ,2.4  ,4.1
869  ,7.177e+08   ,-2.5  ,2.4  ,3.9
870  ,7.320e+08   ,-2.5  ,2.4  ,3.7
871  ,7.852e+08   ,-2.5  ,2.4  ,3.5
872  ,9.599e+08   ,-2.5  ,2.4  ,3.3
873  ,7.734e+08   ,-2.5  ,2.4  ,3.1
874  ,4.168e+08   ,-2.5  ,2.4  ,2.9
875  ,3.523e+08   ,-2.5  ,2.4  ,2.7
876  ,3.170e+08   ,-2.5  ,2.4  ,2.5
877  ,2.989e+08   ,-2.5  ,2.4  ,2.3
878  ,3.353e+08   ,-2.5  ,2.4  ,2.1
879  ,2.250e+08   ,-2.5  ,2.4  ,1.9
880  ,4.196e+08   ,-2.5  ,2.4  ,1.7
881  ,7.502e+08   ,-2.5  ,2.4  ,1.5
882  ,8.498e+08   ,-2.5  ,2.4  ,1.3
883  ,7.885e+08   ,-2.5  ,2.4  ,1.1
884  ,8.329e+08   ,-2.5  ,2.4  ,0.9
885  ,7.980e+08   ,-2.5  ,2.4  ,0.7
886  ,8.042e+08   ,-2.5  ,2.4  ,0.5
887  ,6.596e+08   ,-2.5  ,2.4  ,0.3
1044  ,4.161e+08   ,-2.3  ,-2.5  ,0.44697
1045  ,6.758e+08   ,-2.3  ,-2.5  ,0.68705
1046  ,5.669e+08   ,-2.3  ,-2.5  ,0.92554
1047  ,4.191e+08   ,-2.3  ,-2.5  ,1.1682
1048  ,3.136e+08   ,-2.3  ,-2.5  ,1.4148
1049  ,3.579e+07   ,-2.3  ,-2.5  ,1.6581
1050  ,3.186e+08   ,-2.3  ,-2.5  ,1.8967
1051  ,6.134e+08   ,-2.3  ,-2.5  ,2.1357
1052  ,9.577e+08   ,-2.3  ,-2.5  ,2.3794
1053  ,1.139e+09   ,-2.3  ,-2.5  ,2.6206
1054  ,1.243e+09   ,-2.3  ,-2.5  ,2.8643
1055  ,1.244e+09   ,-2.3  ,-2.5  ,3.1033
1056  ,1.056e+09   ,-2.3  ,-2.5  ,3.342
1057  ,9.209e+08   ,-2.3  ,-2.5  ,3.5852
1058  ,8.545e+08   ,-2.3  ,-2.5  ,3.8318
1059  ,5.342e+08   ,-2.3  ,-2.5  ,4.0745
1060  ,3.661e+08   ,-2.3  ,-2.5  ,4.3129
1061  ,8.695e+08   ,-2.3  ,-2.5  ,4.553
1062  ,1.278e+09   ,-2.053  ,-2.5  ,4.8
1063  ,1.022e+09   ,-1.8129  ,-2.5  ,4.8
1064  ,7.835e+08   ,-1.5745  ,-2.5  ,4.8
1065  ,5.748e+08   ,-1.3318  ,-2.5  ,4.8
1066  ,6.264e+08   ,-1.0852  ,-2.5  ,4.8
1067  ,6.746e+08   ,-0.84195  ,-2.5  ,4.8
1068  ,8.285e+08   ,-0.60329  ,-2.5  ,4.8
1069  ,9.977e+08   ,-0.3643  ,-2.5  ,4.8
1070  ,1.065e+09   ,-0.12055  ,-2.5  ,4.8
1071  ,1.144e+09   ,0.12056  ,-2.5  ,4.8
1072  ,1.161e+09   ,0.3643  ,-2.5  ,4.8
1073  ,1.056e+09   ,0.6033  ,-2.5  ,4.8
1074  ,8.784e+08   ,0.84195  ,-2.5  ,4.8
1075  ,3.901e+08   ,1.0852  ,-2.5  ,4.8
1076  ,5.321e+08   ,1.3318  ,-2.5  ,4.8
1077  ,1.264e+09   ,1.5745  ,-2.5  ,4.8
1078  ,1.830e+09   ,1.8129  ,-2.5  ,4.8
1079  ,2.842e+09   ,2.053  ,-2.5  ,4.8
1080  ,2.942e+09   ,2.3  ,-2.5  ,4.553
1081  ,1.841e+09   ,2.3  ,-2.5  ,4.3129
1082  ,1.193e+09   ,2.3  ,-2.5  ,4.0745
1083  ,3.747e+08   ,2.3  ,-2.5  ,3.8318
1084  ,3.744e+08   ,2.3  ,-2.5  ,3.5852
1085  ,7.025e+08   ,2.3  ,-2.5  ,3.3419
1086  ,9.392e+08   ,2.3  ,-2.5  ,3.1033
1087  ,1.115e+09   ,2.3  ,-2.5  ,2.8643
1088  ,1.214e+09   ,2.3  ,-2.5  ,2.6206
1089  ,1.143e+09   ,2.3  ,-2.5  ,2.3794
1090  ,1.035e+09   ,2.3  ,-2.5  ,2.1357
1091  ,8.361e+08   ,2.3  ,-2.5  ,1.8967
1092  ,6.788e+08   ,2.3  ,-2.5  ,1.658
1093  ,5.431e+08   ,2.3  ,-2.5  ,1.4148
1094  ,5.368e+08   ,2.3  ,-2.5  ,1.1682
1095  ,7.356e+08   ,2.3  ,-2.5  ,0.92554
1096  ,9.610e+08   ,2.3  ,-2.5  ,0.68705
1097  ,1.181e+09   ,2.3  ,-2.5  ,0.44697
1098  ,4.877e+08   ,-2.053  ,-2.5  ,0.2
1099  ,6.408e+08   ,-1.8129  ,-2.5  ,0.2
1100  ,6.344e+08   ,-1.5745  ,-2.5  ,0.2
1101  ,4.729e+08   ,-1.3318  ,-2.5  ,0.2
1102  ,3.193e+08   ,-1.0852  ,-2.5  ,0.2
1103  ,9.723e+07   ,-0.84195  ,-2.5  ,0.2
1104  ,4.341e+08   ,-0.60329  ,-2.5  ,0.2
1105  ,8.070e+08   ,-0.3643  ,-2.5  ,0.2
1106  ,1.076e+09   ,-0.12055  ,-2.5  ,0.2
1107  ,1.099e+09   ,0.12056  ,-2.5  ,0.2
1108  ,1.155e+09   ,0.3643  ,-2.5  ,0.2
1109  ,1.250e+09   ,0.6033  ,-2.5  ,0.2
1110  ,1.166e+09   ,0.84195  ,-2.5  ,0.2
1111  ,9.449e+08   ,1.0852  ,-2.5  ,0.2
1112  ,8.199e+08   ,1.3318  ,-2.5  ,0.2
1113  ,5.507e+08   ,1.5745  ,-2.5  ,0.2
1114  ,3.722e+08   ,1.8129  ,-2.5  ,0.2
1115  ,9.231e+08   ,2.053  ,-2.5  ,0.2
1116  ,5.628e+08   ,-2.2  ,-2.5  ,4.9
1117  ,3.044e+08   ,-2  ,-2.5  ,4.9
1118  ,3.461e+08   ,-1.8  ,-2.5  ,4.9
1119  ,3.447e+08   ,-1.6  ,-2.5  ,4.9
1120  ,2.485e+08   ,-1.4  ,-2.5  ,4.9
1121  ,1.368e+08   ,-1.2  ,-2.5  ,4.9
1122  ,8.659e+07   ,-1  ,-2.5  ,4.9
1123  ,1.050e+08   ,-0.8  ,-2.5  ,4.9
1124  ,2.054e+08   ,-0.6  ,-2.5  ,4.9
1125  ,1.456e+08   ,-0.4  ,-2.5  ,4.9
1126  ,2.375e+08   ,-0.2  ,-2.5  ,4.9
1127  ,1.978e+08   ,-1.7664E-15  ,-2.5  ,4.9
1128  ,2.584e+08   ,0.2  ,-2.5  ,4.9
1129  ,2.733e+08   ,0.4  ,-2.5  ,4.9
1130  ,1.392e+08   ,0.6  ,-2.5  ,4.9
1131  ,3.177e+08   ,0.8  ,-2.5  ,4.9
1132  ,5.587e+08   ,1  ,-2.5  ,4.9
1133  ,7.433e+08   ,1.2  ,-2.5  ,4.9
1134  ,7.047e+08   ,1.4  ,-2.5  ,4.9
1135  ,5.322e+08   ,1.6  ,-2.5  ,4.9
1136  ,5.029e+08   ,1.8  ,-2.5  ,4.9
1137  ,4.693e+08   ,2  ,-2.5  ,4.9
1138  ,7.859e+08   ,2.2  ,-2.5  ,4.9
1139  ,4.326e+08   ,-2.4  ,-2.5  ,4.7
1140  ,4.955e+08   ,-2.4  ,-2.5  ,4.5
1141  ,5.260e+08   ,-2.4  ,-2.5  ,4.3
1142  ,5.605e+08   ,-2.4  ,-2.5  ,4.1
1143  ,3.816e+08   ,-2.4  ,-2.5  ,3.9
1144  ,3.210e+08   ,-2.4  ,-2.5  ,3.7
1145  ,2.101e+08   ,-2.4  ,-2.5  ,3.5
1146  ,4.030e+08   ,-2.4  ,-2.5  ,3.3
1147  ,2.450e+08   ,-2.4  ,-2.5  ,3.1
1148  ,3.365e+08   ,-2.4  ,-2.5  ,2.9
1149  ,4.767e+08   ,-2.4  ,-2.5  ,2.7
1150  ,4.560e+08   ,-2.4  ,-2.5  ,2.5
1151  ,5.513e+08   ,-2.4  ,-2.5  ,2.3
1152  ,3.946e+08   ,-2.4  ,-2.5  ,2.1
1153  ,3.047e+08   ,-2.4  ,-2.5  ,1.9
1154  ,2.482e+08   ,-2.4  ,-2.5  ,1.7
1155  ,1.858e+08   ,-2.4  ,-2.5  ,1.5
1156  ,4.885e+07   ,-2.4  ,-2.5  ,1.3
1157  ,7.129e+07   ,-2.4  ,-2.5  ,1.1
1158  ,1.945e+08   ,-2.4  ,-2.5  ,0.9
1159  ,3.314e+08   ,-2.4  ,-2.5  ,0.7
1160  ,2.835e+08   ,-2.4  ,-2.5  ,0.5
1161  ,3.249e+08   ,-2.4  ,-2.5  ,0.3
1162  ,3.948e+08   ,-2.2  ,-2.5  ,0.1
1163  ,2.960e+08   ,-2  ,-2.5  ,0.1
1164  ,3.359e+08   ,-1.8  ,-2.5  ,0.1
1165  ,1.133e+08   ,-1.6  ,-2.5  ,0.1
1166  ,4.533e+07   ,-1.4  ,-2.5  ,0.1
1167  ,1.093e+08   ,-1.2  ,-2.5  ,0.1
1168  ,1.588e+08   ,-1  ,-2.5  ,0.1
1169  ,3.112e+08   ,-0.8  ,-2.5  ,0.1
1170  ,4.064e+08   ,-0.6  ,-2.5  ,0.1
1171  ,4.424e+08   ,-0.4  ,-2.5  ,0.1
1172  ,3.912e+08   ,-0.2  ,-2.5  ,0.1
1173  ,4.049e+08   ,-1.7664E-15  ,-2.5  ,0.1
1174  ,3.292e+08   ,0.2  ,-2.5  ,0.1
1175  ,3.022e+08   ,0.4  ,-2.5  ,0.1
1176  ,3.759e+08   ,0.6  ,-2.5  ,0.1
1177  ,2.650e+08   ,0.8  ,-2.5  ,0.1
1178  ,3.219e+08   ,1  ,-2.5  ,0.1
1179  ,3.213e+08   ,1.2  ,-2.5  ,0.1
1180  ,3.881e+08   ,1.4  ,-2.5  ,0.1
1181  ,5.598e+08   ,1.6  ,-2.5  ,0.1
1182  ,5.574e+08   ,1.8  ,-2.5  ,0.1
1183  ,4.245e+08   ,2  ,-2.5  ,0.1
1184  ,4.181e+08   ,2.2  ,-2.5  ,0.1
1185  ,6.769e+08   ,2.4  ,-2.5  ,4.7
1186  ,4.804e+08   ,2.4  ,-2.5  ,4.5
1187  ,5.187e+08   ,2.4  ,-2.5  ,4.3
1188  ,6.112e+08   ,2.4  ,-2.5  ,4.1
1189  ,5.306e+08   ,2.4  ,-2.5  ,3.9
1190  ,6.034e+08   ,2.4  ,-2.5  ,3.7
1191  ,4.563e+08   ,2.4  ,-2.5  ,3.5
1192  ,3.758e+08   ,2.4  ,-2.5  ,3.3
1193  ,3.256e+08   ,2.4  ,-2.5  ,3.1
1194  ,3.178e+08   ,2.4  ,-2.5  ,2.9
1195  ,2.244e+08   ,2.4  ,-2.5  ,2.7
1196  ,1.534e+08   ,2.4  ,-2.5  ,2.5
1197  ,2.318e+08   ,2.4  ,-2.5  ,2.3
1198  ,1.371e+08   ,2.4  ,-2.5  ,2.1
1199  ,1.602e+08   ,2.4  ,-2.5  ,1.9
1200  ,9.499e+07   ,2.4  ,-2.5  ,1.7
1201  ,9.223e+07   ,2.4  ,-2.5  ,1.5
1202  ,1.223e+08   ,2.4  ,-2.5  ,1.3
1203  ,2.610e+08   ,2.4  ,-2.5  ,1.1
1204  ,3.305e+08   ,2.4  ,-2.5  ,0.9
1205  ,3.354e+08   ,2.4  ,-2.5  ,0.7
1206  ,3.325e+08   ,2.4  ,-2.5  ,0.5
1207  ,4.999e+08   ,2.4  ,-2.5  ,0.3
1208  ,5.255e+08   ,2.4  ,-2.2  ,0
1209  ,5.486e+08   ,2.4  ,-2  ,0
1210  ,4.193e+08   ,2.4  ,-1.8  ,0
1211  ,3.495e+08   ,2.4  ,-1.6  ,0
1212  ,3.425e+08   ,2.4  ,-1.4  ,0
1213  ,2.197e+08   ,2.4  ,-1.2  ,0
1214  ,2.365e+08   ,2.4  ,-1  ,0
1215  ,2.220e+08   ,2.4  ,-0.8  ,0
1216  ,2.328e+08   ,2.4  ,-0.6  ,0
1217  ,2.730e+08   ,2.4  ,-0.4  ,0
1218  ,4.499e+08   ,2.4  ,-0.2  ,0
1219  ,5.436e+08   ,2.4  ,-1.7664E-15  ,0
1220  ,6.339e+08   ,2.4  ,0.2  ,0
1221  ,6.895e+08   ,2.4  ,0.4  ,0
1222  ,8.522e+08   ,2.4  ,0.6  ,0
1223  ,8.278e+08   ,2.4  ,0.8  ,0
1224  ,6.502e+08   ,2.4  ,1  ,0
1225  ,6.282e+08   ,2.4  ,1.2  ,0
1226  ,5.723e+08   ,2.4  ,1.4  ,0
1227  ,5.221e+08   ,2.4  ,1.6  ,0
1228  ,6.257e+08   ,2.4  ,1.8  ,0
1229  ,5.786e+08   ,2.4  ,2  ,0
1230  ,3.448e+08   ,2.4  ,2.2  ,0
1231  ,7.430e+08   ,-2.2  ,-2.4  ,0
1232  ,8.442e+08   ,-2  ,-2.4  ,0
1233  ,8.333e+08   ,-1.8  ,-2.4  ,0
1234  ,6.867e+08   ,-1.6  ,-2.4  ,0
1235  ,4.055e+08   ,-1.4  ,-2.4  ,0
1236  ,1.926e+08   ,-1.2  ,-2.4  ,0
1237  ,5.995e+07   ,-1  ,-2.4  ,0
1238  ,4.445e+08   ,-0.8  ,-2.4  ,0
1239  ,8.633e+08   ,-0.6  ,-2.4  ,0
1240  ,1.200e+09   ,-0.4  ,-2.4  ,0
1241  ,1.488e+09   ,-0.2  ,-2.4  ,0
1242  ,1.706e+09   ,5.8879E-16  ,-2.4  ,0
1243  ,1.662e+09   ,0.2  ,-2.4  ,0
1244  ,1.686e+09   ,0.4  ,-2.4  ,0
1245  ,1.579e+09   ,0.6  ,-2.4  ,0
1246  ,1.599e+09   ,0.8  ,-2.4  ,0
1247  ,1.299e+09   ,1  ,-2.4  ,0
1248  ,1.162e+09   ,1.2  ,-2.4  ,0
1249  ,9.666e+08   ,1.4  ,-2.4  ,0
1250  ,6.301e+08   ,1.6  ,-2.4  ,0
1251  ,4.825e+08   ,1.8  ,-2.4  ,0
1252  ,7.074e+08   ,2  ,-2.4  ,0
1253  ,1.208e+09   ,2.2  ,-2.4  ,0
1254  ,3.972e+08   ,-2.4  ,2.2  ,0
1255  ,5.716e+08   ,-2.4  ,2  ,0
1256  ,5.512e+08   ,-2.4  ,1.8  ,0
1257  ,6.649e+08   ,-2.4  ,1.6  ,0
1258  ,7.799e+08   ,-2.4  ,1.4  ,0
1259  ,9.101e+08   ,-2.4  ,1.2  ,0
1260  ,8.370e+08   ,-2.4  ,1  ,0
1261  ,8.312e+08   ,-2.4  ,0.8  ,0
1262  ,7.962e+08   ,-2.4  ,0.6  ,0
1263  ,7.984e+08   ,-2.4  ,0.4  ,0
1264  ,7.882e+08   ,-2.4  ,0.2  ,0
1265  ,8.124e+08   ,-2.4  ,5.8879E-16  ,0
1266  ,8.918e+08   ,-2.4  ,-0.2  ,0
1267  ,6.861e+08   ,-2.4  ,-0.4  ,0
1268  ,7.630e+08   ,-2.4  ,-0.6  ,0
1269  ,6.745e+08   ,-2.4  ,-0.8  ,0
1270  ,7.361e+08   ,-2.4  ,-1  ,0
1271  ,6.547e+08   ,-2.4  ,-1.2  ,0
1272  ,5.349e+08   ,-2.4  ,-1.4  ,0
1273  ,5.025e+08   ,-2.4  ,-1.6  ,0
1274  ,4.589e+08   ,-2.4  ,-1.8  ,0
1275  ,5.067e+08   ,-2.4  ,-2  ,0
1276  ,3.738e+08   ,-2.4  ,-2.2  ,0
1277  ,4.087e+08   ,2.2  ,2.4  ,0
1278  ,6.559e+08   ,2  ,2.4  ,0
1279  ,6.936e+08   ,1.8  ,2.4  ,0
1280  ,5.657e+08   ,1.6  ,2.4  ,0
1281  ,5.126e+08   ,1.4  ,2.4  ,0
1282  ,6.943e+08   ,1.2  ,2.4  ,0
1283  ,7.838e+08   ,1  ,2.4  ,0
1284  ,1.076e+09   ,0.8  ,2.4  ,0
1285  ,9.039e+08   ,0.6  ,2.4  ,0
1286  ,4.522e+08   ,0.4  ,2.4  ,0
1287  ,3.570e+08   ,0.2  ,2.4  ,0
1288  ,2.817e+08   ,5.8879E-16  ,2.4  ,0
1289  ,2.621e+08   ,-0.2  ,2.4  ,0
1290  ,3.139e+08   ,-0.4  ,2.4  ,0
1291  ,1.839e+08   ,-0.6  ,2.4  ,0
1292  ,5.259e+08   ,-0.8  ,2.4  ,0
1293  ,7.516e+08   ,-1  ,2.4  ,0
1294  ,8.451e+08   ,-1.2  ,2.4  ,0
1295  ,7.470e+08   ,-1.4  ,2.4  ,0
1296  ,7.197e+08   ,-1.6  ,2.4  ,0
1297  ,7.190e+08   ,-1.8  ,2.4  ,0
1298  ,6.729e+08   ,-2  ,2.4  ,0
1299  ,6.401e+08   ,-2.2  ,2.4  ,0
1460  ,4.651e+09   ,2.3243  ,2.3243  ,4.9577
1461  ,4.427e+09   ,2.4577  ,2.3243  ,4.8243
1462  ,6.944e+09   ,2.3243  ,2.4577  ,4.8243
1463  ,4.164e+08   ,-2.3  ,-2.1759  ,4.8
1464  ,2.624e+08   ,-2.3  ,-1.7631  ,4.8
1465  ,3.345e+08   ,-2.3  ,-1.1827  ,4.8
1466  ,7.833e+08   ,-2.3  ,-0.34986  ,4.8
1467  ,9.447e+08   ,-2.3  ,0.80545  ,4.8
1468  ,9.697e+08   ,-0.81337  ,2.3  ,4.8
1469  ,1.162e+09   ,0.67326  ,2.3  ,4.8
1470  ,1.383e+09   ,2.3  ,-2.1824  ,4.8
1471  ,1.071e+09   ,2.3  ,-1.7784  ,4.8
1472  ,9.994e+08   ,2.3  ,-1.2138  ,4.8
1473  ,1.034e+09   ,2.3  ,-0.40752  ,4.8
1474  ,1.008e+09   ,2.3  ,0.70532  ,4.8
1516  ,9.200e+08   ,2.3  ,2.3  ,1.6866
1517  ,1.240e+09   ,2.3  ,2.3  ,3.1733
1518  ,4.596e+08   ,2.3  ,-2.1759  ,0.2
1519  ,3.032e+08   ,2.3  ,-1.7631  ,0.2
1520  ,2.709e+08   ,2.3  ,-1.1827  ,0.2
1521  ,7.663e+08   ,2.3  ,-0.34986  ,0.2
1522  ,9.649e+08   ,2.3  ,0.80545  ,0.2
1564  ,4.646e+08   ,-0.76667  ,2.3  ,0.2
1565  ,8.792e+08   ,0.76667  ,2.3  ,0.2
1566  ,4.582e+08   ,-2.3  ,2.3  ,1.7333
1567  ,9.141e+08   ,-2.3  ,2.3  ,3.2667
1574  ,2.585e+08   ,-2.3  ,-2.1759  ,0.2
1575  ,2.163e+08   ,-2.3  ,-1.7631  ,0.2
1576  ,1.463e+08   ,-2.3  ,-1.1827  ,0.2
1577  ,2.384e+08   ,-2.3  ,-0.34986  ,0.2
1578  ,2.400e+08   ,-2.3  ,0.80545  ,0.2
1777  ,1.381e+09   ,-0.52764  ,2.5  ,4.9
1801  ,1.034e+09   ,-2.3  ,1.5527  ,0.2
1825  ,8.206e+08   ,-1.5333  ,2.3  ,0.2
1841  ,7.026e+08   ,0.063638  ,2.5  ,4.9
1876  ,2.511e+08   ,-0.5  ,2.4  ,0
1894  ,8.088e+08   ,2.3  ,1.5527  ,0.2
1907  ,5.209e+08   ,2.1  ,2.5  ,0.1
1928  ,6.449e+08   ,1.9  ,2.4  ,0
1974  ,5.776e+08   ,2.4  ,1.1  ,0
1981  ,4.502e+08   ,2.4  ,2.5  ,0.59273
1987  ,6.675e+08   ,-2.5  ,2.4  ,4
2004  ,5.898e+08   ,-2.4  ,2.5  ,4.6
2009  ,5.737e+08   ,2.4  ,1.3  ,0
2020  ,7.298e+08   ,2.5  ,1.1  ,0.1
2035  ,6.047e+08   ,-2.3  ,-0.76628  ,0.2
2070  ,1.804e+09   ,1.6404  ,2.4  ,5
2081  ,9.148e+08   ,2.4  ,2.5  ,1.9724
2095  ,6.572e+08   ,2.4  ,2.5  ,0.78982
2138  ,7.279e+08   ,-2.4  ,-0.1  ,0
2146  ,1.319e+09   ,-0.92182  ,2.4  ,5
2174  ,1.126e+09   ,2.4  ,2.5  ,1.184
2190  ,8.622e+08   ,2.5  ,2.4  ,0.98691
2203  ,1.411e+09   ,2.5  ,-0.13345  ,4.9
2232  ,1.749e+09   ,2.3  ,0.1489  ,4.8
2242  ,7.252e+08   ,2.4  ,2.5  ,2.9578
2293  ,9.732e+08   ,-2.5  ,0.5  ,0.1
2311  ,1.977e+09   ,2.3  ,2.3  ,2.4299
2313  ,7.922e+08   ,2.5  ,2.4  ,0.78982
2329  ,7.710e+08   ,2.4  ,2.5  ,2.1695
2355  ,6.722e+08   ,-2.4  ,2.5  ,4.4
2380  ,5.310e+08   ,-2.5  ,-1.5  ,0.1
2383  ,6.607e+08   ,0.45782  ,2.5  ,4.9
2408  ,1.459e+09   ,2.3  ,-1.4961  ,4.8
2445  ,1.383e+09   ,2.5  ,-1.5131  ,4.9
2484  ,2.784e+08   ,-2.5  ,-2.4  ,1.6
2495  ,5.276e+08   ,-2.4  ,1.7  ,5
2508  ,6.257e+08   ,2.4  ,0.3  ,0
2514  ,1.236e+09   ,2.3  ,0.2278  ,0.2
2570  ,5.647e+08   ,-2.4  ,1.5  ,5
2580  ,1.638e+09   ,1.6404  ,2.5  ,4.9
2603  ,1.511e+09   ,-1.1189  ,2.5  ,4.9
2695  ,8.253e+08   ,2.3  ,2.3  ,0.94331
2705  ,1.469e+09   ,2.4  ,2.5  ,1.3811
2714  ,7.123e+08   ,2.5  ,0.45782  ,4.9
2734  ,2.323e+08   ,2.4  ,-0.9  ,0
2775  ,4.731e+08   ,2.5  ,-0.1  ,0.1
2779  ,4.865e+08   ,2.4  ,-0.1  ,0
2801  ,1.991e+09   ,1.4166  ,2.3  ,4.8
2814  ,1.329e+09   ,1.4433  ,2.5  ,4.9
2863  ,7.455e+08   ,-2.4  ,2.5  ,0.6
2884  ,8.115e+08   ,-2.4  ,2.5  ,0.8
2886  ,7.542e+08   ,-2.4  ,2.5  ,1.2
2967  ,5.626e+08   ,2.4  ,1.7  ,0
2973  ,5.268e+08   ,2.5  ,1.5  ,0.1
2987  ,3.391e+08   ,-0.3  ,2.5  ,0.1
3008  ,8.585e+08   ,-2.3  ,2.3  ,0.96667
3012  ,3.302e+08   ,-2.5  ,2.4  ,2.6
3021  ,3.771e+08   ,-2.5  ,2.4  ,2.8
3025  ,2.856e+08   ,-2.5  ,2.4  ,2.4
3030  ,2.716e+08   ,-2.4  ,2.5  ,2.4
3033  ,3.086e+08   ,-2.4  ,2.5  ,2.2
3047  ,7.079e+08   ,2.4  ,2.5  ,2.3665
3052  ,8.118e+08   ,2.5  ,2.4  ,2.5636
3061  ,7.241e+08   ,2.4  ,2.5  ,2.5636
3081  ,6.385e+08   ,-2.4  ,1.3  ,5
3088  ,4.046e+08   ,-1.9073  ,2.4  ,5
3099  ,5.136e+08   ,-2.4  ,1.9  ,5
3107  ,6.533e+08   ,-2.4  ,2.5  ,3.8
3139  ,8.465e+08   ,-1.5131  ,2.4  ,5
3145  ,9.220e+08   ,-1.5131  ,2.5  ,4.9
3148  ,6.561e+08   ,-1.7102  ,2.5  ,4.9
3168  ,6.881e+08   ,-2.4  ,1.5  ,0
3188  ,5.789e+08   ,-2.5  ,-2.4  ,1
3202  ,6.276e+08   ,0.26073  ,2.5  ,4.9
3212  ,1.506e+09   ,2.5  ,1.6404  ,4.9
3247  ,1.956e+09   ,2.5  ,1.8375  ,4.9
3265  ,1.926e+09   ,2.3  ,1.4326  ,4.8
3271  ,4.284e+09   ,2.2299  ,2.2299  ,4.8
3284  ,1.152e+09   ,2.4  ,1.4433  ,5
3291  ,1.123e+09   ,2.5  ,1.4433  ,4.9
3296  ,5.705e+08   ,-2.3  ,-0.76628  ,4.8
3303  ,3.209e+08   ,-2.4  ,-0.9  ,5
3311  ,2.729e+08   ,-2.4  ,-0.7  ,5
3315  ,6.168e+08   ,1.9  ,2.5  ,0.1
3336  ,7.819e+08   ,-2.4  ,0.3  ,0
3340  ,7.712e+08   ,-2.5  ,0.1  ,0.1
3344  ,7.872e+08   ,-2.4  ,0.1  ,0
3356  ,2.867e+08   ,-0.3  ,2.4  ,0
3361  ,8.852e+08   ,-0.33054  ,2.5  ,4.9
3364  ,7.402e+08   ,-0.13345  ,2.5  ,4.9
3383  ,8.319e+08   ,2.4  ,2.5  ,3.5491
3402  ,4.049e+09   ,2.4  ,2.5  ,4.5345
3421  ,1.172e+09   ,-1.316  ,2.5  ,4.9
3439  ,1.289e+09   ,2.5  ,2.4  ,3.9433
3447  ,1.305e+09   ,2.4  ,2.5  ,3.9433
3451  ,9.844e+08   ,2.4  ,2.5  ,3.7462
3468  ,1.299e+09   ,1.4433  ,2.4  ,5
3480  ,8.145e+08   ,1.0491  ,2.4  ,5
3519  ,6.173e+08   ,1.5  ,2.4  ,0
3527  ,3.517e+08   ,2.3  ,-1.4729  ,0.2
3550  ,6.908e+08   ,-1.7  ,2.4  ,0
3554  ,7.199e+08   ,-1.7  ,2.5  ,0.1
3558  ,7.372e+08   ,-1.5  ,2.4  ,0
3562  ,7.215e+08   ,-1.5  ,2.5  ,0.1
3574  ,3.324e+08   ,-2.4  ,2.1  ,5
3581  ,6.184e+08   ,-2.5  ,1.7  ,0.1
3583  ,5.397e+08   ,-2.5  ,1.9  ,0.1
3584  ,4.093e+08   ,-1.9073  ,2.5  ,4.9
3591  ,6.295e+08   ,2.5  ,0.3  ,0.1
3595  ,5.465e+08   ,2.5  ,0.1  ,0.1
3603  ,8.899e+09   ,2.4577  ,2.391  ,4.7576
3663  ,5.694e+08   ,-1.933  ,-2.5  ,0.2
3669  ,3.636e+08   ,-2.1765  ,-2.5  ,0.2
3672  ,1.901e+08   ,-2.3  ,-2.3379  ,0.2
3682  ,8.018e+08   ,-1.9  ,-2.4  ,0
3700  ,1.156e+09   ,2.3  ,-2.5  ,2.7424
3712  ,2.877e+08   ,-2.1  ,-2.5  ,4.9
3715  ,3.063e+08   ,-1.9  ,-2.5  ,4.9
3740  ,5.502e+08   ,-1.3  ,-2.4  ,5
3746  ,5.865e+08   ,-1.2085  ,-2.5  ,4.8
3755  ,6.378e+08   ,-1.5  ,-2.4  ,5
3760  ,3.145e+08   ,-1.7  ,-2.5  ,4.9
3786  ,1.200e+09   ,2.4  ,2.5  ,1.5782
3813  ,6.893e+08   ,0.26073  ,2.4  ,5
3858  ,6.506e+08   ,-0.9  ,-2.4  ,5
3863  ,6.861e+08   ,-2.5  ,0.9  ,4.9
3875  ,8.381e+08   ,-1.9  ,-2.4  ,5
3885  ,1.246e+09   ,2.4  ,-0.72473  ,5
3910  ,2.499e+08   ,-2.4  ,-2.5  ,3.4
3959  ,1.873e+09   ,2.5  ,2.4  ,4.1404
3969  ,8.141e+08   ,2.5  ,1.0491  ,4.9
3992  ,5.015e+09   ,2.391  ,2.2576  ,4.9577
3993  ,4.882e+09   ,2.4577  ,2.2576  ,4.891
4016  ,2.037e+08   ,-2.3015  ,2.5  ,4.9
4018  ,3.134e+08   ,-2.4  ,2.5  ,4.8
4021  ,9.959e+08   ,1.2462  ,2.4  ,5
4042  ,2.260e+08   ,2.4  ,-1.1  ,0
4046  ,6.415e+08   ,-0.9  ,2.4  ,0
4055  ,4.550e+08   ,1.7  ,-2.5  ,4.9
4087  ,6.510e+08   ,1.7  ,2.4  ,0
4114  ,1.160e+09   ,2.5  ,-0.33054  ,4.9
4120  ,1.455e+08   ,2.4  ,-2.5  ,1.8
4125  ,6.891e+08   ,2.4  ,2.5  ,0.98691
4144  ,2.754e+09   ,2.4  ,2.5  ,4.3375
4161  ,6.988e+08   ,-2.4  ,0.3  ,5
4201  ,5.647e+08   ,1.933  ,-2.5  ,0.2
4225  ,4.717e+08   ,-2.3  ,-2.4  ,0
4230  ,5.664e+08   ,-2.3  ,-2.5  ,0.56701
4269  ,1.014e+08   ,-0.9  ,-2.5  ,4.9
4277  ,5.981e+08   ,-1.1  ,-2.4  ,5
4288  ,1.508e+09   ,-0.070055  ,2.3  ,4.8
4328  ,4.981e+08   ,-2.5  ,-2.4  ,4.2
4336  ,5.575e+08   ,-2.5  ,-2.4  ,4.4
4342  ,8.623e+08   ,-2.5  ,-2.4  ,4.6
4348  ,9.651e+08   ,-2.4  ,-2.4707  ,4.9707
4352  ,3.648e+08   ,-2.3  ,-2.5  ,4.9
4354  ,1.412e+09   ,-2.1765  ,-2.5  ,4.8
4355  ,6.913e+08   ,-2.3  ,-2.3379  ,4.8
4362  ,4.184e+08   ,2.5  ,2.4  ,0.59273
4364  ,1.307e+09   ,2.5  ,-2.4  ,2.4
4366  ,1.146e+09   ,2.5  ,-2.4  ,2.2
4372  ,8.114e+07   ,2.4  ,-2.5  ,2.2
4385  ,4.982e+08   ,-2.5  ,-1.9  ,0.1
4399  ,4.398e+08   ,-2.5  ,2.1  ,0.1
4407  ,6.102e+08   ,-0.7  ,-2.4  ,0
4436  ,7.663e+08   ,-2.5  ,-0.1  ,0.1
4462  ,7.175e+08   ,-2.3  ,2.3  ,4.0333
4491  ,1.032e+09   ,2.5  ,-0.52764  ,4.9
4494  ,5.997e+08   ,2.5  ,-2.4  ,1.4
4503  ,9.009e+07   ,2.4  ,-2.5  ,1.4
4508  ,2.015e+08   ,2.4  ,-2.5  ,1.2
4515  ,7.790e+08   ,2.5  ,-2.4  ,1.8
4517  ,1.149e+08   ,2.4  ,-2.5  ,1.6
4522  ,1.568e+09   ,0.7  ,-2.4  ,0
4538  ,1.268e+09   ,-1.1189  ,2.4  ,5
4546  ,1.672e+09   ,2.4  ,2.5  ,4.1404
4559  ,4.649e+08   ,1.7  ,-2.4  ,0
4590  ,1.615e+09   ,0.5  ,-2.4  ,0
4631  ,1.825e+08   ,2.4  ,-2.5  ,2.6
4634  ,1.424e+09   ,2.5  ,-2.4  ,2.8
4657  ,7.897e+08   ,-2.5  ,-2.4  ,2
4660  ,5.583e+08   ,-2.5  ,-2.4  ,1.8
4664  ,1.279e+09   ,-0.3  ,-2.4  ,0
4675  ,4.783e+08   ,-2.4  ,-2.5  ,4.8
4681  ,6.954e+08   ,-2.5  ,-0.3  ,0.1
4684  ,1.016e+09   ,1.7  ,-2.4  ,5
4703  ,8.392e+08   ,-2.4  ,0.7  ,5
4707  ,7.526e+08   ,-2.5  ,0.3  ,4.9
4714  ,1.031e+09   ,2.4  ,-0.33054  ,5
4723  ,1.227e+09   ,-1.5567  ,2.3  ,4.8
4739  ,2.600e+08   ,-2.1044  ,2.5  ,4.9
4763  ,7.300e+08   ,-1.9  ,2.4  ,0
4780  ,2.378e+08   ,-2.3  ,-1.9695  ,0.2
4782  ,2.697e+08   ,-2.4707  ,-2.4  ,0.029289
4784  ,4.700e+08   ,-2.4  ,-1.9  ,0
4791  ,2.200e+08   ,-2.4  ,-2.5  ,1.8
4796  ,1.877e+09   ,2.4707  ,-2.4707  ,4.9
4799  ,2.400e+09   ,2.5  ,-2.4  ,4.8
4806  ,1.476e+09   ,2.3  ,-2.5  ,4.9
4809  ,2.074e+09   ,2.3  ,2.3  ,3.9166
4833  ,7.129e+08   ,-2.4  ,2.5  ,0.4
4841  ,3.662e+08   ,-2.4  ,2.5  ,2.6
4846  ,4.158e+08   ,-2.5  ,2.1  ,4.9
4848  ,2.707e+08   ,-2.5  ,2.3  ,4.9
4849  ,3.090e+08   ,-2.5  ,2.4  ,4.8
4893  ,6.993e+08   ,-2.4  ,2.5  ,4.2
4897  ,2.183e+09   ,2.3333  ,2.1998  ,5
4900  ,1.101e+10   ,2.391  ,2.4577  ,4.7576
4908  ,8.754e+09   ,2.2576  ,2.391  ,4.9577
4911  ,1.114e+10   ,2.2576  ,2.4577  ,4.891
4926  ,8.053e+08   ,-2.5  ,2.4  ,1
4932  ,5.598e+08   ,-2.4  ,2.5  ,1.6
4937  ,7.168e+08   ,-1.1  ,2.5  ,0.1
4939  ,4.112e+09   ,2.3  ,2.2299  ,4.7299
4944  ,1.630e+09   ,2.5  ,-1.9073  ,4.9
4987  ,7.854e+08   ,-2.3  ,1.5527  ,4.8
5010  ,2.211e+09   ,2.4973  ,2.1331  ,4.923
5013  ,2.174e+09   ,2.5  ,2.0345  ,4.9
5017  ,2.204e+09   ,2.4  ,2.0345  ,5
5035  ,1.020e+09   ,1.3  ,-2.4  ,0
5038  ,8.800e+08   ,1.2085  ,-2.5  ,0.2
5092  ,5.050e+07   ,-2.4  ,-2.5  ,1.2
5123  ,9.183e+08   ,2.5  ,-2.4  ,0.6
5151  ,7.039e+08   ,-2.5  ,-0.5  ,0.1
5160  ,6.631e+08   ,-2.5  ,-0.7  ,0.1
5164  ,8.399e+08   ,-2.4  ,0.9  ,5
5168  ,6.556e+08   ,-2.4  ,0.5  ,5
5176  ,1.804e+08   ,2.5  ,-0.7  ,0.1
5179  ,2.251e+08   ,2.4  ,-0.5  ,0
5189  ,1.903e+08   ,2.4  ,-2.5  ,2.4
5194  ,1.078e+09   ,2.3  ,-2.5  ,2.2576
5198  ,2.499e+08   ,-2.3  ,-2.5  ,0.32348
5205  ,3.544e+08   ,-2.4  ,-2.5  ,0.2
5207  ,3.539e+08   ,-2.1  ,-2.5  ,0.1
5246  ,8.865e+08   ,-2.5  ,2.4  ,3.2
5257  ,5.423e+08   ,-2.5  ,1.5  ,4.9
5263  ,8.823e+08   ,-2.3  ,0.2278  ,0.2
5272  ,7.981e+08   ,-2.5  ,0.3  ,0.1
5275  ,7.715e+08   ,-2.5  ,0.5  ,4.9
5281  ,2.326e+09   ,1.8375  ,2.5  ,4.9
5297  ,6.360e+08   ,-0.9  ,2.5  ,0.1
5306  ,3.171e+08   ,-0.7  ,2.4  ,0
5309  ,3.392e+08   ,-0.5  ,2.5  ,0.1
5324  ,6.555e+08   ,2.4  ,2.5  ,2.7607
5332  ,7.502e+08   ,2.5  ,-2.4  ,0.8
5334  ,3.400e+08   ,2.4  ,-2.5  ,1
5360  ,1.422e+09   ,2.4  ,-1.7102  ,5
5362  ,1.511e+09   ,2.4  ,-1.5131  ,5
5368  ,1.935e+09   ,2.4  ,1.8375  ,5
5371  ,1.751e+10   ,2.4325  ,2.4888  ,4.6656
5372  ,4.552e+09   ,2.3333  ,2.5  ,4.6998
5376  ,3.634e+09   ,2.4707  ,2.4707  ,4.6331
5377  ,4.119e+09   ,2.5  ,2.4  ,4.5345
5379  ,2.791e+08   ,-1.5  ,-2.5  ,4.9
5406  ,1.358e+09   ,-2.5  ,-2.4  ,3.4
5420  ,1.170e+09   ,-2.3  ,-2.5  ,3.2226
5423  ,7.707e+08   ,1.5  ,-2.4  ,0
5502  ,2.860e+08   ,-2.5  ,-2.3  ,0.1
5504  ,4.102e+08   ,-2.5  ,-2.4  ,0.2
5506  ,3.286e+08   ,-2.4  ,-2.3  ,0
5511  ,3.932e+08   ,-2.5  ,-2.1  ,0.1
5513  ,7.734e+08   ,-2.4  ,0.5  ,0
5517  ,2.388e+08   ,-0.9  ,-2.5  ,0.1
5532  ,9.043e+07   ,-2.4707  ,2.4707  ,4.9
5534  ,2.072e+08   ,2.4  ,-0.7  ,0
5551  ,4.638e+08   ,2.5  ,-2.4  ,3.8
5566  ,1.030e+09   ,2.5  ,2.4  ,1.3811
5603  ,3.505e+08   ,2.4  ,-0.3  ,0
5617  ,7.050e+08   ,-2.1  ,2.5  ,0.1
5637  ,2.522e+08   ,-2.3  ,-1.9695  ,4.8
5641  ,5.593e+08   ,2.3  ,-2.5  ,3.4636
5645  ,3.535e+08   ,-2.4  ,-2.5  ,2
5649  ,4.292e+08   ,-2.4  ,-2.5  ,2.2
5659  ,1.753e+08   ,-2.3  ,-2.5  ,1.7774
5662  ,2.903e+09   ,2.1765  ,-2.5  ,4.8
5666  ,1.465e+09   ,2.4  ,-2.5  ,4.8
5669  ,1.566e+09   ,2.3  ,-2.3412  ,4.8
5695  ,7.753e+08   ,-2.4  ,0.7  ,0
5701  ,5.860e+08   ,-2.5  ,2.4  ,1.6
5715  ,4.286e+08   ,-2.4  ,2.5  ,1.8
5726  ,4.062e+08   ,-0.7  ,2.5  ,0.1
5727  ,7.835e+08   ,-1.1  ,2.4  ,0
5730  ,7.517e+08   ,2.3  ,-2.5  ,1.7774
5746  ,1.085e+09   ,2.5  ,2.4  ,1.7753
5755  ,1.752e+09   ,2.5  ,-2.4  ,4.4
5763  ,4.247e+08   ,2.4  ,-2.5  ,4.4
5773  ,8.296e+08   ,1.0491  ,2.5  ,4.9
5791  ,1.043e+09   ,-0.72473  ,2.4  ,5
5795  ,2.431e+09   ,1.8375  ,2.4  ,5
5803  ,1.130e+09   ,-0.3  ,-2.4  ,5
5810  ,1.435e+09   ,2.4  ,1.6404  ,5
5836  ,5.235e+08   ,-2.5  ,1.3  ,4.9
5860  ,6.851e+08   ,2.5  ,-2.4  ,1.6
5866  ,5.187e+08   ,1.5  ,-2.5  ,0.1
5884  ,4.185e+08   ,-2.4  ,-0.3  ,5
5888  ,3.335e+08   ,-2.5  ,-0.5  ,4.9
5901  ,1.199e+09   ,2.3  ,-2.5  ,2.5
5908  ,5.829e+08   ,2.5  ,-2.4  ,1.2
5909  ,9.463e+08   ,2.5  ,-2.4  ,2
5934  ,4.222e+08   ,1.9  ,-2.5  ,4.9
5938  ,2.131e+09   ,1.933  ,-2.5  ,4.8
5948  ,5.194e+08   ,-2.4  ,-2.5  ,4.6
5950  ,7.503e+08   ,-2.4707  ,-2.4707  ,4.9
5951  ,8.642e+08   ,-2.5  ,-2.4  ,4.8
5952  ,5.804e+08   ,-2.5  ,-2.3  ,4.9
5986  ,2.301e+08   ,2.3  ,-2.5  ,3.7085
5990  ,1.306e+09   ,-0.92182  ,2.5  ,4.9
6019  ,4.308e+08   ,2.5  ,1.9  ,0.1
6025  ,2.476e+08   ,2.4  ,-1.3  ,0
6035  ,5.506e+08   ,-2.5  ,1.9  ,4.9
6044  ,2.807e+08   ,0.1  ,2.5  ,0.1
6054  ,5.693e+08   ,2.4  ,0.1  ,0
6070  ,2.760e+08   ,-2.4  ,2.3  ,0
6071  ,4.273e+08   ,-2.3  ,2.4  ,0
6076  ,4.696e+08   ,-2.4  ,2.1  ,0
6083  ,1.032e+09   ,2.1  ,-2.4  ,0
6084  ,2.215e+08   ,2.4  ,2.3  ,0
6087  ,2.611e+08   ,2.3  ,2.4  ,0
6092  ,1.938e+08   ,-2.4  ,-2.5  ,0.4
6096  ,3.982e+08   ,-2.3  ,-2.5  ,0.1
6099  ,2.313e+08   ,0.7  ,-2.5  ,0.1
6149  ,7.137e+08   ,-2.4  ,-0.9  ,0
6159  ,1.708e+09   ,-2.5  ,-2.4  ,2.6
6183  ,9.297e+08   ,1.2462  ,2.5  ,4.9
6224  ,3.972e+08   ,2.5  ,-2.4  ,4
6228  ,6.019e+08   ,2.4  ,-2.5  ,3.8
6237  ,9.247e+08   ,2.5  ,0.7  ,0.1
6241  ,3.516e+09   ,2.5  ,2.3333  ,4.6998
6245  ,1.018e+09   ,2.5  ,2.4  ,1.5782
6259  ,1.665e+09   ,2.5  ,-2.1044  ,4.9
6265  ,1.350e+09   ,2.3  ,-1.9804  ,4.8
6267  ,1.712e+09   ,2.5  ,-2.3015  ,4.9
6268  ,1.542e+09   ,2.4707  ,-2.4  ,4.9707
6270  ,1.679e+09   ,2.4  ,-2.1044  ,5
6317  ,1.000e+09   ,-2.3  ,0.2278  ,4.8
6349  ,1.073e+09   ,-0.52764  ,2.4  ,5
6391  ,1.079e+09   ,2.4  ,2.5  ,1.7753
6440  ,7.228e+08   ,-2.5  ,2.4  ,3.8
6471  ,1.274e+09   ,2.5  ,-0.92182  ,4.9
6489  ,9.682e+08   ,2.5  ,1.2462  ,4.9
6523  ,9.509e+07   ,-1.1  ,-2.4  ,0
6528  ,1.409e+08   ,-1.1  ,-2.5  ,0.1
6535  ,2.137e+08   ,-0.9  ,-2.4  ,0
6538  ,4.017e+08   ,1.5  ,-2.4  ,5
6541  ,6.273e+08   ,1.5  ,-2.5  ,4.9
6551  ,1.165e+09   ,2.5  ,-0.72473  ,4.9
6564  ,6.915e+09   ,2.1331  ,2.4973  ,4.923
6565  ,4.175e+09   ,2.0345  ,2.5  ,4.9
6572  ,3.625e+08   ,2.4  ,-1.7  ,0
6581  ,8.451e+08   ,0  ,2.3  ,0.2
6592  ,3.343e+08   ,2.3  ,-1.9695  ,0.2
6594  ,3.688e+08   ,0.3  ,2.4  ,0
6601  ,6.682e+08   ,0.5  ,2.5  ,0.1
6605  ,5.740e+08   ,-2.4  ,-1.3  ,0
6606  ,6.462e+08   ,-2.4  ,-1.1  ,0
6615  ,8.110e+08   ,-2.4  ,-0.3  ,0
6634  ,8.615e+08   ,2.1  ,-2.5  ,4.9
6635  ,1.897e+09   ,2.4  ,-2.4707  ,4.9707
6636  ,2.380e+09   ,2.3  ,-2.4  ,5
6647  ,2.719e+08   ,0.5  ,-2.5  ,0.1
6704  ,2.359e+08   ,-2.4707  ,2.4707  ,0.1
6708  ,4.377e+08   ,-2.5  ,2.4  ,0.2
6712  ,7.641e+08   ,-2.4  ,2.5  ,3.6
6715  ,9.326e+08   ,-2.4  ,2.5  ,3.4
6728  ,8.153e+08   ,-2.5  ,0.7  ,4.9
6753  ,2.852e+08   ,-2.1044  ,2.4  ,5
6788  ,2.647e+09   ,2.5  ,2.4  ,4.3375
6791  ,1.105e+09   ,-1.933  ,-2.5  ,4.8
6795  ,4.109e+09   ,2.1998  ,2.5  ,4.8333
6837  ,6.602e+08   ,-2.3  ,-2.5  ,0.8063
6869  ,1.502e+09   ,2.5  ,-1.7102  ,4.9
6873  ,1.762e+09   ,2.4  ,-1.9073  ,5
6880  ,1.337e+09   ,2.4  ,-0.92182  ,5
6885  ,1.123e+09   ,2.4  ,-0.52764  ,5
6893  ,9.236e+08   ,2.4  ,1.2462  ,5
6914  ,1.014e+09   ,0.7  ,2.5  ,0.1
6920  ,9.229e+08   ,0.9  ,2.4  ,0
6923  ,1.000e+09   ,0.7  ,2.4  ,0
6936  ,3.569e+08   ,2.4  ,-2.5  ,3.4
6939  ,8.593e+08   ,2.3  ,-2.5  ,3.2226
6961  ,2.083e+08   ,-0.1  ,-2.5  ,4.9
6967  ,3.523e+08   ,-2.5  ,-1.5  ,4.9
6975  ,6.909e+08   ,-2.4  ,1.1  ,5
6978  ,5.413e+08   ,-2.4  ,2.5  ,0.2
6987  ,1.392e+09   ,2.4  ,-1.316  ,5
6994  ,3.757e+08   ,2.4  ,-1.5  ,0
7004  ,5.791e+08   ,2.4  ,-2.5  ,3.6
7011  ,7.430e+08   ,2.4  ,0.65491  ,5
7016  ,6.807e+08   ,2.4  ,0.45782  ,5
7019  ,9.221e+08   ,2.5  ,2.4  ,2.1695
7021  ,9.618e+08   ,2.5  ,2.4  ,1.9724
7052  ,6.997e+08   ,-1.3  ,2.5  ,0.1
7054  ,2.184e+08   ,-2.4  ,-2.5  ,0.8
7057  ,2.931e+08   ,0.3  ,-2.5  ,0.1
7065  ,1.119e+09   ,0.24243  ,-2.5  ,0.2
7075  ,1.721e+10   ,2.4888  ,2.4325  ,4.6656
7113  ,3.926e+08   ,-2.4  ,-2.5  ,2.6
7121  ,3.383e+08   ,-2.4  ,-2.5  ,2.8
7126  ,1.752e+09   ,-2.5  ,-2.4  ,2.8
7128  ,2.972e+08   ,-2.4707  ,-2.4707  ,0.1
7129  ,3.115e+08   ,-2.4  ,-2.4707  ,0.029289
7141  ,7.827e+08   ,-1.7  ,-2.4  ,5
7145  ,7.177e+08   ,1.1  ,2.4  ,0
7163  ,5.317e+08   ,-1.7102  ,2.4  ,5
7172  ,1.268e+09   ,2.5  ,-2.4  ,3.2
7174  ,7.389e+08   ,-2.5  ,2.4  ,3.6
7183  ,6.535e+08   ,-1.4531  ,-2.5  ,4.8
7204  ,2.436e+09   ,2.3  ,-0.81068  ,4.8
7220  ,9.975e+08   ,2.5  ,0.063638  ,4.9
7227  ,5.450e+08   ,2.5  ,-1.9  ,0.1
7256  ,1.235e+09   ,-0.1  ,-2.4  ,5
7280  ,9.193e+08   ,-0.33054  ,2.4  ,5
7299  ,1.329e+09   ,2.5  ,-1.1189  ,4.9
7316  ,7.798e+08   ,-2.5  ,-2.4  ,0.8
7323  ,1.051e+08   ,-2.4  ,-2.5  ,1
7396  ,9.918e+08   ,1.1  ,-2.4  ,5
7400  ,8.148e+08   ,-2.5  ,0.7  ,0.1
7409  ,5.670e+08   ,1.3  ,-2.4  ,5
7420  ,3.951e+08   ,2.5  ,2.1  ,0.1
7429  ,5.733e+08   ,2.4  ,1.9  ,0
7436  ,4.371e+08   ,2.5  ,-1.7  ,0.1
7438  ,2.391e+08   ,2.4  ,-2.5  ,2.8
7445  ,5.220e+09   ,2.4325  ,2.1656  ,4.9888
7464  ,2.821e+08   ,2.5  ,-1.5  ,0.1
7480  ,9.702e+08   ,2.5  ,-2.4  ,0.2
7482  ,5.074e+08   ,1.9  ,-2.5  ,0.1
7483  ,5.512e+08   ,1.7  ,-2.5  ,0.1
7486  ,1.698e+09   ,1.9  ,-2.4  ,5
7488  ,1.620e+09   ,1.6937  ,-2.5  ,4.8
7492  ,2.846e+09   ,2.1  ,-2.4  ,5
7495  ,3.244e+08   ,0.1  ,-2.5  ,0.1
7504  ,1.604e+09   ,0.3  ,-2.4  ,0
7507  ,3.497e+08   ,0.9  ,-2.5  ,0.1
7533  ,7.645e+08   ,-2.5  ,0.9  ,0.1
7536  ,3.394e+08   ,-2.4  ,-2.5  ,3.2
7540  ,2.581e+08   ,-2.4  ,-2.5  ,3
7545  ,1.720e+09   ,-2.5  ,-2.4  ,3
7582  ,6.792e+08   ,1.3  ,2.5  ,0.1
7588  ,8.945e+08   ,2.5  ,2.4  ,2.3665
7598  ,6.778e+08   ,-2.5  ,2.4  ,4.2
7607  ,7.073e+08   ,1.5333  ,2.3  ,0.2
7627  ,5.417e+08   ,-2.5  ,1.1  ,4.9
7651  ,5.068e+08   ,2.4  ,-1.9  ,0
7656  ,2.762e+08   ,2.5  ,2.4  ,0.39564
7660  ,4.433e+09   ,2.2299  ,2.3  ,4.7299
7668  ,9.294e+08   ,1.4531  ,-2.5  ,4.8
7676  ,2.073e+08   ,0.1  ,-2.5  ,4.9
7683  ,1.383e+09   ,0.1  ,-2.4  ,5
7686  ,2.999e+08   ,-2.4  ,-1.1  ,5
7702  ,5.381e+08   ,-2.3  ,-2.5  ,4.433
7710  ,1.136e+09   ,-2.3  ,-2.5  ,4.6765
7752  ,1.301e+09   ,0.9  ,-2.4  ,5
7763  ,1.174e+09   ,0.24243  ,-2.5  ,4.8
7767  ,1.563e+09   ,-2.5  ,-2.4  ,3.2
7768  ,4.430e+08   ,-2.4  ,-2.1  ,0
7776  ,8.231e+08   ,-2.4  ,0.9  ,0
7786  ,9.365e+08   ,-0.4838  ,-2.5  ,4.8
7800  ,2.915e+09   ,2.5  ,-2.4  ,4.6
7805  ,2.420e+08   ,-2.5  ,-1.3  ,4.9
7811  ,2.875e+08   ,-2.5  ,-1.1  ,4.9
7820  ,6.112e+08   ,2.5  ,-2.1  ,0.1
7824  ,5.030e+08   ,2.4  ,-2.1  ,0
7828  ,5.094e+08   ,2.4  ,-2.5  ,4.2
7831  ,6.275e+08   ,2.4  ,-2.5  ,4
7838  ,1.060e+09   ,2.5  ,-2.4  ,4.2
7839  ,7.470e+08   ,2.5  ,2.4  ,2.7607
7840  ,7.569e+08   ,2.5  ,2.4  ,2.9578
7863  ,5.335e+08   ,-2.4  ,-1.5  ,0
7890  ,6.842e+08   ,2.4  ,0.9  ,0
7897  ,6.959e+08   ,-2.4  ,-0.7  ,0
7912  ,5.511e+08   ,-1.5  ,-2.4  ,0
7917  ,1.191e+08   ,-1.3  ,-2.5  ,0.1
7931  ,6.001e+08   ,0.5  ,2.4  ,0
7934  ,1.192e+09   ,1.1  ,-2.4  ,0
7937  ,3.942e+08   ,2.4  ,-2.5  ,0.8
7941  ,2.852e+08   ,-2.4  ,-2.5  ,0.6
7969  ,2.845e+08   ,-2.5  ,2.3  ,0.1
7971  ,5.458e+08   ,-2.4  ,1.9  ,0
7972  ,7.792e+08   ,-1.9  ,2.5  ,0.1
7978  ,7.911e+08   ,-2.4  ,1.1  ,0
7996  ,2.585e+08   ,-2.4  ,-0.5  ,5
8000  ,7.810e+08   ,-2.5  ,-2.4  ,0.6
8003  ,6.556e+08   ,-2.5  ,-2.4  ,0.4
8025  ,1.079e+09   ,0.9  ,2.5  ,0.1
8035  ,3.874e+08   ,0.3  ,2.5  ,0.1
8039  ,1.227e+09   ,2.3  ,-2.5  ,0.32348
8041  ,6.157e+08   ,2.3  ,-2.3379  ,0.2
8043  ,1.037e+09   ,2.1765  ,-2.5  ,0.2
8045  ,1.951e+08   ,-0.96359  ,-2.5  ,0.2
8054  ,5.761e+08   ,1.3  ,2.4  ,0
8058  ,8.499e+08   ,1.1  ,2.5  ,0.1
8062  ,8.164e+08   ,-2.5  ,2.4  ,1.4
8067  ,7.863e+08   ,-2.5  ,2.4  ,0.8
8087  ,6.778e+08   ,-2.5  ,1.5  ,0.1
8132  ,8.739e+08   ,-0.13345  ,2.4  ,5
8183  ,1.997e+08   ,2.5  ,-0.9  ,0.1
8184  ,3.999e+08   ,1.6937  ,-2.5  ,0.2
8214  ,6.297e+08   ,-2.4707  ,-2.4  ,4.9707
8217  ,1.054e+09   ,-2.1  ,-2.4  ,5
8219  ,5.133e+08   ,-2.4  ,-2.5  ,4.4
8227  ,7.319e+08   ,2.5  ,2.4  ,3.1549
8242  ,2.261e+08   ,0.7  ,-2.5  ,4.9
8248  ,9.002e+08   ,2.5  ,-2.4  ,3.6
8254  ,3.198e+08   ,2.5  ,-0.3  ,0.1
8256  ,1.833e+08   ,2.5  ,-0.5  ,0.1
8258  ,1.073e+08   ,-0.3  ,-2.5  ,4.9
8263  ,2.343e+08   ,-0.5  ,-2.5  ,4.9
8268  ,8.881e+08   ,-2.3  ,-2.5  ,3.7085
8277  ,3.121e+08   ,-0.1  ,-2.5  ,0.1
8285  ,6.978e+08   ,1.1  ,-2.5  ,4.9
8307  ,2.770e+08   ,0.1  ,2.4  ,0
8308  ,3.314e+08   ,-0.1  ,2.5  ,0.1
8309  ,2.578e+08   ,-0.1  ,2.4  ,0
8313  ,6.076e+08   ,2.5  ,-2.3  ,0.1
8318  ,1.362e+09   ,2.5  ,-2.4  ,3
8338  ,7.328e+08   ,2.5  ,2.4  ,3.352
8339  ,7.604e+08   ,2.4  ,2.5  ,3.1549
8344  ,8.481e+08   ,-2.5  ,2.4  ,3.4
8357  ,5.035e+09   ,2.4888  ,2.1656  ,4.9325
8358  ,2.088e+09   ,2.5  ,2.1998  ,4.8333
8383  ,7.441e+08   ,-1.7  ,-2.4  ,0
8396  ,3.257e+08   ,1.1  ,-2.5  ,0.1
8399  ,1.756e+09   ,2.4526  ,2.1331  ,4.9851
8405  ,6.583e+08   ,2.5  ,-2.4  ,1
8412  ,8.598e+08   ,2.3  ,-2.5  ,0.8063
8417  ,1.055e+09   ,-2.3  ,-2.5  ,2.5
8434  ,6.503e+08   ,0.9636  ,-2.5  ,4.8
8438  ,3.764e+08   ,-0.3  ,-2.5  ,0.1
8452  ,5.835e+08   ,-2.4  ,-0.1  ,5
8468  ,1.115e+09   ,2.5  ,2.4  ,3.7462
8471  ,1.568e+08   ,-1.3  ,-2.5  ,4.9
8493  ,1.340e+08   ,-1.1  ,-2.5  ,4.9
8509  ,4.618e+08   ,-2.5  ,-1.7  ,0.1
8517  ,5.717e+08   ,-2.4  ,2.5  ,3
8531  ,5.959e+08   ,-2.4  ,1.7  ,0
8556  ,8.973e+08   ,2.5  ,2.4  ,3.5491
8573  ,1.060e+09   ,-1.316  ,2.4  ,5
8576  ,7.829e+08   ,-2.4  ,1.3  ,0
8611  ,5.099e+08   ,2.3  ,-2.5  ,1.2915
8618  ,6.726e+08   ,-2.4  ,2.5  ,4
8646  ,8.086e+08   ,-2.5  ,1.1  ,0.1
8656  ,2.888e+08   ,2.5  ,-1.3  ,0.1
8657  ,4.711e+08   ,2.4  ,2.1  ,0
8673  ,7.509e+08   ,-1.3  ,2.4  ,0
8692  ,9.913e+08   ,0.72263  ,-2.5  ,4.8
8696  ,6.338e+08   ,2.3  ,-2.5  ,1.0469
8706  ,7.408e+08   ,2.5  ,0.65491  ,4.9
8721  ,2.236e+08   ,-2.4  ,-2.5  ,1.6
8725  ,6.159e+08   ,0.65491  ,2.4  ,5
8739  ,1.524e+10   ,2.1656  ,2.4325  ,4.9888
8741  ,3.399e+09   ,2.1998  ,2.3333  ,5
8746  ,7.619e+08   ,-2.1  ,-2.4  ,0
8748  ,3.422e+08   ,-2.5  ,-2.4  ,1.2
8752  ,5.530e+09   ,2.1331  ,2.4526  ,4.9851
8759  ,4.769e+08   ,-2.3  ,-2.5  ,1.0469
8787  ,1.560e+09   ,-0.1  ,-2.4  ,0
8793  ,7.860e+08   ,-2.3  ,-2.5  ,2.2576
8795  ,5.341e+08   ,-2.4  ,-2.5  ,2.4
8798  ,3.717e+08   ,-2.3  ,-2.5  ,4.1937
8808  ,7.236e+08   ,-2.3  ,-2.5  ,3.9531
8814  ,4.811e+08   ,-2.4  ,-1.5  ,5
8849  ,1.121e+09   ,0.4838  ,-2.5  ,4.8
8851  ,5.767e+08   ,-2.4  ,-2.5  ,4.2
8868  ,1.911e+08   ,2.4  ,-2.5  ,3
8874  ,7.206e+08   ,0.852  ,2.4  ,5
8883  ,9.441e+08   ,-0.5  ,-2.4  ,5
8886  ,7.481e+08   ,-0.72262  ,-2.5  ,4.8
8893  ,1.352e+08   ,-0.7  ,-2.5  ,4.9
8897  ,1.191e+09   ,-2.5  ,-2.4  ,3.6
8899  ,9.704e+08   ,-2.3  ,-2.5  ,3.4636
8900  ,2.231e+08   ,-2.3  ,-1.4729  ,0.2
8906  ,5.852e+08   ,-2.5  ,-1.3  ,0.1
8910  ,6.984e+08   ,0.852  ,2.5  ,4.9
8925  ,6.948e+08   ,-2.4  ,2.5  ,1.4
8941  ,1.094e+08   ,2.4707  ,2.4  ,0.029289
8942  ,2.104e+08   ,2.5  ,2.3  ,0.1
8945  ,7.116e+08   ,-2.5  ,0.1  ,4.9
8950  ,1.142e+08   ,2.4707  ,2.4707  ,0.1
8951  ,9.954e+07   ,2.4  ,2.4707  ,0.029289
8959  ,7.129e+08   ,2.4  ,0.26073  ,5
8965  ,6.625e+08   ,0.45782  ,2.4  ,5
8978  ,5.792e+08   ,2.4  ,0.852  ,5
8983  ,2.165e+08   ,2.5  ,-1.1  ,0.1
8991  ,7.539e+08   ,-2.5  ,2.4  ,0.6
9008  ,6.775e+08   ,2.5  ,0.852  ,4.9
9011  ,7.195e+08   ,-2.4  ,-0.5  ,0
9025  ,6.294e+07   ,-1.5  ,-2.5  ,0.1
9038  ,2.140e+08   ,2.4  ,-2.5  ,2
9041  ,9.035e+08   ,2.5  ,0.9  ,0.1
9050  ,6.868e+08   ,2.5  ,0.5  ,0.1
9054  ,1.358e+09   ,0.9  ,-2.4  ,0
9060  ,4.192e+08   ,2.4  ,-2.5  ,0.4
9062  ,1.056e+09   ,2.3  ,-2.5  ,0.56701
9064  ,1.102e+09   ,2.5  ,-2.4  ,0.4
9069  ,2.736e+08   ,2.4  ,-2.5  ,0.6
9071  ,7.177e+08   ,1.4531  ,-2.5  ,0.2
9082  ,3.845e+08   ,-2.3  ,-2.5  ,1.2915
9086  ,1.317e+08   ,-2.4  ,-2.5  ,1.4
9091  ,1.360e+08   ,-2.5  ,-2.4  ,1.4
9094  ,7.525e+08   ,1.3  ,-2.5  ,4.9
9097  ,3.513e+08   ,-0.7  ,-2.5  ,0.1
9137  ,3.596e+08   ,-2.5  ,-0.7  ,4.9
9143  ,5.110e+08   ,-2.5  ,-0.1  ,4.9
9146  ,6.586e+08   ,-2.1  ,2.4  ,0
9148  ,5.764e+08   ,-2.5  ,1.7  ,4.9
9173  ,5.579e+08   ,-2.5  ,2.4  ,3
9192  ,7.489e+08   ,-0.7  ,-2.4  ,5
9195  ,1.228e+09   ,0.72263  ,-2.5  ,0.2
9209  ,1.148e+09   ,2.5  ,-2.4  ,3.4
9215  ,1.064e+09   ,0.9636  ,-2.5  ,0.2
9217  ,2.725e+08   ,2.4  ,-2.5  ,3.2
9218  ,6.501e+08   ,-0.96359  ,-2.5  ,4.8
9229  ,5.099e+08   ,-2.4  ,2.5  ,2.8
9248  ,2.198e+09   ,2.3  ,-2.5  ,4.433
9255  ,6.838e+08   ,2.5  ,1.3  ,0.1
9257  ,5.047e+08   ,2.4  ,1.5  ,0
9262  ,1.320e+09   ,0.5  ,-2.4  ,5
9264  ,8.187e+08   ,2.4  ,-0.13345  ,5
9272  ,6.693e+08   ,0.063638  ,2.4  ,5
9277  ,7.920e+08   ,-2.5  ,2.4  ,1.2
9279  ,7.635e+08   ,2.5  ,0.26073  ,4.9
9282  ,2.903e+08   ,1.2085  ,-2.5  ,4.8
9286  ,4.720e+08   ,0.9  ,-2.5  ,4.9
9292  ,1.219e+08   ,-2.4  ,2.4707  ,4.9707
9293  ,8.365e+07   ,-2.3015  ,2.4  ,5
9296  ,5.460e+08   ,-2.4  ,-2.1  ,5
9303  ,5.303e+08   ,-2.4  ,-1.9  ,5
9311  ,1.743e+08   ,-2.4  ,2.3  ,5
9313  ,7.041e+08   ,-2.4  ,0.1  ,5
9319  ,9.604e+08   ,-0.5  ,-2.4  ,0
9328  ,1.606e+08   ,-2.3  ,-2.5  ,1.5364
9334  ,5.547e+08   ,-2.3  ,2.5  ,0.1
9338  ,1.524e+09   ,-2.5  ,-2.4  ,2.4
9339  ,7.208e+08   ,-2.5  ,1.3  ,0.1
9341  ,1.210e+09   ,-2.3  ,-2.5  ,2.7424
9344  ,1.162e+09   ,-2.5  ,-2.4  ,2.2
9358  ,1.089e+09   ,-2.3  ,2.3  ,2.5
9364  ,5.190e+08   ,-2.5  ,-2.1  ,4.9
9367  ,6.856e+08   ,-2.4  ,-2.3  ,5
9374  ,3.083e+08   ,-2.4  ,-1.3  ,5
9378  ,2.520e+08   ,-2.5  ,2.4  ,1.8
9384  ,9.550e+08   ,2.3  ,-2.5  ,2.0162
9385  ,6.822e+08   ,-2.5  ,2.4  ,4.4
9389  ,3.039e+08   ,-2.5  ,2.4  ,2
9395  ,1.592e+09   ,2.4  ,-2.3015  ,5
9396  ,4.521e+08   ,-2.4  ,-1.7  ,0
9407  ,3.010e+08   ,-2.3  ,-1.4729  ,4.8
9411  ,3.190e+08   ,-2.5  ,-1.7  ,4.9
9423  ,2.403e+08   ,-2.4  ,-2.5  ,3.6
9432  ,1.352e+09   ,0.7  ,-2.4  ,5
9438  ,3.029e+08   ,-2.5  ,-0.9  ,4.9
9443  ,4.364e+08   ,-2.5  ,-0.3  ,4.9
9445  ,9.076e+07   ,-2.4707  ,2.4  ,4.9707
9448  ,1.327e+09   ,2.4  ,-1.1189  ,5
9453  ,8.261e+08   ,2.4  ,0.7  ,0
9455  ,1.445e+09   ,2.5  ,-2.4  ,2.6
9457  ,1.045e+09   ,2.3  ,-2.5  ,2.9838
9494  ,7.588e+08   ,-2.4  ,2.5  ,1
9500  ,2.010e+08   ,0.3  ,-2.5  ,4.9
9504  ,1.405e+09   ,0.3  ,-2.4  ,5
9506  ,2.641e+08   ,2.1  ,-2.5  ,0.1
9518  ,2.711e+08   ,-1.9  ,-2.5  ,0.1
9528  ,5.578e+08   ,2.3  ,-2.5  ,0.1
9531  ,9.400e+08   ,2.4707  ,-2.4707  ,0.1
9533  ,5.865e+08   ,2.4707  ,-2.4  ,0.029289
9534  ,7.296e+08   ,2.4  ,-2.4707  ,0.029289
9541  ,1.621e+08   ,0.5  ,-2.5  ,4.9
9544  ,3.782e+08   ,-0.5  ,-2.5  ,0.1
9559  ,4.238e+08   ,-2.5  ,-1.9  ,4.9
9562  ,6.055e+08   ,-2.5  ,2.4  ,4.6
9565  ,4.014e+08   ,-2.4  ,2.5  ,2
9571  ,1.081e+09   ,-2.5  ,-2.4  ,3.8
9574  ,2.376e+08   ,-2.4  ,-2.5  ,3.8
9577  ,3.453e+08   ,1.3  ,-2.5  ,0.1
9582  ,6.742e+08   ,-2.5  ,-0.9  ,0.1
9596  ,5.445e+08   ,2.1  ,2.4  ,0
9598  ,8.822e+08   ,-2.4  ,2.5  ,3.2
9602  ,6.601e+08   ,1.5  ,2.5  ,0.1
9610  ,2.905e+08   ,2.4  ,2.5  ,0.39564
9612  ,1.272e+09   ,-0.72473  ,2.5  ,4.9
9614  ,6.513e+08   ,1.7  ,2.5  ,0.1
9635  ,5.400e+08   ,2.5  ,1.7  ,0.1
9646  ,2.478e+08   ,2.3  ,2.5  ,0.1
9651  ,1.442e+10   ,2.1656  ,2.4888  ,4.9325
9653  ,1.322e+09   ,2.5  ,-1.316  ,4.9
9656  ,3.911e+08   ,-2.4  ,-1.7  ,5
9659  ,3.015e+09   ,2.3  ,-2.5  ,4.6765
9661  ,8.072e+08   ,2.3  ,-2.5  ,3.9531
9664  ,9.548e+08   ,-2.3  ,-2.4  ,5
9666  ,5.598e+08   ,1.9  ,-2.4  ,0
9677  ,7.695e+08   ,2.4  ,0.5  ,0
9678  ,6.494e+08   ,-2.5  ,-1.1  ,0.1
9680  ,9.757e+08   ,2.5  ,2.4  ,1.184
9681  ,1.375e+08   ,2.5  ,2.4  ,0.19855
9696  ,4.668e+08   ,-2.3  ,-2.5  ,2.0162
9698  ,6.111e+08   ,2.4  ,-2.3  ,0
9699  ,9.697e+08   ,-0.24243  ,-2.5  ,0.2
9701  ,1.622e+09   ,0.1  ,-2.4  ,0
9704  ,6.219e+08   ,-0.4838  ,-2.5  ,0.2
9718  ,2.468e+08   ,-0.72262  ,-2.5  ,0.2
9726  ,6.040e+08   ,2.3  ,-0.76628  ,0.2
9727  ,7.477e+08   ,-2.5  ,2.4  ,0.4
9730  ,1.103e+09   ,1.9433E-06  ,-2.5  ,4.8
9731  ,1.020e+09   ,-0.24243  ,-2.5  ,4.8
9732  ,3.261e+08   ,-2.5  ,2.4  ,2.2
9738  ,7.889e+08   ,-2.5  ,-2.4  ,4
9743  ,9.334e+08   ,-1.6937  ,-2.5  ,4.8
9744  ,4.913e+08   ,-2.4  ,-2.5  ,4
9750  ,1.883e+08   ,-1.7  ,-2.5  ,0.1
9752  ,6.511e+08   ,-1.6937  ,-2.5  ,0.2
9754  ,2.914e+08   ,-1.3  ,-2.4  ,0
9759  ,1.816e+08   ,-2.4707  ,2.4  ,0.029289
9760  ,2.091e+08   ,-2.4  ,2.4707  ,0.029289
9768  ,1.604e+09   ,2.3  ,-2.5  ,4.1937
9770  ,1.087e+09   ,1.9433E-06  ,-2.5  ,0.2
9771  ,1.245e+09   ,0.4838  ,-2.5  ,0.2
9772  ,4.461e+08   ,2.4  ,-2.5  ,0.2
9773  ,8.070e+08   ,2.4  ,-2.5  ,4.6
9776  ,7.786e+08   ,2.4  ,0.063638  ,5
9780  ,6.816e+08   ,0.65491  ,2.5  ,4.9
9781  ,1.593e+08   ,2.4  ,2.5  ,0.19855
9782  ,1.272e+09   ,-2.3  ,-2.5  ,2.9838
9786  ,3.993e+08   ,-1.2085  ,-2.5  ,0.2
9787  ,5.609e+08   ,-1.4531  ,-2.5  ,0.2
9790  ,8.490e+08   ,2.3  ,-2.4  ,0
9793  ,4.050e+09   ,2.0345  ,2.4  ,5
9797  ,6.182e+08   ,2.3  ,-2.5  ,1.5364
9798  ,6.847e+08   ,2.4  ,1.0491  ,5
9809  ,7.700e+08   ,2.4  ,2.5  ,3.352
