Date:  11:18, Monday, July 10, 2023
Model name: Hollow_DropBox
Study name: Drop Test_hollow_draft1(-Default-)
Plot type:  Stress1
Plot step: 9   time : 47.2251 Microseconds
Result Type: von Mises 


Node  ,Value (N/m^2)  ,X (in)  ,Y (in)  ,Z (in)
1  ,5.764e+09   ,2.5  ,2.1331  ,4.9
2  ,2.184e+10   ,2.4577  ,2.1908  ,4.9577
3  ,1.122e+10   ,2.4894  ,2.1331  ,4.9447
4  ,5.719e+09   ,2.1331  ,2.5  ,4.9
5  ,1.115e+10   ,2.1331  ,2.4894  ,4.9447
6  ,2.002e+10   ,2.1908  ,2.4577  ,4.9577
7  ,9.039e+07   ,-2.4  ,2.4  ,5
8  ,2.806e+08   ,-2.4  ,-2.4  ,5
9  ,2.397e+08   ,2.4  ,-2.4  ,5
10  ,5.255e+09   ,2.4  ,2.1331  ,5
11  ,5.555e+09   ,2.1331  ,2.4  ,5
12  ,2.449e+08   ,2.5  ,-2.4  ,4.9
13  ,2.601e+08   ,2.5  ,-2.4  ,0.1
14  ,7.213e+07   ,2.5  ,2.4  ,0.1
15  ,5.968e+09   ,2.5  ,2.4  ,4.6331
16  ,6.106e+07   ,2.4  ,2.5  ,0.1
17  ,1.279e+08   ,-2.4  ,2.5  ,0.1
18  ,9.323e+07   ,-2.4  ,2.5  ,4.9
19  ,5.811e+09   ,2.4  ,2.5  ,4.6331
20  ,5.246e+07   ,-2.5  ,2.4  ,0.1
21  ,3.248e+06   ,-2.5  ,-2.4  ,0.1
22  ,1.746e+08   ,-2.5  ,-2.4  ,4.9
23  ,9.977e+07   ,-2.5  ,2.4  ,4.9
24  ,6.146e+06   ,-2.3  ,-2.5  ,0.2
25  ,3.315e+08   ,-2.3  ,-2.5  ,4.8
26  ,5.556e+08   ,2.3  ,-2.5  ,4.8
27  ,2.954e+08   ,2.3  ,-2.5  ,0.2
28  ,2.857e+08   ,-2.4  ,-2.5  ,4.9
29  ,2.321e+08   ,2.4  ,-2.5  ,4.9
30  ,1.740e+06   ,-2.4  ,-2.5  ,0.1
31  ,2.722e+08   ,2.4  ,-2.5  ,0.1
32  ,1.879e+08   ,2.4  ,-2.4  ,0
33  ,1.122e+08   ,2.4  ,2.4  ,0
34  ,4.464e+06   ,-2.4  ,-2.4  ,0
35  ,6.883e+07   ,-2.4  ,2.4  ,0
36  ,2.227e+10   ,2.4577  ,2.4577  ,4.6908
37  ,2.540e+08   ,-2.3  ,2.3  ,4.8
38  ,6.648e+09   ,2.1599  ,2.3  ,4.8
39  ,6.617e+09   ,2.3  ,2.1599  ,4.8
40  ,6.420e+09   ,2.3  ,2.3  ,4.6599
41  ,2.422e+08   ,2.3  ,2.3  ,0.2
42  ,9.341e+07   ,-2.3  ,2.3  ,0.2
43  ,1.038e+08   ,-2.4  ,2.2  ,5
44  ,1.894e+08   ,-2.4  ,2  ,5
45  ,1.755e+08   ,-2.4  ,1.8  ,5
46  ,1.820e+08   ,-2.4  ,1.6  ,5
47  ,2.027e+08   ,-2.4  ,1.4  ,5
48  ,2.551e+08   ,-2.4  ,1.2  ,5
49  ,2.771e+08   ,-2.4  ,1  ,5
50  ,3.890e+08   ,-2.4  ,0.8  ,5
51  ,3.841e+08   ,-2.4  ,0.6  ,5
52  ,3.271e+08   ,-2.4  ,0.4  ,5
53  ,3.239e+08   ,-2.4  ,0.2  ,5
54  ,2.434e+08   ,-2.4  ,5.8879E-16  ,5
55  ,2.463e+08   ,-2.4  ,-0.2  ,5
56  ,1.913e+08   ,-2.4  ,-0.4  ,5
57  ,1.578e+08   ,-2.4  ,-0.6  ,5
58  ,1.210e+08   ,-2.4  ,-0.8  ,5
59  ,1.236e+08   ,-2.4  ,-1  ,5
60  ,1.316e+08   ,-2.4  ,-1.2  ,5
61  ,2.280e+08   ,-2.4  ,-1.4  ,5
62  ,2.070e+08   ,-2.4  ,-1.6  ,5
63  ,2.022e+08   ,-2.4  ,-1.8  ,5
64  ,2.328e+08   ,-2.4  ,-2  ,5
65  ,2.544e+08   ,-2.4  ,-2.2  ,5
66  ,3.853e+08   ,-2.2  ,-2.4  ,5
67  ,3.193e+08   ,-2  ,-2.4  ,5
68  ,3.208e+08   ,-1.8  ,-2.4  ,5
69  ,3.302e+08   ,-1.6  ,-2.4  ,5
70  ,3.445e+08   ,-1.4  ,-2.4  ,5
71  ,3.034e+08   ,-1.2  ,-2.4  ,5
72  ,1.944e+08   ,-1  ,-2.4  ,5
73  ,9.070e+07   ,-0.8  ,-2.4  ,5
74  ,9.908e+07   ,-0.6  ,-2.4  ,5
75  ,1.952e+08   ,-0.4  ,-2.4  ,5
76  ,2.208e+08   ,-0.2  ,-2.4  ,5
77  ,2.501e+08   ,-5.8879E-16  ,-2.4  ,5
78  ,2.669e+08   ,0.2  ,-2.4  ,5
79  ,2.809e+08   ,0.4  ,-2.4  ,5
80  ,3.859e+08   ,0.6  ,-2.4  ,5
81  ,3.908e+08   ,0.8  ,-2.4  ,5
82  ,3.399e+08   ,1  ,-2.4  ,5
83  ,3.578e+08   ,1.2  ,-2.4  ,5
84  ,4.738e+08   ,1.4  ,-2.4  ,5
85  ,5.224e+08   ,1.6  ,-2.4  ,5
86  ,5.553e+08   ,1.8  ,-2.4  ,5
87  ,4.377e+08   ,2  ,-2.4  ,5
88  ,2.447e+08   ,2.2  ,-2.4  ,5
89  ,3.362e+08   ,2.4  ,-2.2029  ,5
90  ,3.761e+08   ,2.4  ,-2.0058  ,5
91  ,3.099e+08   ,2.4  ,-1.8087  ,5
92  ,2.400e+08   ,2.4  ,-1.6116  ,5
93  ,2.335e+08   ,2.4  ,-1.4145  ,5
94  ,2.001e+08   ,2.4  ,-1.2175  ,5
95  ,2.460e+08   ,2.4  ,-1.0204  ,5
96  ,2.942e+08   ,2.4  ,-0.82327  ,5
97  ,2.758e+08   ,2.4  ,-0.62618  ,5
98  ,2.420e+08   ,2.4  ,-0.42909  ,5
99  ,3.088e+08   ,2.4  ,-0.232  ,5
100  ,4.114e+08   ,2.4  ,-0.034907  ,5
101  ,5.464e+08   ,2.4  ,0.16218  ,5
102  ,6.926e+08   ,2.4  ,0.35927  ,5
103  ,7.923e+08   ,2.4  ,0.55637  ,5
104  ,8.804e+08   ,2.4  ,0.75346  ,5
105  ,8.611e+08   ,2.4  ,0.95055  ,5
106  ,8.624e+08   ,2.4  ,1.1476  ,5
107  ,1.366e+09   ,2.4  ,1.3447  ,5
108  ,1.928e+09   ,2.4  ,1.5418  ,5
109  ,2.630e+09   ,2.4  ,1.7389  ,5
110  ,4.098e+09   ,2.4  ,1.936  ,5
111  ,5.688e+09   ,2.2665  ,2.2665  ,5
112  ,4.323e+09   ,1.936  ,2.4  ,5
113  ,2.545e+09   ,1.7389  ,2.4  ,5
114  ,2.030e+09   ,1.5418  ,2.4  ,5
115  ,1.329e+09   ,1.3447  ,2.4  ,5
116  ,1.039e+09   ,1.1476  ,2.4  ,5
117  ,9.394e+08   ,0.95055  ,2.4  ,5
118  ,9.595e+08   ,0.75346  ,2.4  ,5
119  ,8.239e+08   ,0.55637  ,2.4  ,5
120  ,6.796e+08   ,0.35927  ,2.4  ,5
121  ,6.242e+08   ,0.16218  ,2.4  ,5
122  ,5.334e+08   ,-0.034907  ,2.4  ,5
123  ,5.476e+08   ,-0.232  ,2.4  ,5
124  ,3.879e+08   ,-0.42909  ,2.4  ,5
125  ,3.606e+08   ,-0.62618  ,2.4  ,5
126  ,4.095e+08   ,-0.82327  ,2.4  ,5
127  ,3.725e+08   ,-1.0204  ,2.4  ,5
128  ,3.309e+08   ,-1.2175  ,2.4  ,5
129  ,2.809e+08   ,-1.4145  ,2.4  ,5
130  ,2.061e+08   ,-1.6116  ,2.4  ,5
131  ,1.433e+08   ,-1.8087  ,2.4  ,5
132  ,1.053e+08   ,-2.0058  ,2.4  ,5
133  ,1.186e+08   ,-2.2029  ,2.4  ,5
294  ,3.110e+08   ,2.5  ,-2.2029  ,4.9
295  ,3.634e+08   ,2.5  ,-2.0058  ,4.9
296  ,3.189e+08   ,2.5  ,-1.8087  ,4.9
297  ,2.731e+08   ,2.5  ,-1.6116  ,4.9
298  ,2.296e+08   ,2.5  ,-1.4145  ,4.9
299  ,2.088e+08   ,2.5  ,-1.2175  ,4.9
300  ,2.441e+08   ,2.5  ,-1.0204  ,4.9
301  ,2.325e+08   ,2.5  ,-0.82327  ,4.9
302  ,2.335e+08   ,2.5  ,-0.62618  ,4.9
303  ,2.374e+08   ,2.5  ,-0.42909  ,4.9
304  ,3.247e+08   ,2.5  ,-0.232  ,4.9
305  ,4.673e+08   ,2.5  ,-0.034907  ,4.9
306  ,6.078e+08   ,2.5  ,0.16218  ,4.9
307  ,6.628e+08   ,2.5  ,0.35927  ,4.9
308  ,7.915e+08   ,2.5  ,0.55637  ,4.9
309  ,8.506e+08   ,2.5  ,0.75346  ,4.9
310  ,8.107e+08   ,2.5  ,0.95055  ,4.9
311  ,1.059e+09   ,2.5  ,1.1476  ,4.9
312  ,1.408e+09   ,2.5  ,1.3447  ,4.9
313  ,2.018e+09   ,2.5  ,1.5418  ,4.9
314  ,3.040e+09   ,2.5  ,1.7389  ,4.9
315  ,4.472e+09   ,2.5  ,1.936  ,4.9
316  ,2.351e+08   ,2.5  ,-2.4  ,4.7
317  ,3.519e+08   ,2.5  ,-2.4  ,4.5
318  ,4.815e+08   ,2.5  ,-2.4  ,4.3
319  ,4.708e+08   ,2.5  ,-2.4  ,4.1
320  ,4.310e+08   ,2.5  ,-2.4  ,3.9
321  ,3.715e+08   ,2.5  ,-2.4  ,3.7
322  ,3.780e+08   ,2.5  ,-2.4  ,3.5
323  ,4.518e+08   ,2.5  ,-2.4  ,3.3
324  ,4.247e+08   ,2.5  ,-2.4  ,3.1
325  ,3.476e+08   ,2.5  ,-2.4  ,2.9
326  ,3.360e+08   ,2.5  ,-2.4  ,2.7
327  ,3.128e+08   ,2.5  ,-2.4  ,2.5
328  ,2.636e+08   ,2.5  ,-2.4  ,2.3
329  ,1.978e+08   ,2.5  ,-2.4  ,2.1
330  ,9.002e+07   ,2.5  ,-2.4  ,1.9
331  ,1.214e+08   ,2.5  ,-2.4  ,1.7
332  ,2.167e+08   ,2.5  ,-2.4  ,1.5
333  ,3.279e+08   ,2.5  ,-2.4  ,1.3
334  ,3.221e+08   ,2.5  ,-2.4  ,1.1
335  ,2.737e+08   ,2.5  ,-2.4  ,0.9
336  ,2.539e+08   ,2.5  ,-2.4  ,0.7
337  ,3.314e+08   ,2.5  ,-2.4  ,0.5
338  ,3.487e+08   ,2.5  ,-2.4  ,0.3
339  ,2.400e+08   ,2.5  ,-2.2  ,0.1
340  ,2.141e+08   ,2.5  ,-2  ,0.1
341  ,1.892e+08   ,2.5  ,-1.8  ,0.1
342  ,1.965e+08   ,2.5  ,-1.6  ,0.1
343  ,1.614e+08   ,2.5  ,-1.4  ,0.1
344  ,1.174e+08   ,2.5  ,-1.2  ,0.1
345  ,1.081e+08   ,2.5  ,-1  ,0.1
346  ,9.177e+07   ,2.5  ,-0.8  ,0.1
347  ,1.387e+08   ,2.5  ,-0.6  ,0.1
348  ,1.868e+08   ,2.5  ,-0.4  ,0.1
349  ,2.288e+08   ,2.5  ,-0.2  ,0.1
350  ,2.419e+08   ,2.5  ,-1.7664E-15  ,0.1
351  ,2.681e+08   ,2.5  ,0.2  ,0.1
352  ,3.185e+08   ,2.5  ,0.4  ,0.1
353  ,3.090e+08   ,2.5  ,0.6  ,0.1
354  ,3.895e+08   ,2.5  ,0.8  ,0.1
355  ,2.907e+08   ,2.5  ,1  ,0.1
356  ,2.363e+08   ,2.5  ,1.2  ,0.1
357  ,2.224e+08   ,2.5  ,1.4  ,0.1
358  ,1.977e+08   ,2.5  ,1.6  ,0.1
359  ,1.514e+08   ,2.5  ,1.8  ,0.1
360  ,1.286e+08   ,2.5  ,2  ,0.1
361  ,1.056e+08   ,2.5  ,2.2  ,0.1
362  ,4.192e+09   ,2.5  ,2.4  ,4.436
363  ,2.849e+09   ,2.5  ,2.4  ,4.2389
364  ,1.816e+09   ,2.5  ,2.4  ,4.0418
365  ,1.420e+09   ,2.5  ,2.4  ,3.8447
366  ,1.064e+09   ,2.5  ,2.4  ,3.6476
367  ,1.012e+09   ,2.5  ,2.4  ,3.4505
368  ,1.092e+09   ,2.5  ,2.4  ,3.2535
369  ,8.801e+08   ,2.5  ,2.4  ,3.0564
370  ,7.002e+08   ,2.5  ,2.4  ,2.8593
371  ,5.932e+08   ,2.5  ,2.4  ,2.6622
372  ,5.376e+08   ,2.5  ,2.4  ,2.4651
373  ,4.251e+08   ,2.5  ,2.4  ,2.268
374  ,3.731e+08   ,2.5  ,2.4  ,2.0709
375  ,3.674e+08   ,2.5  ,2.4  ,1.8738
376  ,4.114e+08   ,2.5  ,2.4  ,1.6767
377  ,2.659e+08   ,2.5  ,2.4  ,1.4796
378  ,2.582e+08   ,2.5  ,2.4  ,1.2825
379  ,2.365e+08   ,2.5  ,2.4  ,1.0855
380  ,2.264e+08   ,2.5  ,2.4  ,0.88836
381  ,1.798e+08   ,2.5  ,2.4  ,0.69127
382  ,1.117e+08   ,2.5  ,2.4  ,0.49418
383  ,6.337e+07   ,2.5  ,2.4  ,0.29709
384  ,5.741e+09   ,2.5  ,2.2665  ,4.7665
544  ,9.582e+07   ,2.2  ,2.5  ,0.1
545  ,1.311e+08   ,2  ,2.5  ,0.1
546  ,1.429e+08   ,1.8  ,2.5  ,0.1
547  ,1.678e+08   ,1.6  ,2.5  ,0.1
548  ,1.739e+08   ,1.4  ,2.5  ,0.1
549  ,2.092e+08   ,1.2  ,2.5  ,0.1
550  ,2.395e+08   ,1  ,2.5  ,0.1
551  ,3.454e+08   ,0.8  ,2.5  ,0.1
552  ,2.975e+08   ,0.6  ,2.5  ,0.1
553  ,2.778e+08   ,0.4  ,2.5  ,0.1
554  ,3.053e+08   ,0.2  ,2.5  ,0.1
555  ,3.407e+08   ,5.8879E-16  ,2.5  ,0.1
556  ,3.631e+08   ,-0.2  ,2.5  ,0.1
557  ,3.271e+08   ,-0.4  ,2.5  ,0.1
558  ,2.584e+08   ,-0.6  ,2.5  ,0.1
559  ,1.511e+08   ,-0.8  ,2.5  ,0.1
560  ,1.934e+08   ,-1  ,2.5  ,0.1
561  ,1.986e+08   ,-1.2  ,2.5  ,0.1
562  ,1.782e+08   ,-1.4  ,2.5  ,0.1
563  ,1.550e+08   ,-1.6  ,2.5  ,0.1
564  ,1.693e+08   ,-1.8  ,2.5  ,0.1
565  ,2.023e+08   ,-2  ,2.5  ,0.1
566  ,2.876e+08   ,-2.2  ,2.5  ,0.1
567  ,1.041e+08   ,-2.4  ,2.5  ,4.7
568  ,1.229e+08   ,-2.4  ,2.5  ,4.5
569  ,1.296e+08   ,-2.4  ,2.5  ,4.3
570  ,1.434e+08   ,-2.4  ,2.5  ,4.1
571  ,1.730e+08   ,-2.4  ,2.5  ,3.9
572  ,2.023e+08   ,-2.4  ,2.5  ,3.7
573  ,2.458e+08   ,-2.4  ,2.5  ,3.5
574  ,3.422e+08   ,-2.4  ,2.5  ,3.3
575  ,2.920e+08   ,-2.4  ,2.5  ,3.1
576  ,2.782e+08   ,-2.4  ,2.5  ,2.9
577  ,2.561e+08   ,-2.4  ,2.5  ,2.7
578  ,2.906e+08   ,-2.4  ,2.5  ,2.5
579  ,2.694e+08   ,-2.4  ,2.5  ,2.3
580  ,2.852e+08   ,-2.4  ,2.5  ,2.1
581  ,2.244e+08   ,-2.4  ,2.5  ,1.9
582  ,1.143e+08   ,-2.4  ,2.5  ,1.7
583  ,1.672e+08   ,-2.4  ,2.5  ,1.5
584  ,1.680e+08   ,-2.4  ,2.5  ,1.3
585  ,1.713e+08   ,-2.4  ,2.5  ,1.1
586  ,1.693e+08   ,-2.4  ,2.5  ,0.9
587  ,1.663e+08   ,-2.4  ,2.5  ,0.7
588  ,2.231e+08   ,-2.4  ,2.5  ,0.5
589  ,2.786e+08   ,-2.4  ,2.5  ,0.3
590  ,4.731e+09   ,1.936  ,2.5  ,4.9
591  ,2.368e+09   ,1.7389  ,2.5  ,4.9
592  ,1.865e+09   ,1.5418  ,2.5  ,4.9
593  ,1.440e+09   ,1.3447  ,2.5  ,4.9
594  ,1.062e+09   ,1.1476  ,2.5  ,4.9
595  ,1.039e+09   ,0.95055  ,2.5  ,4.9
596  ,9.140e+08   ,0.75346  ,2.5  ,4.9
597  ,7.811e+08   ,0.55637  ,2.5  ,4.9
598  ,7.476e+08   ,0.35927  ,2.5  ,4.9
599  ,6.074e+08   ,0.16218  ,2.5  ,4.9
600  ,5.030e+08   ,-0.034907  ,2.5  ,4.9
601  ,4.334e+08   ,-0.232  ,2.5  ,4.9
602  ,4.509e+08   ,-0.42909  ,2.5  ,4.9
603  ,4.376e+08   ,-0.62618  ,2.5  ,4.9
604  ,4.146e+08   ,-0.82327  ,2.5  ,4.9
605  ,4.041e+08   ,-1.0204  ,2.5  ,4.9
606  ,3.691e+08   ,-1.2175  ,2.5  ,4.9
607  ,3.071e+08   ,-1.4145  ,2.5  ,4.9
608  ,2.264e+08   ,-1.6116  ,2.5  ,4.9
609  ,1.508e+08   ,-1.8087  ,2.5  ,4.9
610  ,1.077e+08   ,-2.0058  ,2.5  ,4.9
611  ,7.497e+07   ,-2.2029  ,2.5  ,4.9
612  ,5.967e+09   ,2.2665  ,2.5  ,4.7665
613  ,4.035e+09   ,2.4  ,2.5  ,4.436
614  ,2.490e+09   ,2.4  ,2.5  ,4.2389
615  ,1.810e+09   ,2.4  ,2.5  ,4.0418
616  ,1.350e+09   ,2.4  ,2.5  ,3.8447
617  ,1.121e+09   ,2.4  ,2.5  ,3.6476
618  ,1.029e+09   ,2.4  ,2.5  ,3.4505
619  ,1.090e+09   ,2.4  ,2.5  ,3.2535
620  ,8.996e+08   ,2.4  ,2.5  ,3.0564
621  ,7.264e+08   ,2.4  ,2.5  ,2.8593
622  ,6.002e+08   ,2.4  ,2.5  ,2.6622
623  ,4.595e+08   ,2.4  ,2.5  ,2.4651
624  ,4.007e+08   ,2.4  ,2.5  ,2.268
625  ,3.359e+08   ,2.4  ,2.5  ,2.0709
626  ,3.774e+08   ,2.4  ,2.5  ,1.8738
627  ,4.472e+08   ,2.4  ,2.5  ,1.6767
628  ,3.967e+08   ,2.4  ,2.5  ,1.4796
629  ,3.432e+08   ,2.4  ,2.5  ,1.2825
630  ,2.349e+08   ,2.4  ,2.5  ,1.0855
631  ,1.755e+08   ,2.4  ,2.5  ,0.88836
632  ,1.293e+08   ,2.4  ,2.5  ,0.69127
633  ,1.126e+08   ,2.4  ,2.5  ,0.49418
634  ,6.275e+07   ,2.4  ,2.5  ,0.29709
796  ,1.189e+08   ,-2.5  ,2.2  ,0.1
797  ,1.841e+08   ,-2.5  ,2  ,0.1
798  ,2.228e+08   ,-2.5  ,1.8  ,0.1
799  ,2.560e+08   ,-2.5  ,1.6  ,0.1
800  ,2.710e+08   ,-2.5  ,1.4  ,0.1
801  ,2.632e+08   ,-2.5  ,1.2  ,0.1
802  ,2.481e+08   ,-2.5  ,1  ,0.1
803  ,1.795e+08   ,-2.5  ,0.8  ,0.1
804  ,1.649e+08   ,-2.5  ,0.6  ,0.1
805  ,1.670e+08   ,-2.5  ,0.4  ,0.1
806  ,1.709e+08   ,-2.5  ,0.2  ,0.1
807  ,1.719e+08   ,-2.5  ,5.8879E-16  ,0.1
808  ,1.516e+08   ,-2.5  ,-0.2  ,0.1
809  ,1.262e+08   ,-2.5  ,-0.4  ,0.1
810  ,1.170e+08   ,-2.5  ,-0.6  ,0.1
811  ,1.004e+08   ,-2.5  ,-0.8  ,0.1
812  ,7.274e+07   ,-2.5  ,-1  ,0.1
813  ,3.842e+07   ,-2.5  ,-1.2  ,0.1
814  ,1.742e+07   ,-2.5  ,-1.4  ,0.1
815  ,1.668e+07   ,-2.5  ,-1.6  ,0.1
816  ,2.473e+07   ,-2.5  ,-1.8  ,0.1
817  ,1.463e+07   ,-2.5  ,-2  ,0.1
818  ,5.819e+06   ,-2.5  ,-2.2  ,0.1
819  ,1.369e+08   ,-2.5  ,-2.4  ,4.7
820  ,1.791e+08   ,-2.5  ,-2.4  ,4.5
821  ,2.999e+08   ,-2.5  ,-2.4  ,4.3
822  ,4.139e+08   ,-2.5  ,-2.4  ,4.1
823  ,3.737e+08   ,-2.5  ,-2.4  ,3.9
824  ,3.001e+08   ,-2.5  ,-2.4  ,3.7
825  ,1.743e+08   ,-2.5  ,-2.4  ,3.5
826  ,4.559e+07   ,-2.5  ,-2.4  ,3.3
827  ,9.097e+07   ,-2.5  ,-2.4  ,3.1
828  ,1.871e+08   ,-2.5  ,-2.4  ,2.9
829  ,1.872e+08   ,-2.5  ,-2.4  ,2.7
830  ,1.397e+08   ,-2.5  ,-2.4  ,2.5
831  ,1.055e+08   ,-2.5  ,-2.4  ,2.3
832  ,8.846e+07   ,-2.5  ,-2.4  ,2.1
833  ,7.701e+07   ,-2.5  ,-2.4  ,1.9
834  ,8.270e+07   ,-2.5  ,-2.4  ,1.7
835  ,7.814e+07   ,-2.5  ,-2.4  ,1.5
836  ,4.957e+07   ,-2.5  ,-2.4  ,1.3
837  ,4.351e+07   ,-2.5  ,-2.4  ,1.1
838  ,3.690e+07   ,-2.5  ,-2.4  ,0.9
839  ,2.949e+07   ,-2.5  ,-2.4  ,0.7
840  ,1.527e+07   ,-2.5  ,-2.4  ,0.5
841  ,6.195e+06   ,-2.5  ,-2.4  ,0.3
842  ,1.322e+08   ,-2.5  ,2.2  ,4.9
843  ,1.579e+08   ,-2.5  ,2  ,4.9
844  ,1.551e+08   ,-2.5  ,1.8  ,4.9
845  ,1.696e+08   ,-2.5  ,1.6  ,4.9
846  ,2.034e+08   ,-2.5  ,1.4  ,4.9
847  ,2.300e+08   ,-2.5  ,1.2  ,4.9
848  ,2.834e+08   ,-2.5  ,1  ,4.9
849  ,4.236e+08   ,-2.5  ,0.8  ,4.9
850  ,3.017e+08   ,-2.5  ,0.6  ,4.9
851  ,2.680e+08   ,-2.5  ,0.4  ,4.9
852  ,2.708e+08   ,-2.5  ,0.2  ,4.9
853  ,2.667e+08   ,-2.5  ,5.8879E-16  ,4.9
854  ,2.317e+08   ,-2.5  ,-0.2  ,4.9
855  ,1.743e+08   ,-2.5  ,-0.4  ,4.9
856  ,1.505e+08   ,-2.5  ,-0.6  ,4.9
857  ,1.512e+08   ,-2.5  ,-0.8  ,4.9
858  ,1.217e+08   ,-2.5  ,-1  ,4.9
859  ,1.218e+08   ,-2.5  ,-1.2  ,4.9
860  ,1.478e+08   ,-2.5  ,-1.4  ,4.9
861  ,1.555e+08   ,-2.5  ,-1.6  ,4.9
862  ,1.642e+08   ,-2.5  ,-1.8  ,4.9
863  ,1.920e+08   ,-2.5  ,-2  ,4.9
864  ,2.011e+08   ,-2.5  ,-2.2  ,4.9
865  ,1.245e+08   ,-2.5  ,2.4  ,4.7
866  ,1.500e+08   ,-2.5  ,2.4  ,4.5
867  ,1.848e+08   ,-2.5  ,2.4  ,4.3
868  ,1.570e+08   ,-2.5  ,2.4  ,4.1
869  ,2.335e+08   ,-2.5  ,2.4  ,3.9
870  ,2.436e+08   ,-2.5  ,2.4  ,3.7
871  ,2.733e+08   ,-2.5  ,2.4  ,3.5
872  ,3.364e+08   ,-2.5  ,2.4  ,3.3
873  ,2.952e+08   ,-2.5  ,2.4  ,3.1
874  ,2.806e+08   ,-2.5  ,2.4  ,2.9
875  ,2.714e+08   ,-2.5  ,2.4  ,2.7
876  ,2.847e+08   ,-2.5  ,2.4  ,2.5
877  ,2.337e+08   ,-2.5  ,2.4  ,2.3
878  ,2.178e+08   ,-2.5  ,2.4  ,2.1
879  ,1.604e+08   ,-2.5  ,2.4  ,1.9
880  ,1.103e+08   ,-2.5  ,2.4  ,1.7
881  ,1.029e+08   ,-2.5  ,2.4  ,1.5
882  ,1.049e+08   ,-2.5  ,2.4  ,1.3
883  ,1.107e+08   ,-2.5  ,2.4  ,1.1
884  ,1.109e+08   ,-2.5  ,2.4  ,0.9
885  ,1.250e+08   ,-2.5  ,2.4  ,0.7
886  ,1.626e+08   ,-2.5  ,2.4  ,0.5
887  ,1.674e+08   ,-2.5  ,2.4  ,0.3
1044  ,1.283e+07   ,-2.3  ,-2.5  ,0.44697
1045  ,2.202e+07   ,-2.3  ,-2.5  ,0.68705
1046  ,3.769e+07   ,-2.3  ,-2.5  ,0.92554
1047  ,5.542e+07   ,-2.3  ,-2.5  ,1.1682
1048  ,6.673e+07   ,-2.3  ,-2.5  ,1.4148
1049  ,7.275e+07   ,-2.3  ,-2.5  ,1.6581
1050  ,6.457e+07   ,-2.3  ,-2.5  ,1.8967
1051  ,1.010e+08   ,-2.3  ,-2.5  ,2.1357
1052  ,1.300e+08   ,-2.3  ,-2.5  ,2.3794
1053  ,1.341e+08   ,-2.3  ,-2.5  ,2.6206
1054  ,1.618e+08   ,-2.3  ,-2.5  ,2.8643
1055  ,2.925e+08   ,-2.3  ,-2.5  ,3.1033
1056  ,2.865e+08   ,-2.3  ,-2.5  ,3.342
1057  ,8.855e+07   ,-2.3  ,-2.5  ,3.5852
1058  ,1.246e+08   ,-2.3  ,-2.5  ,3.8318
1059  ,1.958e+08   ,-2.3  ,-2.5  ,4.0745
1060  ,1.991e+08   ,-2.3  ,-2.5  ,4.3129
1061  ,1.650e+08   ,-2.3  ,-2.5  ,4.553
1062  ,4.542e+08   ,-2.053  ,-2.5  ,4.8
1063  ,3.206e+08   ,-1.8129  ,-2.5  ,4.8
1064  ,2.367e+08   ,-1.5745  ,-2.5  ,4.8
1065  ,1.916e+08   ,-1.3318  ,-2.5  ,4.8
1066  ,1.778e+08   ,-1.0852  ,-2.5  ,4.8
1067  ,1.382e+08   ,-0.84195  ,-2.5  ,4.8
1068  ,1.129e+08   ,-0.60329  ,-2.5  ,4.8
1069  ,1.175e+08   ,-0.3643  ,-2.5  ,4.8
1070  ,2.141e+08   ,-0.12055  ,-2.5  ,4.8
1071  ,3.035e+08   ,0.12056  ,-2.5  ,4.8
1072  ,3.498e+08   ,0.3643  ,-2.5  ,4.8
1073  ,2.815e+08   ,0.6033  ,-2.5  ,4.8
1074  ,4.303e+08   ,0.84195  ,-2.5  ,4.8
1075  ,4.790e+08   ,1.0852  ,-2.5  ,4.8
1076  ,3.732e+08   ,1.3318  ,-2.5  ,4.8
1077  ,3.117e+08   ,1.5745  ,-2.5  ,4.8
1078  ,2.366e+08   ,1.8129  ,-2.5  ,4.8
1079  ,3.651e+08   ,2.053  ,-2.5  ,4.8
1080  ,3.331e+08   ,2.3  ,-2.5  ,4.553
1081  ,2.176e+08   ,2.3  ,-2.5  ,4.3129
1082  ,2.870e+08   ,2.3  ,-2.5  ,4.0745
1083  ,3.808e+08   ,2.3  ,-2.5  ,3.8318
1084  ,4.785e+08   ,2.3  ,-2.5  ,3.5852
1085  ,4.379e+08   ,2.3  ,-2.5  ,3.3419
1086  ,3.159e+08   ,2.3  ,-2.5  ,3.1033
1087  ,3.676e+08   ,2.3  ,-2.5  ,2.8643
1088  ,3.495e+08   ,2.3  ,-2.5  ,2.6206
1089  ,2.570e+08   ,2.3  ,-2.5  ,2.3794
1090  ,1.797e+08   ,2.3  ,-2.5  ,2.1357
1091  ,1.087e+08   ,2.3  ,-2.5  ,1.8967
1092  ,1.160e+08   ,2.3  ,-2.5  ,1.658
1093  ,1.771e+08   ,2.3  ,-2.5  ,1.4148
1094  ,2.015e+08   ,2.3  ,-2.5  ,1.1682
1095  ,2.456e+08   ,2.3  ,-2.5  ,0.92554
1096  ,3.286e+08   ,2.3  ,-2.5  ,0.68705
1097  ,4.009e+08   ,2.3  ,-2.5  ,0.44697
1098  ,1.157e+07   ,-2.053  ,-2.5  ,0.2
1099  ,2.132e+07   ,-1.8129  ,-2.5  ,0.2
1100  ,3.271e+07   ,-1.5745  ,-2.5  ,0.2
1101  ,4.600e+07   ,-1.3318  ,-2.5  ,0.2
1102  ,5.704e+07   ,-1.0852  ,-2.5  ,0.2
1103  ,7.029e+07   ,-0.84195  ,-2.5  ,0.2
1104  ,8.728e+07   ,-0.60329  ,-2.5  ,0.2
1105  ,1.119e+08   ,-0.3643  ,-2.5  ,0.2
1106  ,1.390e+08   ,-0.12055  ,-2.5  ,0.2
1107  ,1.423e+08   ,0.12056  ,-2.5  ,0.2
1108  ,1.604e+08   ,0.3643  ,-2.5  ,0.2
1109  ,2.860e+08   ,0.6033  ,-2.5  ,0.2
1110  ,2.694e+08   ,0.84195  ,-2.5  ,0.2
1111  ,6.325e+07   ,1.0852  ,-2.5  ,0.2
1112  ,1.152e+08   ,1.3318  ,-2.5  ,0.2
1113  ,1.737e+08   ,1.5745  ,-2.5  ,0.2
1114  ,2.026e+08   ,1.8129  ,-2.5  ,0.2
1115  ,1.583e+08   ,2.053  ,-2.5  ,0.2
1116  ,2.799e+08   ,-2.2  ,-2.5  ,4.9
1117  ,1.091e+08   ,-2  ,-2.5  ,4.9
1118  ,1.904e+08   ,-1.8  ,-2.5  ,4.9
1119  ,2.704e+08   ,-1.6  ,-2.5  ,4.9
1120  ,2.621e+08   ,-1.4  ,-2.5  ,4.9
1121  ,1.870e+08   ,-1.2  ,-2.5  ,4.9
1122  ,8.123e+07   ,-1  ,-2.5  ,4.9
1123  ,9.593e+07   ,-0.8  ,-2.5  ,4.9
1124  ,1.383e+08   ,-0.6  ,-2.5  ,4.9
1125  ,1.678e+08   ,-0.4  ,-2.5  ,4.9
1126  ,2.277e+08   ,-0.2  ,-2.5  ,4.9
1127  ,2.651e+08   ,-1.7664E-15  ,-2.5  ,4.9
1128  ,3.061e+08   ,0.2  ,-2.5  ,4.9
1129  ,3.372e+08   ,0.4  ,-2.5  ,4.9
1130  ,3.460e+08   ,0.6  ,-2.5  ,4.9
1131  ,4.274e+08   ,0.8  ,-2.5  ,4.9
1132  ,4.236e+08   ,1  ,-2.5  ,4.9
1133  ,4.247e+08   ,1.2  ,-2.5  ,4.9
1134  ,4.346e+08   ,1.4  ,-2.5  ,4.9
1135  ,4.294e+08   ,1.6  ,-2.5  ,4.9
1136  ,4.195e+08   ,1.8  ,-2.5  ,4.9
1137  ,3.898e+08   ,2  ,-2.5  ,4.9
1138  ,3.906e+08   ,2.2  ,-2.5  ,4.9
1139  ,2.752e+08   ,-2.4  ,-2.5  ,4.7
1140  ,1.530e+08   ,-2.4  ,-2.5  ,4.5
1141  ,1.128e+08   ,-2.4  ,-2.5  ,4.3
1142  ,9.946e+07   ,-2.4  ,-2.5  ,4.1
1143  ,1.528e+08   ,-2.4  ,-2.5  ,3.9
1144  ,1.994e+08   ,-2.4  ,-2.5  ,3.7
1145  ,1.947e+08   ,-2.4  ,-2.5  ,3.5
1146  ,1.542e+08   ,-2.4  ,-2.5  ,3.3
1147  ,2.168e+08   ,-2.4  ,-2.5  ,3.1
1148  ,2.088e+08   ,-2.4  ,-2.5  ,2.9
1149  ,1.836e+08   ,-2.4  ,-2.5  ,2.7
1150  ,1.344e+08   ,-2.4  ,-2.5  ,2.5
1151  ,1.061e+08   ,-2.4  ,-2.5  ,2.3
1152  ,9.159e+07   ,-2.4  ,-2.5  ,2.1
1153  ,7.739e+07   ,-2.4  ,-2.5  ,1.9
1154  ,7.560e+07   ,-2.4  ,-2.5  ,1.7
1155  ,7.354e+07   ,-2.4  ,-2.5  ,1.5
1156  ,5.220e+07   ,-2.4  ,-2.5  ,1.3
1157  ,4.803e+07   ,-2.4  ,-2.5  ,1.1
1158  ,3.627e+07   ,-2.4  ,-2.5  ,0.9
1159  ,2.229e+07   ,-2.4  ,-2.5  ,0.7
1160  ,8.416e+06   ,-2.4  ,-2.5  ,0.5
1161  ,4.604e+06   ,-2.4  ,-2.5  ,0.3
1162  ,4.788e+06   ,-2.2  ,-2.5  ,0.1
1163  ,1.205e+07   ,-2  ,-2.5  ,0.1
1164  ,1.603e+07   ,-1.8  ,-2.5  ,0.1
1165  ,2.588e+07   ,-1.6  ,-2.5  ,0.1
1166  ,4.555e+07   ,-1.4  ,-2.5  ,0.1
1167  ,6.255e+07   ,-1.2  ,-2.5  ,0.1
1168  ,6.679e+07   ,-1  ,-2.5  ,0.1
1169  ,7.768e+07   ,-0.8  ,-2.5  ,0.1
1170  ,9.317e+07   ,-0.6  ,-2.5  ,0.1
1171  ,1.106e+08   ,-0.4  ,-2.5  ,0.1
1172  ,1.232e+08   ,-0.2  ,-2.5  ,0.1
1173  ,1.352e+08   ,-1.7664E-15  ,-2.5  ,0.1
1174  ,1.773e+08   ,0.2  ,-2.5  ,0.1
1175  ,2.055e+08   ,0.4  ,-2.5  ,0.1
1176  ,1.968e+08   ,0.6  ,-2.5  ,0.1
1177  ,1.696e+08   ,0.8  ,-2.5  ,0.1
1178  ,1.823e+08   ,1  ,-2.5  ,0.1
1179  ,1.704e+08   ,1.2  ,-2.5  ,0.1
1180  ,1.435e+08   ,1.4  ,-2.5  ,0.1
1181  ,1.379e+08   ,1.6  ,-2.5  ,0.1
1182  ,1.573e+08   ,1.8  ,-2.5  ,0.1
1183  ,1.560e+08   ,2  ,-2.5  ,0.1
1184  ,2.592e+08   ,2.2  ,-2.5  ,0.1
1185  ,3.379e+08   ,2.4  ,-2.5  ,4.7
1186  ,3.308e+08   ,2.4  ,-2.5  ,4.5
1187  ,3.589e+08   ,2.4  ,-2.5  ,4.3
1188  ,3.769e+08   ,2.4  ,-2.5  ,4.1
1189  ,4.241e+08   ,2.4  ,-2.5  ,3.9
1190  ,4.285e+08   ,2.4  ,-2.5  ,3.7
1191  ,4.413e+08   ,2.4  ,-2.5  ,3.5
1192  ,4.406e+08   ,2.4  ,-2.5  ,3.3
1193  ,3.987e+08   ,2.4  ,-2.5  ,3.1
1194  ,3.817e+08   ,2.4  ,-2.5  ,2.9
1195  ,3.582e+08   ,2.4  ,-2.5  ,2.7
1196  ,3.186e+08   ,2.4  ,-2.5  ,2.5
1197  ,2.816e+08   ,2.4  ,-2.5  ,2.3
1198  ,2.007e+08   ,2.4  ,-2.5  ,2.1
1199  ,1.282e+08   ,2.4  ,-2.5  ,1.9
1200  ,6.335e+07   ,2.4  ,-2.5  ,1.7
1201  ,1.090e+08   ,2.4  ,-2.5  ,1.5
1202  ,2.495e+08   ,2.4  ,-2.5  ,1.3
1203  ,2.642e+08   ,2.4  ,-2.5  ,1.1
1204  ,2.083e+08   ,2.4  ,-2.5  ,0.9
1205  ,1.358e+08   ,2.4  ,-2.5  ,0.7
1206  ,7.418e+07   ,2.4  ,-2.5  ,0.5
1207  ,2.361e+08   ,2.4  ,-2.5  ,0.3
1208  ,1.805e+08   ,2.4  ,-2.2  ,0
1209  ,1.852e+08   ,2.4  ,-2  ,0
1210  ,1.579e+08   ,2.4  ,-1.8  ,0
1211  ,1.488e+08   ,2.4  ,-1.6  ,0
1212  ,1.368e+08   ,2.4  ,-1.4  ,0
1213  ,9.776e+07   ,2.4  ,-1.2  ,0
1214  ,1.105e+08   ,2.4  ,-1  ,0
1215  ,1.522e+08   ,2.4  ,-0.8  ,0
1216  ,1.543e+08   ,2.4  ,-0.6  ,0
1217  ,1.710e+08   ,2.4  ,-0.4  ,0
1218  ,2.289e+08   ,2.4  ,-0.2  ,0
1219  ,2.436e+08   ,2.4  ,-1.7664E-15  ,0
1220  ,2.817e+08   ,2.4  ,0.2  ,0
1221  ,2.663e+08   ,2.4  ,0.4  ,0
1222  ,2.634e+08   ,2.4  ,0.6  ,0
1223  ,3.897e+08   ,2.4  ,0.8  ,0
1224  ,3.008e+08   ,2.4  ,1  ,0
1225  ,2.530e+08   ,2.4  ,1.2  ,0
1226  ,2.081e+08   ,2.4  ,1.4  ,0
1227  ,1.521e+08   ,2.4  ,1.6  ,0
1228  ,1.623e+08   ,2.4  ,1.8  ,0
1229  ,1.456e+08   ,2.4  ,2  ,0
1230  ,1.348e+08   ,2.4  ,2.2  ,0
1231  ,5.005e+06   ,-2.2  ,-2.4  ,0
1232  ,1.038e+07   ,-2  ,-2.4  ,0
1233  ,1.193e+07   ,-1.8  ,-2.4  ,0
1234  ,2.657e+07   ,-1.6  ,-2.4  ,0
1235  ,5.218e+07   ,-1.4  ,-2.4  ,0
1236  ,6.947e+07   ,-1.2  ,-2.4  ,0
1237  ,7.116e+07   ,-1  ,-2.4  ,0
1238  ,7.976e+07   ,-0.8  ,-2.4  ,0
1239  ,9.977e+07   ,-0.6  ,-2.4  ,0
1240  ,1.197e+08   ,-0.4  ,-2.4  ,0
1241  ,1.239e+08   ,-0.2  ,-2.4  ,0
1242  ,1.401e+08   ,5.8879E-16  ,-2.4  ,0
1243  ,1.915e+08   ,0.2  ,-2.4  ,0
1244  ,1.734e+08   ,0.4  ,-2.4  ,0
1245  ,8.354e+07   ,0.6  ,-2.4  ,0
1246  ,4.967e+07   ,0.8  ,-2.4  ,0
1247  ,1.951e+08   ,1  ,-2.4  ,0
1248  ,3.191e+08   ,1.2  ,-2.4  ,0
1249  ,3.792e+08   ,1.4  ,-2.4  ,0
1250  ,4.065e+08   ,1.6  ,-2.4  ,0
1251  ,3.368e+08   ,1.8  ,-2.4  ,0
1252  ,2.327e+08   ,2  ,-2.4  ,0
1253  ,1.729e+08   ,2.2  ,-2.4  ,0
1254  ,1.325e+08   ,-2.4  ,2.2  ,0
1255  ,1.758e+08   ,-2.4  ,2  ,0
1256  ,2.153e+08   ,-2.4  ,1.8  ,0
1257  ,2.379e+08   ,-2.4  ,1.6  ,0
1258  ,2.701e+08   ,-2.4  ,1.4  ,0
1259  ,2.737e+08   ,-2.4  ,1.2  ,0
1260  ,2.488e+08   ,-2.4  ,1  ,0
1261  ,1.799e+08   ,-2.4  ,0.8  ,0
1262  ,1.603e+08   ,-2.4  ,0.6  ,0
1263  ,1.617e+08   ,-2.4  ,0.4  ,0
1264  ,1.689e+08   ,-2.4  ,0.2  ,0
1265  ,1.722e+08   ,-2.4  ,5.8879E-16  ,0
1266  ,1.594e+08   ,-2.4  ,-0.2  ,0
1267  ,1.328e+08   ,-2.4  ,-0.4  ,0
1268  ,1.165e+08   ,-2.4  ,-0.6  ,0
1269  ,9.614e+07   ,-2.4  ,-0.8  ,0
1270  ,6.273e+07   ,-2.4  ,-1  ,0
1271  ,3.078e+07   ,-2.4  ,-1.2  ,0
1272  ,2.006e+07   ,-2.4  ,-1.4  ,0
1273  ,2.760e+07   ,-2.4  ,-1.6  ,0
1274  ,2.993e+07   ,-2.4  ,-1.8  ,0
1275  ,1.838e+07   ,-2.4  ,-2  ,0
1276  ,4.375e+06   ,-2.4  ,-2.2  ,0
1277  ,1.097e+08   ,2.2  ,2.4  ,0
1278  ,1.357e+08   ,2  ,2.4  ,0
1279  ,1.667e+08   ,1.8  ,2.4  ,0
1280  ,1.675e+08   ,1.6  ,2.4  ,0
1281  ,1.874e+08   ,1.4  ,2.4  ,0
1282  ,2.408e+08   ,1.2  ,2.4  ,0
1283  ,2.928e+08   ,1  ,2.4  ,0
1284  ,3.271e+08   ,0.8  ,2.4  ,0
1285  ,2.959e+08   ,0.6  ,2.4  ,0
1286  ,2.321e+08   ,0.4  ,2.4  ,0
1287  ,2.699e+08   ,0.2  ,2.4  ,0
1288  ,3.134e+08   ,5.8879E-16  ,2.4  ,0
1289  ,3.796e+08   ,-0.2  ,2.4  ,0
1290  ,3.406e+08   ,-0.4  ,2.4  ,0
1291  ,2.426e+08   ,-0.6  ,2.4  ,0
1292  ,1.473e+08   ,-0.8  ,2.4  ,0
1293  ,9.726e+07   ,-1  ,2.4  ,0
1294  ,1.055e+08   ,-1.2  ,2.4  ,0
1295  ,1.098e+08   ,-1.4  ,2.4  ,0
1296  ,9.716e+07   ,-1.6  ,2.4  ,0
1297  ,1.117e+08   ,-1.8  ,2.4  ,0
1298  ,1.442e+08   ,-2  ,2.4  ,0
1299  ,1.747e+08   ,-2.2  ,2.4  ,0
1460  ,8.319e+09   ,2.3243  ,2.3243  ,4.9577
1461  ,7.958e+09   ,2.4577  ,2.3243  ,4.8243
1462  ,6.277e+09   ,2.3243  ,2.4577  ,4.8243
1463  ,3.088e+08   ,-2.3  ,-2.1759  ,4.8
1464  ,1.934e+08   ,-2.3  ,-1.7631  ,4.8
1465  ,3.819e+08   ,-2.3  ,-1.1827  ,4.8
1466  ,4.800e+08   ,-2.3  ,-0.34986  ,4.8
1467  ,4.527e+08   ,-2.3  ,0.80545  ,4.8
1468  ,4.922e+08   ,-0.81337  ,2.3  ,4.8
1469  ,1.349e+09   ,0.67326  ,2.3  ,4.8
1470  ,3.307e+08   ,2.3  ,-2.1824  ,4.8
1471  ,3.785e+08   ,2.3  ,-1.7784  ,4.8
1472  ,3.678e+08   ,2.3  ,-1.2138  ,4.8
1473  ,4.429e+08   ,2.3  ,-0.40752  ,4.8
1474  ,1.252e+09   ,2.3  ,0.70532  ,4.8
1516  ,4.718e+08   ,2.3  ,2.3  ,1.6866
1517  ,1.384e+09   ,2.3  ,2.3  ,3.1733
1518  ,2.820e+08   ,2.3  ,-2.1759  ,0.2
1519  ,1.839e+08   ,2.3  ,-1.7631  ,0.2
1520  ,3.703e+08   ,2.3  ,-1.1827  ,0.2
1521  ,4.897e+08   ,2.3  ,-0.34986  ,0.2
1522  ,4.340e+08   ,2.3  ,0.80545  ,0.2
1564  ,5.092e+08   ,-0.76667  ,2.3  ,0.2
1565  ,3.981e+08   ,0.76667  ,2.3  ,0.2
1566  ,5.338e+08   ,-2.3  ,2.3  ,1.7333
1567  ,4.048e+08   ,-2.3  ,2.3  ,3.2667
1574  ,7.350e+06   ,-2.3  ,-2.1759  ,0.2
1575  ,2.908e+07   ,-2.3  ,-1.7631  ,0.2
1576  ,4.606e+07   ,-2.3  ,-1.1827  ,0.2
1577  ,1.420e+08   ,-2.3  ,-0.34986  ,0.2
1578  ,1.034e+08   ,-2.3  ,0.80545  ,0.2
1777  ,4.398e+08   ,-0.52764  ,2.5  ,4.9
1801  ,1.987e+08   ,-2.3  ,1.5527  ,0.2
1825  ,4.426e+08   ,-1.5333  ,2.3  ,0.2
1841  ,5.627e+08   ,0.063638  ,2.5  ,4.9
1876  ,2.915e+08   ,-0.5  ,2.4  ,0
1894  ,4.546e+08   ,2.3  ,1.5527  ,0.2
1907  ,1.132e+08   ,2.1  ,2.5  ,0.1
1928  ,1.398e+08   ,1.9  ,2.4  ,0
1974  ,2.709e+08   ,2.4  ,1.1  ,0
1981  ,1.236e+08   ,2.4  ,2.5  ,0.59273
1987  ,2.178e+08   ,-2.5  ,2.4  ,4
2004  ,1.077e+08   ,-2.4  ,2.5  ,4.6
2009  ,2.197e+08   ,2.4  ,1.3  ,0
2020  ,2.598e+08   ,2.5  ,1.1  ,0.1
2035  ,1.022e+08   ,-2.3  ,-0.76628  ,0.2
2070  ,2.208e+09   ,1.6404  ,2.4  ,5
2081  ,3.503e+08   ,2.4  ,2.5  ,1.9724
2095  ,1.607e+08   ,2.4  ,2.5  ,0.78982
2138  ,1.673e+08   ,-2.4  ,-0.1  ,0
2146  ,3.783e+08   ,-0.92182  ,2.4  ,5
2174  ,2.755e+08   ,2.4  ,2.5  ,1.184
2190  ,2.356e+08   ,2.5  ,2.4  ,0.98691
2203  ,3.933e+08   ,2.5  ,-0.13345  ,4.9
2232  ,9.940e+08   ,2.3  ,0.1489  ,4.8
2242  ,8.111e+08   ,2.4  ,2.5  ,2.9578
2293  ,1.654e+08   ,-2.5  ,0.5  ,0.1
2311  ,1.149e+09   ,2.3  ,2.3  ,2.4299
2313  ,2.076e+08   ,2.5  ,2.4  ,0.78982
2329  ,3.641e+08   ,2.4  ,2.5  ,2.1695
2355  ,1.312e+08   ,-2.4  ,2.5  ,4.4
2380  ,1.459e+07   ,-2.5  ,-1.5  ,0.1
2383  ,7.724e+08   ,0.45782  ,2.5  ,4.9
2408  ,4.506e+08   ,2.3  ,-1.4961  ,4.8
2445  ,2.476e+08   ,2.5  ,-1.5131  ,4.9
2484  ,8.233e+07   ,-2.5  ,-2.4  ,1.6
2495  ,1.710e+08   ,-2.4  ,1.7  ,5
2508  ,2.719e+08   ,2.4  ,0.3  ,0
2514  ,6.124e+08   ,2.3  ,0.2278  ,0.2
2570  ,1.999e+08   ,-2.4  ,1.5  ,5
2580  ,2.233e+09   ,1.6404  ,2.5  ,4.9
2603  ,4.053e+08   ,-1.1189  ,2.5  ,4.9
2695  ,3.704e+08   ,2.3  ,2.3  ,0.94331
2705  ,3.748e+08   ,2.4  ,2.5  ,1.3811
2714  ,7.401e+08   ,2.5  ,0.45782  ,4.9
2734  ,1.288e+08   ,2.4  ,-0.9  ,0
2775  ,2.332e+08   ,2.5  ,-0.1  ,0.1
2779  ,2.305e+08   ,2.4  ,-0.1  ,0
2801  ,2.838e+09   ,1.4166  ,2.3  ,4.8
2814  ,1.630e+09   ,1.4433  ,2.5  ,4.9
2863  ,1.902e+08   ,-2.4  ,2.5  ,0.6
2884  ,1.708e+08   ,-2.4  ,2.5  ,0.8
2886  ,1.661e+08   ,-2.4  ,2.5  ,1.2
2967  ,1.458e+08   ,2.4  ,1.7  ,0
2973  ,2.084e+08   ,2.5  ,1.5  ,0.1
2987  ,3.264e+08   ,-0.3  ,2.5  ,0.1
3008  ,4.298e+08   ,-2.3  ,2.3  ,0.96667
3012  ,2.760e+08   ,-2.5  ,2.4  ,2.6
3021  ,2.622e+08   ,-2.5  ,2.4  ,2.8
3025  ,2.522e+08   ,-2.5  ,2.4  ,2.4
3030  ,2.741e+08   ,-2.4  ,2.5  ,2.4
3033  ,2.694e+08   ,-2.4  ,2.5  ,2.2
3047  ,4.025e+08   ,2.4  ,2.5  ,2.3665
3052  ,5.508e+08   ,2.5  ,2.4  ,2.5636
3061  ,5.236e+08   ,2.4  ,2.5  ,2.5636
3081  ,2.208e+08   ,-2.4  ,1.3  ,5
3088  ,1.231e+08   ,-1.9073  ,2.4  ,5
3099  ,1.742e+08   ,-2.4  ,1.9  ,5
3107  ,1.870e+08   ,-2.4  ,2.5  ,3.8
3139  ,2.372e+08   ,-1.5131  ,2.4  ,5
3145  ,2.661e+08   ,-1.5131  ,2.5  ,4.9
3148  ,1.891e+08   ,-1.7102  ,2.5  ,4.9
3168  ,2.560e+08   ,-2.4  ,1.5  ,0
3188  ,4.134e+07   ,-2.5  ,-2.4  ,1
3202  ,6.593e+08   ,0.26073  ,2.5  ,4.9
3212  ,2.352e+09   ,2.5  ,1.6404  ,4.9
3247  ,3.486e+09   ,2.5  ,1.8375  ,4.9
3265  ,2.885e+09   ,2.3  ,1.4326  ,4.8
3271  ,6.597e+09   ,2.2299  ,2.2299  ,4.8
3284  ,1.639e+09   ,2.4  ,1.4433  ,5
3291  ,1.623e+09   ,2.5  ,1.4433  ,4.9
3296  ,5.557e+08   ,-2.3  ,-0.76628  ,4.8
3303  ,1.330e+08   ,-2.4  ,-0.9  ,5
3311  ,1.309e+08   ,-2.4  ,-0.7  ,5
3315  ,1.355e+08   ,1.9  ,2.5  ,0.1
3336  ,1.657e+08   ,-2.4  ,0.3  ,0
3340  ,1.710e+08   ,-2.5  ,0.1  ,0.1
3344  ,1.703e+08   ,-2.4  ,0.1  ,0
3356  ,3.499e+08   ,-0.3  ,2.4  ,0
3361  ,4.116e+08   ,-0.33054  ,2.5  ,4.9
3364  ,4.466e+08   ,-0.13345  ,2.5  ,4.9
3383  ,1.084e+09   ,2.4  ,2.5  ,3.5491
3402  ,4.821e+09   ,2.4  ,2.5  ,4.5345
3421  ,3.309e+08   ,-1.316  ,2.5  ,4.9
3439  ,1.499e+09   ,2.5  ,2.4  ,3.9433
3447  ,1.627e+09   ,2.4  ,2.5  ,3.9433
3451  ,1.187e+09   ,2.4  ,2.5  ,3.7462
3468  ,1.639e+09   ,1.4433  ,2.4  ,5
3480  ,1.018e+09   ,1.0491  ,2.4  ,5
3519  ,2.027e+08   ,1.5  ,2.4  ,0
3527  ,2.707e+08   ,2.3  ,-1.4729  ,0.2
3550  ,9.921e+07   ,-1.7  ,2.4  ,0
3554  ,1.563e+08   ,-1.7  ,2.5  ,0.1
3558  ,9.493e+07   ,-1.5  ,2.4  ,0
3562  ,1.629e+08   ,-1.5  ,2.5  ,0.1
3574  ,1.288e+08   ,-2.4  ,2.1  ,5
3581  ,2.362e+08   ,-2.5  ,1.7  ,0.1
3583  ,2.044e+08   ,-2.5  ,1.9  ,0.1
3584  ,1.226e+08   ,-1.9073  ,2.5  ,4.9
3591  ,2.595e+08   ,2.5  ,0.3  ,0.1
3595  ,2.404e+08   ,2.5  ,0.1  ,0.1
3603  ,1.192e+10   ,2.4577  ,2.391  ,4.7576
3663  ,1.640e+07   ,-1.933  ,-2.5  ,0.2
3669  ,6.272e+06   ,-2.1765  ,-2.5  ,0.2
3672  ,5.788e+06   ,-2.3  ,-2.3379  ,0.2
3682  ,1.198e+07   ,-1.9  ,-2.4  ,0
3700  ,3.663e+08   ,2.3  ,-2.5  ,2.7424
3712  ,2.093e+08   ,-2.1  ,-2.5  ,4.9
3715  ,1.123e+08   ,-1.9  ,-2.5  ,4.9
3740  ,3.062e+08   ,-1.3  ,-2.4  ,5
3746  ,1.866e+08   ,-1.2085  ,-2.5  ,4.8
3755  ,3.345e+08   ,-1.5  ,-2.4  ,5
3760  ,2.091e+08   ,-1.7  ,-2.5  ,4.9
3786  ,4.289e+08   ,2.4  ,2.5  ,1.5782
3813  ,6.800e+08   ,0.26073  ,2.4  ,5
3858  ,1.465e+08   ,-0.9  ,-2.4  ,5
3863  ,3.574e+08   ,-2.5  ,0.9  ,4.9
3875  ,2.864e+08   ,-1.9  ,-2.4  ,5
3885  ,2.673e+08   ,2.4  ,-0.72473  ,5
3910  ,1.682e+08   ,-2.4  ,-2.5  ,3.4
3959  ,2.309e+09   ,2.5  ,2.4  ,4.1404
3969  ,8.953e+08   ,2.5  ,1.0491  ,4.9
3992  ,1.371e+10   ,2.391  ,2.2576  ,4.9577
3993  ,1.211e+10   ,2.4577  ,2.2576  ,4.891
4016  ,7.504e+07   ,-2.3015  ,2.5  ,4.9
4018  ,9.688e+07   ,-2.4  ,2.5  ,4.8
4021  ,1.132e+09   ,1.2462  ,2.4  ,5
4042  ,1.091e+08   ,2.4  ,-1.1  ,0
4046  ,1.195e+08   ,-0.9  ,2.4  ,0
4055  ,4.119e+08   ,1.7  ,-2.5  ,4.9
4087  ,1.699e+08   ,1.7  ,2.4  ,0
4114  ,2.608e+08   ,2.5  ,-0.33054  ,4.9
4120  ,7.870e+07   ,2.4  ,-2.5  ,1.8
4125  ,1.639e+08   ,2.4  ,2.5  ,0.98691
4144  ,3.250e+09   ,2.4  ,2.5  ,4.3375
4161  ,3.323e+08   ,-2.4  ,0.3  ,5
4201  ,2.054e+08   ,1.933  ,-2.5  ,0.2
4225  ,4.334e+06   ,-2.3  ,-2.4  ,0
4230  ,1.768e+07   ,-2.3  ,-2.5  ,0.56701
4269  ,8.775e+07   ,-0.9  ,-2.5  ,4.9
4277  ,2.449e+08   ,-1.1  ,-2.4  ,5
4288  ,1.022e+09   ,-0.070055  ,2.3  ,4.8
4328  ,3.574e+08   ,-2.5  ,-2.4  ,4.2
4336  ,2.487e+08   ,-2.5  ,-2.4  ,4.4
4342  ,6.930e+07   ,-2.5  ,-2.4  ,4.6
4348  ,2.433e+08   ,-2.4  ,-2.4707  ,4.9707
4352  ,2.893e+08   ,-2.3  ,-2.5  ,4.9
4354  ,5.247e+08   ,-2.1765  ,-2.5  ,4.8
4355  ,3.613e+08   ,-2.3  ,-2.3379  ,4.8
4362  ,1.264e+08   ,2.5  ,2.4  ,0.59273
4364  ,2.867e+08   ,2.5  ,-2.4  ,2.4
4366  ,2.379e+08   ,2.5  ,-2.4  ,2.2
4372  ,2.503e+08   ,2.4  ,-2.5  ,2.2
4385  ,2.065e+07   ,-2.5  ,-1.9  ,0.1
4399  ,1.455e+08   ,-2.5  ,2.1  ,0.1
4407  ,8.885e+07   ,-0.7  ,-2.4  ,0
4436  ,1.640e+08   ,-2.5  ,-0.1  ,0.1
4462  ,3.944e+08   ,-2.3  ,2.3  ,4.0333
4491  ,2.364e+08   ,2.5  ,-0.52764  ,4.9
4494  ,2.785e+08   ,2.5  ,-2.4  ,1.4
4503  ,1.653e+08   ,2.4  ,-2.5  ,1.4
4508  ,2.580e+08   ,2.4  ,-2.5  ,1.2
4515  ,7.039e+07   ,2.5  ,-2.4  ,1.8
4517  ,6.859e+07   ,2.4  ,-2.5  ,1.6
4522  ,4.070e+07   ,0.7  ,-2.4  ,0
4538  ,3.421e+08   ,-1.1189  ,2.4  ,5
4546  ,2.084e+09   ,2.4  ,2.5  ,4.1404
4559  ,3.769e+08   ,1.7  ,-2.4  ,0
4590  ,1.341e+08   ,0.5  ,-2.4  ,0
4631  ,3.428e+08   ,2.4  ,-2.5  ,2.6
4634  ,3.493e+08   ,2.5  ,-2.4  ,2.8
4657  ,8.487e+07   ,-2.5  ,-2.4  ,2
4660  ,8.667e+07   ,-2.5  ,-2.4  ,1.8
4664  ,1.185e+08   ,-0.3  ,-2.4  ,0
4675  ,2.438e+08   ,-2.4  ,-2.5  ,4.8
4681  ,1.379e+08   ,-2.5  ,-0.3  ,0.1
4684  ,5.328e+08   ,1.7  ,-2.4  ,5
4703  ,3.758e+08   ,-2.4  ,0.7  ,5
4707  ,2.762e+08   ,-2.5  ,0.3  ,4.9
4714  ,2.381e+08   ,2.4  ,-0.33054  ,5
4723  ,4.710e+08   ,-1.5567  ,2.3  ,4.8
4739  ,7.320e+07   ,-2.1044  ,2.5  ,4.9
4763  ,1.258e+08   ,-1.9  ,2.4  ,0
4780  ,2.083e+07   ,-2.3  ,-1.9695  ,0.2
4782  ,3.113e+06   ,-2.4707  ,-2.4  ,0.029289
4784  ,2.511e+07   ,-2.4  ,-1.9  ,0
4791  ,7.898e+07   ,-2.4  ,-2.5  ,1.8
4796  ,2.203e+08   ,2.4707  ,-2.4707  ,4.9
4799  ,1.667e+08   ,2.5  ,-2.4  ,4.8
4806  ,1.473e+08   ,2.3  ,-2.5  ,4.9
4809  ,2.916e+09   ,2.3  ,2.3  ,3.9166
4833  ,2.419e+08   ,-2.4  ,2.5  ,0.4
4841  ,2.721e+08   ,-2.4  ,2.5  ,2.6
4846  ,1.311e+08   ,-2.5  ,2.1  ,4.9
4848  ,1.109e+08   ,-2.5  ,2.3  ,4.9
4849  ,1.083e+08   ,-2.5  ,2.4  ,4.8
4893  ,1.488e+08   ,-2.4  ,2.5  ,4.2
4897  ,5.142e+09   ,2.3333  ,2.1998  ,5
4900  ,1.162e+10   ,2.391  ,2.4577  ,4.7576
4908  ,1.157e+10   ,2.2576  ,2.391  ,4.9577
4911  ,1.169e+10   ,2.2576  ,2.4577  ,4.891
4926  ,1.048e+08   ,-2.5  ,2.4  ,1
4932  ,1.438e+08   ,-2.4  ,2.5  ,1.6
4937  ,1.981e+08   ,-1.1  ,2.5  ,0.1
4939  ,6.482e+09   ,2.3  ,2.2299  ,4.7299
4944  ,3.459e+08   ,2.5  ,-1.9073  ,4.9
4987  ,4.388e+08   ,-2.3  ,1.5527  ,4.8
5010  ,8.948e+09   ,2.4973  ,2.1331  ,4.923
5013  ,4.900e+09   ,2.5  ,2.0345  ,4.9
5017  ,5.099e+09   ,2.4  ,2.0345  ,5
5035  ,3.413e+08   ,1.3  ,-2.4  ,0
5038  ,6.895e+07   ,1.2085  ,-2.5  ,0.2
5092  ,4.860e+07   ,-2.4  ,-2.5  ,1.2
5123  ,2.877e+08   ,2.5  ,-2.4  ,0.6
5151  ,1.211e+08   ,-2.5  ,-0.5  ,0.1
5160  ,1.093e+08   ,-2.5  ,-0.7  ,0.1
5164  ,3.297e+08   ,-2.4  ,0.9  ,5
5168  ,3.451e+08   ,-2.4  ,0.5  ,5
5176  ,1.004e+08   ,2.5  ,-0.7  ,0.1
5179  ,1.543e+08   ,2.4  ,-0.5  ,0
5189  ,2.961e+08   ,2.4  ,-2.5  ,2.4
5194  ,2.259e+08   ,2.3  ,-2.5  ,2.2576
5198  ,1.004e+07   ,-2.3  ,-2.5  ,0.32348
5205  ,4.376e+06   ,-2.4  ,-2.5  ,0.2
5207  ,8.826e+06   ,-2.1  ,-2.5  ,0.1
5246  ,3.167e+08   ,-2.5  ,2.4  ,3.2
5257  ,1.859e+08   ,-2.5  ,1.5  ,4.9
5263  ,1.185e+08   ,-2.3  ,0.2278  ,0.2
5272  ,1.676e+08   ,-2.5  ,0.3  ,0.1
5275  ,3.016e+08   ,-2.5  ,0.5  ,4.9
5281  ,2.851e+09   ,1.8375  ,2.5  ,4.9
5297  ,1.769e+08   ,-0.9  ,2.5  ,0.1
5306  ,1.819e+08   ,-0.7  ,2.4  ,0
5309  ,2.924e+08   ,-0.5  ,2.5  ,0.1
5324  ,6.603e+08   ,2.4  ,2.5  ,2.7607
5332  ,2.402e+08   ,2.5  ,-2.4  ,0.8
5334  ,2.689e+08   ,2.4  ,-2.5  ,1
5360  ,2.699e+08   ,2.4  ,-1.7102  ,5
5362  ,2.319e+08   ,2.4  ,-1.5131  ,5
5368  ,3.113e+09   ,2.4  ,1.8375  ,5
5371  ,2.018e+10   ,2.4325  ,2.4888  ,4.6656
5372  ,5.344e+09   ,2.3333  ,2.5  ,4.6998
5376  ,4.086e+09   ,2.4707  ,2.4707  ,4.6331
5377  ,5.141e+09   ,2.5  ,2.4  ,4.5345
5379  ,2.938e+08   ,-1.5  ,-2.5  ,4.9
5406  ,8.116e+07   ,-2.5  ,-2.4  ,3.4
5420  ,3.167e+08   ,-2.3  ,-2.5  ,3.2226
5423  ,3.869e+08   ,1.5  ,-2.4  ,0
5502  ,3.594e+06   ,-2.5  ,-2.3  ,0.1
5504  ,4.819e+06   ,-2.5  ,-2.4  ,0.2
5506  ,4.460e+06   ,-2.4  ,-2.3  ,0
5511  ,7.028e+06   ,-2.5  ,-2.1  ,0.1
5513  ,1.584e+08   ,-2.4  ,0.5  ,0
5517  ,7.531e+07   ,-0.9  ,-2.5  ,0.1
5532  ,7.428e+07   ,-2.4707  ,2.4707  ,4.9
5534  ,1.380e+08   ,2.4  ,-0.7  ,0
5551  ,4.107e+08   ,2.5  ,-2.4  ,3.8
5566  ,2.844e+08   ,2.5  ,2.4  ,1.3811
5603  ,1.945e+08   ,2.4  ,-0.3  ,0
5617  ,2.344e+08   ,-2.1  ,2.5  ,0.1
5637  ,2.595e+08   ,-2.3  ,-1.9695  ,4.8
5641  ,4.838e+08   ,2.3  ,-2.5  ,3.4636
5645  ,8.477e+07   ,-2.4  ,-2.5  ,2
5649  ,9.803e+07   ,-2.4  ,-2.5  ,2.2
5659  ,6.675e+07   ,-2.3  ,-2.5  ,1.7774
5662  ,6.321e+08   ,2.1765  ,-2.5  ,4.8
5666  ,1.283e+08   ,2.4  ,-2.5  ,4.8
5669  ,4.786e+08   ,2.3  ,-2.3412  ,4.8
5695  ,1.621e+08   ,-2.4  ,0.7  ,0
5701  ,8.766e+07   ,-2.5  ,2.4  ,1.6
5715  ,1.623e+08   ,-2.4  ,2.5  ,1.8
5726  ,2.079e+08   ,-0.7  ,2.5  ,0.1
5727  ,1.042e+08   ,-1.1  ,2.4  ,0
5730  ,1.016e+08   ,2.3  ,-2.5  ,1.7774
5746  ,3.751e+08   ,2.5  ,2.4  ,1.7753
5755  ,4.236e+08   ,2.5  ,-2.4  ,4.4
5763  ,3.195e+08   ,2.4  ,-2.5  ,4.4
5773  ,1.099e+09   ,1.0491  ,2.5  ,4.9
5791  ,3.913e+08   ,-0.72473  ,2.4  ,5
5795  ,3.112e+09   ,1.8375  ,2.4  ,5
5803  ,2.144e+08   ,-0.3  ,-2.4  ,5
5810  ,2.206e+09   ,2.4  ,1.6404  ,5
5836  ,2.050e+08   ,-2.5  ,1.3  ,4.9
5860  ,1.734e+08   ,2.5  ,-2.4  ,1.6
5866  ,1.333e+08   ,1.5  ,-2.5  ,0.1
5884  ,2.283e+08   ,-2.4  ,-0.3  ,5
5888  ,1.404e+08   ,-2.5  ,-0.5  ,4.9
5901  ,3.078e+08   ,2.3  ,-2.5  ,2.5
5908  ,3.166e+08   ,2.5  ,-2.4  ,1.2
5909  ,1.339e+08   ,2.5  ,-2.4  ,2
5934  ,3.763e+08   ,1.9  ,-2.5  ,4.9
5938  ,1.720e+08   ,1.933  ,-2.5  ,4.8
5948  ,1.887e+08   ,-2.4  ,-2.5  ,4.6
5950  ,2.076e+08   ,-2.4707  ,-2.4707  ,4.9
5951  ,1.592e+08   ,-2.5  ,-2.4  ,4.8
5952  ,1.821e+08   ,-2.5  ,-2.3  ,4.9
5986  ,4.383e+08   ,2.3  ,-2.5  ,3.7085
5990  ,3.813e+08   ,-0.92182  ,2.5  ,4.9
6019  ,1.311e+08   ,2.5  ,1.9  ,0.1
6025  ,1.135e+08   ,2.4  ,-1.3  ,0
6035  ,1.585e+08   ,-2.5  ,1.9  ,4.9
6044  ,3.394e+08   ,0.1  ,2.5  ,0.1
6054  ,2.554e+08   ,2.4  ,0.1  ,0
6070  ,9.279e+07   ,-2.4  ,2.3  ,0
6071  ,1.216e+08   ,-2.3  ,2.4  ,0
6076  ,1.605e+08   ,-2.4  ,2.1  ,0
6083  ,1.243e+08   ,2.1  ,-2.4  ,0
6084  ,1.167e+08   ,2.4  ,2.3  ,0
6087  ,1.126e+08   ,2.3  ,2.4  ,0
6092  ,4.786e+06   ,-2.4  ,-2.5  ,0.4
6096  ,3.442e+06   ,-2.3  ,-2.5  ,0.1
6099  ,1.802e+08   ,0.7  ,-2.5  ,0.1
6149  ,8.186e+07   ,-2.4  ,-0.9  ,0
6159  ,1.689e+08   ,-2.5  ,-2.4  ,2.6
6183  ,1.204e+09   ,1.2462  ,2.5  ,4.9
6224  ,4.228e+08   ,2.5  ,-2.4  ,4
6228  ,4.275e+08   ,2.4  ,-2.5  ,3.8
6237  ,3.415e+08   ,2.5  ,0.7  ,0.1
6241  ,5.304e+09   ,2.5  ,2.3333  ,4.6998
6245  ,3.246e+08   ,2.5  ,2.4  ,1.5782
6259  ,3.414e+08   ,2.5  ,-2.1044  ,4.9
6265  ,3.891e+08   ,2.3  ,-1.9804  ,4.8
6267  ,2.643e+08   ,2.5  ,-2.3015  ,4.9
6268  ,1.799e+08   ,2.4707  ,-2.4  ,4.9707
6270  ,3.659e+08   ,2.4  ,-2.1044  ,5
6317  ,4.960e+08   ,-2.3  ,0.2278  ,4.8
6349  ,4.117e+08   ,-0.52764  ,2.4  ,5
6391  ,4.138e+08   ,2.4  ,2.5  ,1.7753
6440  ,2.460e+08   ,-2.5  ,2.4  ,3.8
6471  ,2.369e+08   ,2.5  ,-0.92182  ,4.9
6489  ,1.236e+09   ,2.5  ,1.2462  ,4.9
6523  ,6.975e+07   ,-1.1  ,-2.4  ,0
6528  ,6.281e+07   ,-1.1  ,-2.5  ,0.1
6535  ,7.737e+07   ,-0.9  ,-2.4  ,0
6538  ,4.747e+08   ,1.5  ,-2.4  ,5
6541  ,4.317e+08   ,1.5  ,-2.5  ,4.9
6551  ,2.283e+08   ,2.5  ,-0.72473  ,4.9
6564  ,8.765e+09   ,2.1331  ,2.4973  ,4.923
6565  ,5.072e+09   ,2.0345  ,2.5  ,4.9
6572  ,1.571e+08   ,2.4  ,-1.7  ,0
6581  ,5.594e+08   ,0  ,2.3  ,0.2
6592  ,2.311e+08   ,2.3  ,-1.9695  ,0.2
6594  ,2.622e+08   ,0.3  ,2.4  ,0
6601  ,2.853e+08   ,0.5  ,2.5  ,0.1
6605  ,2.654e+07   ,-2.4  ,-1.3  ,0
6606  ,4.413e+07   ,-2.4  ,-1.1  ,0
6615  ,1.447e+08   ,-2.4  ,-0.3  ,0
6634  ,3.853e+08   ,2.1  ,-2.5  ,4.9
6635  ,2.210e+08   ,2.4  ,-2.4707  ,4.9707
6636  ,1.644e+08   ,2.3  ,-2.4  ,5
6647  ,2.209e+08   ,0.5  ,-2.5  ,0.1
6704  ,7.158e+07   ,-2.4707  ,2.4707  ,0.1
6708  ,1.114e+08   ,-2.5  ,2.4  ,0.2
6712  ,2.301e+08   ,-2.4  ,2.5  ,3.6
6715  ,2.829e+08   ,-2.4  ,2.5  ,3.4
6728  ,3.531e+08   ,-2.5  ,0.7  ,4.9
6753  ,1.092e+08   ,-2.1044  ,2.4  ,5
6788  ,3.344e+09   ,2.5  ,2.4  ,4.3375
6791  ,4.211e+08   ,-1.933  ,-2.5  ,4.8
6795  ,4.933e+09   ,2.1998  ,2.5  ,4.8333
6837  ,3.117e+07   ,-2.3  ,-2.5  ,0.8063
6869  ,2.904e+08   ,2.5  ,-1.7102  ,4.9
6873  ,3.323e+08   ,2.4  ,-1.9073  ,5
6880  ,2.700e+08   ,2.4  ,-0.92182  ,5
6885  ,2.601e+08   ,2.4  ,-0.52764  ,5
6893  ,1.150e+09   ,2.4  ,1.2462  ,5
6914  ,3.177e+08   ,0.7  ,2.5  ,0.1
6920  ,3.094e+08   ,0.9  ,2.4  ,0
6923  ,3.127e+08   ,0.7  ,2.4  ,0
6936  ,4.400e+08   ,2.4  ,-2.5  ,3.4
6939  ,3.614e+08   ,2.3  ,-2.5  ,3.2226
6961  ,2.369e+08   ,-0.1  ,-2.5  ,4.9
6967  ,1.474e+08   ,-2.5  ,-1.5  ,4.9
6975  ,2.499e+08   ,-2.4  ,1.1  ,5
6978  ,2.116e+08   ,-2.4  ,2.5  ,0.2
6987  ,2.140e+08   ,2.4  ,-1.316  ,5
6994  ,1.399e+08   ,2.4  ,-1.5  ,0
7004  ,4.100e+08   ,2.4  ,-2.5  ,3.6
7011  ,7.996e+08   ,2.4  ,0.65491  ,5
7016  ,7.669e+08   ,2.4  ,0.45782  ,5
7019  ,3.722e+08   ,2.5  ,2.4  ,2.1695
7021  ,3.723e+08   ,2.5  ,2.4  ,1.9724
7052  ,1.676e+08   ,-1.3  ,2.5  ,0.1
7054  ,3.006e+07   ,-2.4  ,-2.5  ,0.8
7057  ,1.998e+08   ,0.3  ,-2.5  ,0.1
7065  ,1.463e+08   ,0.24243  ,-2.5  ,0.2
7075  ,2.009e+10   ,2.4888  ,2.4325  ,4.6656
7113  ,1.542e+08   ,-2.4  ,-2.5  ,2.6
7121  ,2.013e+08   ,-2.4  ,-2.5  ,2.8
7126  ,2.003e+08   ,-2.5  ,-2.4  ,2.8
7128  ,1.762e+06   ,-2.4707  ,-2.4707  ,0.1
7129  ,2.813e+06   ,-2.4  ,-2.4707  ,0.029289
7141  ,3.087e+08   ,-1.7  ,-2.4  ,5
7145  ,2.657e+08   ,1.1  ,2.4  ,0
7163  ,1.539e+08   ,-1.7102  ,2.4  ,5
7172  ,4.629e+08   ,2.5  ,-2.4  ,3.2
7174  ,2.614e+08   ,-2.5  ,2.4  ,3.6
7183  ,2.087e+08   ,-1.4531  ,-2.5  ,4.8
7204  ,5.786e+08   ,2.3  ,-0.81068  ,4.8
7220  ,5.239e+08   ,2.5  ,0.063638  ,4.9
7227  ,1.935e+08   ,2.5  ,-1.9  ,0.1
7256  ,2.288e+08   ,-0.1  ,-2.4  ,5
7280  ,4.601e+08   ,-0.33054  ,2.4  ,5
7299  ,2.283e+08   ,2.5  ,-1.1189  ,4.9
7316  ,3.355e+07   ,-2.5  ,-2.4  ,0.8
7323  ,4.302e+07   ,-2.4  ,-2.5  ,1
7396  ,3.177e+08   ,1.1  ,-2.4  ,5
7400  ,1.679e+08   ,-2.5  ,0.7  ,0.1
7409  ,4.174e+08   ,1.3  ,-2.4  ,5
7420  ,1.222e+08   ,2.5  ,2.1  ,0.1
7429  ,1.505e+08   ,2.4  ,1.9  ,0
7436  ,1.936e+08   ,2.5  ,-1.7  ,0.1
7438  ,3.781e+08   ,2.4  ,-2.5  ,2.8
7445  ,1.712e+10   ,2.4325  ,2.1656  ,4.9888
7464  ,1.689e+08   ,2.5  ,-1.5  ,0.1
7480  ,2.790e+08   ,2.5  ,-2.4  ,0.2
7482  ,1.049e+08   ,1.9  ,-2.5  ,0.1
7483  ,1.248e+08   ,1.7  ,-2.5  ,0.1
7486  ,5.003e+08   ,1.9  ,-2.4  ,5
7488  ,2.671e+08   ,1.6937  ,-2.5  ,4.8
7492  ,2.573e+08   ,2.1  ,-2.4  ,5
7495  ,1.573e+08   ,0.1  ,-2.5  ,0.1
7504  ,1.972e+08   ,0.3  ,-2.4  ,0
7507  ,1.777e+08   ,0.9  ,-2.5  ,0.1
7533  ,2.108e+08   ,-2.5  ,0.9  ,0.1
7536  ,1.862e+08   ,-2.4  ,-2.5  ,3.2
7540  ,2.279e+08   ,-2.4  ,-2.5  ,3
7545  ,1.500e+08   ,-2.5  ,-2.4  ,3
7582  ,1.812e+08   ,1.3  ,2.5  ,0.1
7588  ,4.974e+08   ,2.5  ,2.4  ,2.3665
7598  ,1.946e+08   ,-2.5  ,2.4  ,4.2
7607  ,3.871e+08   ,1.5333  ,2.3  ,0.2
7627  ,2.445e+08   ,-2.5  ,1.1  ,4.9
7651  ,1.724e+08   ,2.4  ,-1.9  ,0
7656  ,9.304e+07   ,2.5  ,2.4  ,0.39564
7660  ,6.345e+09   ,2.2299  ,2.3  ,4.7299
7668  ,3.421e+08   ,1.4531  ,-2.5  ,4.8
7676  ,2.841e+08   ,0.1  ,-2.5  ,4.9
7683  ,2.568e+08   ,0.1  ,-2.4  ,5
7686  ,1.102e+08   ,-2.4  ,-1.1  ,5
7702  ,2.007e+08   ,-2.3  ,-2.5  ,4.433
7710  ,2.341e+08   ,-2.3  ,-2.5  ,4.6765
7752  ,3.544e+08   ,0.9  ,-2.4  ,5
7763  ,3.380e+08   ,0.24243  ,-2.5  ,4.8
7767  ,3.486e+07   ,-2.5  ,-2.4  ,3.2
7768  ,8.982e+06   ,-2.4  ,-2.1  ,0
7776  ,2.152e+08   ,-2.4  ,0.9  ,0
7786  ,1.126e+08   ,-0.4838  ,-2.5  ,4.8
7800  ,1.891e+08   ,2.5  ,-2.4  ,4.6
7805  ,1.407e+08   ,-2.5  ,-1.3  ,4.9
7811  ,1.257e+08   ,-2.5  ,-1.1  ,4.9
7820  ,2.101e+08   ,2.5  ,-2.1  ,0.1
7824  ,1.787e+08   ,2.4  ,-2.1  ,0
7828  ,3.603e+08   ,2.4  ,-2.5  ,4.2
7831  ,3.830e+08   ,2.4  ,-2.5  ,4
7838  ,4.664e+08   ,2.5  ,-2.4  ,4.2
7839  ,6.613e+08   ,2.5  ,2.4  ,2.7607
7840  ,7.773e+08   ,2.5  ,2.4  ,2.9578
7863  ,2.341e+07   ,-2.4  ,-1.5  ,0
7890  ,3.457e+08   ,2.4  ,0.9  ,0
7897  ,1.068e+08   ,-2.4  ,-0.7  ,0
7912  ,3.553e+07   ,-1.5  ,-2.4  ,0
7917  ,5.634e+07   ,-1.3  ,-2.5  ,0.1
7931  ,2.529e+08   ,0.5  ,2.4  ,0
7934  ,2.413e+08   ,1.1  ,-2.4  ,0
7937  ,1.872e+08   ,2.4  ,-2.5  ,0.8
7941  ,1.360e+07   ,-2.4  ,-2.5  ,0.6
7969  ,8.253e+07   ,-2.5  ,2.3  ,0.1
7971  ,1.854e+08   ,-2.4  ,1.9  ,0
7972  ,1.718e+08   ,-1.9  ,2.5  ,0.1
7978  ,2.633e+08   ,-2.4  ,1.1  ,0
7996  ,1.779e+08   ,-2.4  ,-0.5  ,5
8000  ,2.050e+07   ,-2.5  ,-2.4  ,0.6
8003  ,7.879e+06   ,-2.5  ,-2.4  ,0.4
8025  ,2.858e+08   ,0.9  ,2.5  ,0.1
8035  ,2.878e+08   ,0.3  ,2.5  ,0.1
8039  ,4.739e+08   ,2.3  ,-2.5  ,0.32348
8041  ,3.323e+08   ,2.3  ,-2.3379  ,0.2
8043  ,2.284e+08   ,2.1765  ,-2.5  ,0.2
8045  ,6.490e+07   ,-0.96359  ,-2.5  ,0.2
8054  ,2.205e+08   ,1.3  ,2.4  ,0
8058  ,2.377e+08   ,1.1  ,2.5  ,0.1
8062  ,9.915e+07   ,-2.5  ,2.4  ,1.4
8067  ,1.117e+08   ,-2.5  ,2.4  ,0.8
8087  ,2.561e+08   ,-2.5  ,1.5  ,0.1
8132  ,5.252e+08   ,-0.13345  ,2.4  ,5
8183  ,1.112e+08   ,2.5  ,-0.9  ,0.1
8184  ,1.951e+08   ,1.6937  ,-2.5  ,0.2
8214  ,1.586e+08   ,-2.4707  ,-2.4  ,4.9707
8217  ,3.954e+08   ,-2.1  ,-2.4  ,5
8219  ,1.093e+08   ,-2.4  ,-2.5  ,4.4
8227  ,9.997e+08   ,2.5  ,2.4  ,3.1549
8242  ,3.985e+08   ,0.7  ,-2.5  ,4.9
8248  ,3.375e+08   ,2.5  ,-2.4  ,3.6
8254  ,2.099e+08   ,2.5  ,-0.3  ,0.1
8256  ,1.559e+08   ,2.5  ,-0.5  ,0.1
8258  ,2.013e+08   ,-0.3  ,-2.5  ,4.9
8263  ,1.594e+08   ,-0.5  ,-2.5  ,4.9
8268  ,7.543e+07   ,-2.3  ,-2.5  ,3.7085
8277  ,1.261e+08   ,-0.1  ,-2.5  ,0.1
8285  ,4.044e+08   ,1.1  ,-2.5  ,4.9
8307  ,2.749e+08   ,0.1  ,2.4  ,0
8308  ,4.011e+08   ,-0.1  ,2.5  ,0.1
8309  ,3.399e+08   ,-0.1  ,2.4  ,0
8313  ,2.214e+08   ,2.5  ,-2.3  ,0.1
8318  ,3.979e+08   ,2.5  ,-2.4  ,3
8338  ,9.816e+08   ,2.5  ,2.4  ,3.352
8339  ,9.999e+08   ,2.4  ,2.5  ,3.1549
8344  ,2.971e+08   ,-2.5  ,2.4  ,3.4
8357  ,1.638e+10   ,2.4888  ,2.1656  ,4.9325
8358  ,4.903e+09   ,2.5  ,2.1998  ,4.8333
8383  ,1.383e+07   ,-1.7  ,-2.4  ,0
8396  ,1.768e+08   ,1.1  ,-2.5  ,0.1
8399  ,5.934e+09   ,2.4526  ,2.1331  ,4.9851
8405  ,2.942e+08   ,2.5  ,-2.4  ,1
8412  ,2.909e+08   ,2.3  ,-2.5  ,0.8063
8417  ,1.330e+08   ,-2.3  ,-2.5  ,2.5
8434  ,4.820e+08   ,0.9636  ,-2.5  ,4.8
8438  ,1.160e+08   ,-0.3  ,-2.5  ,0.1
8452  ,2.406e+08   ,-2.4  ,-0.1  ,5
8468  ,1.220e+09   ,2.5  ,2.4  ,3.7462
8471  ,2.354e+08   ,-1.3  ,-2.5  ,4.9
8493  ,1.281e+08   ,-1.1  ,-2.5  ,4.9
8509  ,2.169e+07   ,-2.5  ,-1.7  ,0.1
8517  ,2.760e+08   ,-2.4  ,2.5  ,3
8531  ,2.267e+08   ,-2.4  ,1.7  ,0
8556  ,1.087e+09   ,2.5  ,2.4  ,3.5491
8573  ,2.958e+08   ,-1.316  ,2.4  ,5
8576  ,2.639e+08   ,-2.4  ,1.3  ,0
8611  ,1.924e+08   ,2.3  ,-2.5  ,1.2915
8618  ,1.507e+08   ,-2.4  ,2.5  ,4
8646  ,2.613e+08   ,-2.5  ,1.1  ,0.1
8656  ,1.379e+08   ,2.5  ,-1.3  ,0.1
8657  ,1.260e+08   ,2.4  ,2.1  ,0
8673  ,1.105e+08   ,-1.3  ,2.4  ,0
8692  ,3.326e+08   ,0.72263  ,-2.5  ,4.8
8696  ,2.194e+08   ,2.3  ,-2.5  ,1.0469
8706  ,8.232e+08   ,2.5  ,0.65491  ,4.9
8721  ,7.844e+07   ,-2.4  ,-2.5  ,1.6
8725  ,9.379e+08   ,0.65491  ,2.4  ,5
8739  ,1.739e+10   ,2.1656  ,2.4325  ,4.9888
8741  ,5.189e+09   ,2.1998  ,2.3333  ,5
8746  ,5.861e+06   ,-2.1  ,-2.4  ,0
8748  ,4.419e+07   ,-2.5  ,-2.4  ,1.2
8752  ,6.734e+09   ,2.1331  ,2.4526  ,4.9851
8759  ,4.900e+07   ,-2.3  ,-2.5  ,1.0469
8787  ,1.245e+08   ,-0.1  ,-2.4  ,0
8793  ,1.189e+08   ,-2.3  ,-2.5  ,2.2576
8795  ,1.178e+08   ,-2.4  ,-2.5  ,2.4
8798  ,2.073e+08   ,-2.3  ,-2.5  ,4.1937
8808  ,1.624e+08   ,-2.3  ,-2.5  ,3.9531
8814  ,2.288e+08   ,-2.4  ,-1.5  ,5
8849  ,3.053e+08   ,0.4838  ,-2.5  ,4.8
8851  ,1.045e+08   ,-2.4  ,-2.5  ,4.2
8868  ,3.941e+08   ,2.4  ,-2.5  ,3
8874  ,9.313e+08   ,0.852  ,2.4  ,5
8883  ,1.450e+08   ,-0.5  ,-2.4  ,5
8886  ,1.297e+08   ,-0.72262  ,-2.5  ,4.8
8893  ,1.297e+08   ,-0.7  ,-2.5  ,4.9
8897  ,2.403e+08   ,-2.5  ,-2.4  ,3.6
8899  ,1.898e+08   ,-2.3  ,-2.5  ,3.4636
8900  ,2.567e+07   ,-2.3  ,-1.4729  ,0.2
8906  ,2.754e+07   ,-2.5  ,-1.3  ,0.1
8910  ,9.384e+08   ,0.852  ,2.5  ,4.9
8925  ,1.468e+08   ,-2.4  ,2.5  ,1.4
8941  ,7.595e+07   ,2.4707  ,2.4  ,0.029289
8942  ,8.511e+07   ,2.5  ,2.3  ,0.1
8945  ,2.309e+08   ,-2.5  ,0.1  ,4.9
8950  ,5.422e+07   ,2.4707  ,2.4707  ,0.1
8951  ,6.284e+07   ,2.4  ,2.4707  ,0.029289
8959  ,6.041e+08   ,2.4  ,0.26073  ,5
8965  ,7.539e+08   ,0.45782  ,2.4  ,5
8978  ,8.615e+08   ,2.4  ,0.852  ,5
8983  ,9.953e+07   ,2.5  ,-1.1  ,0.1
8991  ,1.369e+08   ,-2.5  ,2.4  ,0.6
9008  ,8.276e+08   ,2.5  ,0.852  ,4.9
9011  ,1.241e+08   ,-2.4  ,-0.5  ,0
9025  ,3.490e+07   ,-1.5  ,-2.5  ,0.1
9038  ,1.677e+08   ,2.4  ,-2.5  ,2
9041  ,3.323e+08   ,2.5  ,0.9  ,0.1
9050  ,3.030e+08   ,2.5  ,0.5  ,0.1
9054  ,1.083e+08   ,0.9  ,-2.4  ,0
9060  ,1.386e+08   ,2.4  ,-2.5  ,0.4
9062  ,3.807e+08   ,2.3  ,-2.5  ,0.56701
9064  ,3.423e+08   ,2.5  ,-2.4  ,0.4
9069  ,6.646e+07   ,2.4  ,-2.5  ,0.6
9071  ,1.462e+08   ,1.4531  ,-2.5  ,0.2
9082  ,5.878e+07   ,-2.3  ,-2.5  ,1.2915
9086  ,5.824e+07   ,-2.4  ,-2.5  ,1.4
9091  ,5.757e+07   ,-2.5  ,-2.4  ,1.4
9094  ,4.276e+08   ,1.3  ,-2.5  ,4.9
9097  ,8.771e+07   ,-0.7  ,-2.5  ,0.1
9137  ,1.583e+08   ,-2.5  ,-0.7  ,4.9
9143  ,2.441e+08   ,-2.5  ,-0.1  ,4.9
9146  ,1.602e+08   ,-2.1  ,2.4  ,0
9148  ,1.543e+08   ,-2.5  ,1.7  ,4.9
9173  ,2.610e+08   ,-2.5  ,2.4  ,3
9192  ,6.164e+07   ,-0.7  ,-2.4  ,5
9195  ,3.067e+08   ,0.72263  ,-2.5  ,0.2
9209  ,4.068e+08   ,2.5  ,-2.4  ,3.4
9215  ,1.624e+08   ,0.9636  ,-2.5  ,0.2
9217  ,4.345e+08   ,2.4  ,-2.5  ,3.2
9218  ,1.506e+08   ,-0.96359  ,-2.5  ,4.8
9229  ,2.574e+08   ,-2.4  ,2.5  ,2.8
9248  ,1.800e+08   ,2.3  ,-2.5  ,4.433
9255  ,2.264e+08   ,2.5  ,1.3  ,0.1
9257  ,1.731e+08   ,2.4  ,1.5  ,0
9262  ,3.445e+08   ,0.5  ,-2.4  ,5
9264  ,3.788e+08   ,2.4  ,-0.13345  ,5
9272  ,5.326e+08   ,0.063638  ,2.4  ,5
9277  ,1.045e+08   ,-2.5  ,2.4  ,1.2
9279  ,6.320e+08   ,2.5  ,0.26073  ,4.9
9282  ,4.342e+08   ,1.2085  ,-2.5  ,4.8
9286  ,4.101e+08   ,0.9  ,-2.5  ,4.9
9292  ,8.739e+07   ,-2.4  ,2.4707  ,4.9707
9293  ,8.867e+07   ,-2.3015  ,2.4  ,5
9296  ,2.222e+08   ,-2.4  ,-2.1  ,5
9303  ,2.281e+08   ,-2.4  ,-1.9  ,5
9311  ,8.900e+07   ,-2.4  ,2.3  ,5
9313  ,2.585e+08   ,-2.4  ,0.1  ,5
9319  ,1.084e+08   ,-0.5  ,-2.4  ,0
9328  ,7.349e+07   ,-2.3  ,-2.5  ,1.5364
9334  ,2.192e+08   ,-2.3  ,2.5  ,0.1
9338  ,1.144e+08   ,-2.5  ,-2.4  ,2.4
9339  ,2.664e+08   ,-2.5  ,1.3  ,0.1
9341  ,1.428e+08   ,-2.3  ,-2.5  ,2.7424
9344  ,9.128e+07   ,-2.5  ,-2.4  ,2.2
9358  ,9.155e+08   ,-2.3  ,2.3  ,2.5
9364  ,2.092e+08   ,-2.5  ,-2.1  ,4.9
9367  ,2.440e+08   ,-2.4  ,-2.3  ,5
9374  ,1.744e+08   ,-2.4  ,-1.3  ,5
9378  ,1.332e+08   ,-2.5  ,2.4  ,1.8
9384  ,1.474e+08   ,2.3  ,-2.5  ,2.0162
9385  ,1.607e+08   ,-2.5  ,2.4  ,4.4
9389  ,1.761e+08   ,-2.5  ,2.4  ,2
9395  ,2.769e+08   ,2.4  ,-2.3015  ,5
9396  ,2.957e+07   ,-2.4  ,-1.7  ,0
9407  ,2.558e+08   ,-2.3  ,-1.4729  ,4.8
9411  ,1.545e+08   ,-2.5  ,-1.7  ,4.9
9423  ,1.984e+08   ,-2.4  ,-2.5  ,3.6
9432  ,4.106e+08   ,0.7  ,-2.4  ,5
9438  ,1.337e+08   ,-2.5  ,-0.9  ,4.9
9443  ,1.978e+08   ,-2.5  ,-0.3  ,4.9
9445  ,6.920e+07   ,-2.4707  ,2.4  ,4.9707
9448  ,2.157e+08   ,2.4  ,-1.1189  ,5
9453  ,3.129e+08   ,2.4  ,0.7  ,0
9455  ,3.215e+08   ,2.5  ,-2.4  ,2.6
9457  ,3.217e+08   ,2.3  ,-2.5  ,2.9838
9494  ,1.663e+08   ,-2.4  ,2.5  ,1
9500  ,3.234e+08   ,0.3  ,-2.5  ,4.9
9504  ,2.740e+08   ,0.3  ,-2.4  ,5
9506  ,1.955e+08   ,2.1  ,-2.5  ,0.1
9518  ,1.332e+07   ,-1.9  ,-2.5  ,0.1
9528  ,2.313e+08   ,2.3  ,-2.5  ,0.1
9531  ,2.288e+08   ,2.4707  ,-2.4707  ,0.1
9533  ,1.637e+08   ,2.4707  ,-2.4  ,0.029289
9534  ,2.087e+08   ,2.4  ,-2.4707  ,0.029289
9541  ,3.529e+08   ,0.5  ,-2.5  ,4.9
9544  ,1.027e+08   ,-0.5  ,-2.5  ,0.1
9559  ,1.712e+08   ,-2.5  ,-1.9  ,4.9
9562  ,1.223e+08   ,-2.5  ,2.4  ,4.6
9565  ,2.475e+08   ,-2.4  ,2.5  ,2
9571  ,3.450e+08   ,-2.5  ,-2.4  ,3.8
9574  ,1.687e+08   ,-2.4  ,-2.5  ,3.8
9577  ,1.439e+08   ,1.3  ,-2.5  ,0.1
9582  ,8.871e+07   ,-2.5  ,-0.9  ,0.1
9596  ,1.076e+08   ,2.1  ,2.4  ,0
9598  ,3.117e+08   ,-2.4  ,2.5  ,3.2
9602  ,1.718e+08   ,1.5  ,2.5  ,0.1
9610  ,8.017e+07   ,2.4  ,2.5  ,0.39564
9612  ,4.363e+08   ,-0.72473  ,2.5  ,4.9
9614  ,1.607e+08   ,1.7  ,2.5  ,0.1
9635  ,1.779e+08   ,2.5  ,1.7  ,0.1
9646  ,6.930e+07   ,2.3  ,2.5  ,0.1
9651  ,1.619e+10   ,2.1656  ,2.4888  ,4.9325
9653  ,2.177e+08   ,2.5  ,-1.316  ,4.9
9656  ,1.953e+08   ,-2.4  ,-1.7  ,5
9659  ,5.864e+08   ,2.3  ,-2.5  ,4.6765
9661  ,3.340e+08   ,2.3  ,-2.5  ,3.9531
9664  ,2.787e+08   ,-2.3  ,-2.4  ,5
9666  ,2.768e+08   ,1.9  ,-2.4  ,0
9677  ,2.704e+08   ,2.4  ,0.5  ,0
9678  ,5.477e+07   ,-2.5  ,-1.1  ,0.1
9680  ,2.514e+08   ,2.5  ,2.4  ,1.184
9681  ,5.573e+07   ,2.5  ,2.4  ,0.19855
9696  ,7.575e+07   ,-2.3  ,-2.5  ,2.0162
9698  ,1.798e+08   ,2.4  ,-2.3  ,0
9699  ,1.272e+08   ,-0.24243  ,-2.5  ,0.2
9701  ,1.657e+08   ,0.1  ,-2.4  ,0
9704  ,9.564e+07   ,-0.4838  ,-2.5  ,0.2
9718  ,7.714e+07   ,-0.72262  ,-2.5  ,0.2
9726  ,6.306e+08   ,2.3  ,-0.76628  ,0.2
9727  ,1.632e+08   ,-2.5  ,2.4  ,0.4
9730  ,2.588e+08   ,1.9433E-06  ,-2.5  ,4.8
9731  ,1.649e+08   ,-0.24243  ,-2.5  ,4.8
9732  ,2.342e+08   ,-2.5  ,2.4  ,2.2
9738  ,3.874e+08   ,-2.5  ,-2.4  ,4
9743  ,2.974e+08   ,-1.6937  ,-2.5  ,4.8
9744  ,1.299e+08   ,-2.4  ,-2.5  ,4
9750  ,1.764e+07   ,-1.7  ,-2.5  ,0.1
9752  ,3.012e+07   ,-1.6937  ,-2.5  ,0.2
9754  ,6.083e+07   ,-1.3  ,-2.4  ,0
9759  ,5.405e+07   ,-2.4707  ,2.4  ,0.029289
9760  ,5.756e+07   ,-2.4  ,2.4707  ,0.029289
9768  ,2.453e+08   ,2.3  ,-2.5  ,4.1937
9770  ,1.451e+08   ,1.9433E-06  ,-2.5  ,0.2
9771  ,2.234e+08   ,0.4838  ,-2.5  ,0.2
9772  ,2.668e+08   ,2.4  ,-2.5  ,0.2
9773  ,3.226e+08   ,2.4  ,-2.5  ,4.6
9776  ,4.938e+08   ,2.4  ,0.063638  ,5
9780  ,8.560e+08   ,0.65491  ,2.5  ,4.9
9781  ,4.425e+07   ,2.4  ,2.5  ,0.19855
9782  ,2.301e+08   ,-2.3  ,-2.5  ,2.9838
9786  ,5.088e+07   ,-1.2085  ,-2.5  ,0.2
9787  ,3.981e+07   ,-1.4531  ,-2.5  ,0.2
9790  ,1.721e+08   ,2.3  ,-2.4  ,0
9793  ,5.143e+09   ,2.0345  ,2.4  ,5
9797  ,1.409e+08   ,2.3  ,-2.5  ,1.5364
9798  ,9.414e+08   ,2.4  ,1.0491  ,5
9809  ,1.017e+09   ,2.4  ,2.5  ,3.352
