Date:  11:20, Monday, July 10, 2023
Model name: Hollow_DropBox
Study name: Drop Test_hollow_draft1(-Default-)
Plot type:  Stress1
Plot step: 12   time : 62.9759 Microseconds
Result Type: von Mises 


Node  ,Value (N/m^2)  ,X (in)  ,Y (in)  ,Z (in)
1  ,6.508e+09   ,2.5  ,2.1331  ,4.9
2  ,2.230e+10   ,2.4577  ,2.1908  ,4.9577
3  ,1.350e+10   ,2.4894  ,2.1331  ,4.9447
4  ,6.799e+09   ,2.1331  ,2.5  ,4.9
5  ,1.444e+10   ,2.1331  ,2.4894  ,4.9447
6  ,2.070e+10   ,2.1908  ,2.4577  ,4.9577
7  ,7.183e+07   ,-2.4  ,2.4  ,5
8  ,4.097e+08   ,-2.4  ,-2.4  ,5
9  ,7.780e+08   ,2.4  ,-2.4  ,5
10  ,5.868e+09   ,2.4  ,2.1331  ,5
11  ,6.276e+09   ,2.1331  ,2.4  ,5
12  ,8.280e+08   ,2.5  ,-2.4  ,4.9
13  ,4.071e+08   ,2.5  ,-2.4  ,0.1
14  ,8.430e+07   ,2.5  ,2.4  ,0.1
15  ,6.698e+09   ,2.5  ,2.4  ,4.6331
16  ,7.456e+07   ,2.4  ,2.5  ,0.1
17  ,6.260e+07   ,-2.4  ,2.5  ,0.1
18  ,5.472e+07   ,-2.4  ,2.5  ,4.9
19  ,6.643e+09   ,2.4  ,2.5  ,4.6331
20  ,8.717e+07   ,-2.5  ,2.4  ,0.1
21  ,2.835e+07   ,-2.5  ,-2.4  ,0.1
22  ,2.494e+08   ,-2.5  ,-2.4  ,4.9
23  ,5.610e+07   ,-2.5  ,2.4  ,4.9
24  ,8.117e+07   ,-2.3  ,-2.5  ,0.2
25  ,3.618e+08   ,-2.3  ,-2.5  ,4.8
26  ,8.961e+08   ,2.3  ,-2.5  ,4.8
27  ,3.906e+08   ,2.3  ,-2.5  ,0.2
28  ,3.723e+08   ,-2.4  ,-2.5  ,4.9
29  ,8.183e+08   ,2.4  ,-2.5  ,4.9
30  ,6.806e+07   ,-2.4  ,-2.5  ,0.1
31  ,3.925e+08   ,2.4  ,-2.5  ,0.1
32  ,2.874e+08   ,2.4  ,-2.4  ,0
33  ,8.059e+07   ,2.4  ,2.4  ,0
34  ,5.332e+07   ,-2.4  ,-2.4  ,0
35  ,8.145e+07   ,-2.4  ,2.4  ,0
36  ,2.508e+10   ,2.4577  ,2.4577  ,4.6908
37  ,3.045e+08   ,-2.3  ,2.3  ,4.8
38  ,7.328e+09   ,2.1599  ,2.3  ,4.8
39  ,7.149e+09   ,2.3  ,2.1599  ,4.8
40  ,7.210e+09   ,2.3  ,2.3  ,4.6599
41  ,3.050e+08   ,2.3  ,2.3  ,0.2
42  ,2.517e+08   ,-2.3  ,2.3  ,0.2
43  ,1.236e+08   ,-2.4  ,2.2  ,5
44  ,1.717e+08   ,-2.4  ,2  ,5
45  ,1.471e+08   ,-2.4  ,1.8  ,5
46  ,1.426e+08   ,-2.4  ,1.6  ,5
47  ,1.546e+08   ,-2.4  ,1.4  ,5
48  ,2.048e+08   ,-2.4  ,1.2  ,5
49  ,2.179e+08   ,-2.4  ,1  ,5
50  ,3.725e+08   ,-2.4  ,0.8  ,5
51  ,4.191e+08   ,-2.4  ,0.6  ,5
52  ,3.995e+08   ,-2.4  ,0.4  ,5
53  ,4.065e+08   ,-2.4  ,0.2  ,5
54  ,3.194e+08   ,-2.4  ,5.8879E-16  ,5
55  ,3.207e+08   ,-2.4  ,-0.2  ,5
56  ,2.824e+08   ,-2.4  ,-0.4  ,5
57  ,2.615e+08   ,-2.4  ,-0.6  ,5
58  ,2.220e+08   ,-2.4  ,-0.8  ,5
59  ,2.524e+08   ,-2.4  ,-1  ,5
60  ,2.561e+08   ,-2.4  ,-1.2  ,5
61  ,3.381e+08   ,-2.4  ,-1.4  ,5
62  ,2.638e+08   ,-2.4  ,-1.6  ,5
63  ,1.980e+08   ,-2.4  ,-1.8  ,5
64  ,2.756e+08   ,-2.4  ,-2  ,5
65  ,2.567e+08   ,-2.4  ,-2.2  ,5
66  ,5.673e+08   ,-2.2  ,-2.4  ,5
67  ,4.923e+08   ,-2  ,-2.4  ,5
68  ,3.918e+08   ,-1.8  ,-2.4  ,5
69  ,2.564e+08   ,-1.6  ,-2.4  ,5
70  ,3.117e+08   ,-1.4  ,-2.4  ,5
71  ,3.729e+08   ,-1.2  ,-2.4  ,5
72  ,3.122e+08   ,-1  ,-2.4  ,5
73  ,2.776e+08   ,-0.8  ,-2.4  ,5
74  ,2.709e+08   ,-0.6  ,-2.4  ,5
75  ,2.122e+08   ,-0.4  ,-2.4  ,5
76  ,1.794e+08   ,-0.2  ,-2.4  ,5
77  ,1.704e+08   ,-5.8879E-16  ,-2.4  ,5
78  ,2.289e+08   ,0.2  ,-2.4  ,5
79  ,3.326e+08   ,0.4  ,-2.4  ,5
80  ,5.200e+08   ,0.6  ,-2.4  ,5
81  ,6.472e+08   ,0.8  ,-2.4  ,5
82  ,6.974e+08   ,1  ,-2.4  ,5
83  ,7.274e+08   ,1.2  ,-2.4  ,5
84  ,9.212e+08   ,1.4  ,-2.4  ,5
85  ,7.786e+08   ,1.6  ,-2.4  ,5
86  ,3.840e+08   ,1.8  ,-2.4  ,5
87  ,2.801e+08   ,2  ,-2.4  ,5
88  ,1.108e+09   ,2.2  ,-2.4  ,5
89  ,6.658e+08   ,2.4  ,-2.2029  ,5
90  ,6.822e+08   ,2.4  ,-2.0058  ,5
91  ,5.029e+08   ,2.4  ,-1.8087  ,5
92  ,4.402e+08   ,2.4  ,-1.6116  ,5
93  ,4.795e+08   ,2.4  ,-1.4145  ,5
94  ,4.079e+08   ,2.4  ,-1.2175  ,5
95  ,4.631e+08   ,2.4  ,-1.0204  ,5
96  ,5.356e+08   ,2.4  ,-0.82327  ,5
97  ,5.337e+08   ,2.4  ,-0.62618  ,5
98  ,5.220e+08   ,2.4  ,-0.42909  ,5
99  ,5.082e+08   ,2.4  ,-0.232  ,5
100  ,5.309e+08   ,2.4  ,-0.034907  ,5
101  ,5.846e+08   ,2.4  ,0.16218  ,5
102  ,7.424e+08   ,2.4  ,0.35927  ,5
103  ,9.486e+08   ,2.4  ,0.55637  ,5
104  ,1.021e+09   ,2.4  ,0.75346  ,5
105  ,9.331e+08   ,2.4  ,0.95055  ,5
106  ,1.018e+09   ,2.4  ,1.1476  ,5
107  ,1.596e+09   ,2.4  ,1.3447  ,5
108  ,2.191e+09   ,2.4  ,1.5418  ,5
109  ,2.937e+09   ,2.4  ,1.7389  ,5
110  ,4.756e+09   ,2.4  ,1.936  ,5
111  ,6.432e+09   ,2.2665  ,2.2665  ,5
112  ,4.878e+09   ,1.936  ,2.4  ,5
113  ,2.911e+09   ,1.7389  ,2.4  ,5
114  ,2.268e+09   ,1.5418  ,2.4  ,5
115  ,1.603e+09   ,1.3447  ,2.4  ,5
116  ,1.329e+09   ,1.1476  ,2.4  ,5
117  ,1.277e+09   ,0.95055  ,2.4  ,5
118  ,1.261e+09   ,0.75346  ,2.4  ,5
119  ,1.097e+09   ,0.55637  ,2.4  ,5
120  ,9.518e+08   ,0.35927  ,2.4  ,5
121  ,8.933e+08   ,0.16218  ,2.4  ,5
122  ,8.501e+08   ,-0.034907  ,2.4  ,5
123  ,9.006e+08   ,-0.232  ,2.4  ,5
124  ,7.556e+08   ,-0.42909  ,2.4  ,5
125  ,6.537e+08   ,-0.62618  ,2.4  ,5
126  ,7.688e+08   ,-0.82327  ,2.4  ,5
127  ,7.019e+08   ,-1.0204  ,2.4  ,5
128  ,6.379e+08   ,-1.2175  ,2.4  ,5
129  ,5.415e+08   ,-1.4145  ,2.4  ,5
130  ,3.695e+08   ,-1.6116  ,2.4  ,5
131  ,2.353e+08   ,-1.8087  ,2.4  ,5
132  ,1.649e+08   ,-2.0058  ,2.4  ,5
133  ,1.160e+08   ,-2.2029  ,2.4  ,5
294  ,5.717e+08   ,2.5  ,-2.2029  ,4.9
295  ,6.337e+08   ,2.5  ,-2.0058  ,4.9
296  ,5.045e+08   ,2.5  ,-1.8087  ,4.9
297  ,4.902e+08   ,2.5  ,-1.6116  ,4.9
298  ,4.152e+08   ,2.5  ,-1.4145  ,4.9
299  ,4.496e+08   ,2.5  ,-1.2175  ,4.9
300  ,4.734e+08   ,2.5  ,-1.0204  ,4.9
301  ,4.137e+08   ,2.5  ,-0.82327  ,4.9
302  ,5.123e+08   ,2.5  ,-0.62618  ,4.9
303  ,5.373e+08   ,2.5  ,-0.42909  ,4.9
304  ,6.416e+08   ,2.5  ,-0.232  ,4.9
305  ,7.310e+08   ,2.5  ,-0.034907  ,4.9
306  ,7.690e+08   ,2.5  ,0.16218  ,4.9
307  ,7.195e+08   ,2.5  ,0.35927  ,4.9
308  ,8.643e+08   ,2.5  ,0.55637  ,4.9
309  ,1.035e+09   ,2.5  ,0.75346  ,4.9
310  ,9.895e+08   ,2.5  ,0.95055  ,4.9
311  ,1.265e+09   ,2.5  ,1.1476  ,4.9
312  ,1.622e+09   ,2.5  ,1.3447  ,4.9
313  ,2.208e+09   ,2.5  ,1.5418  ,4.9
314  ,3.457e+09   ,2.5  ,1.7389  ,4.9
315  ,5.190e+09   ,2.5  ,1.936  ,4.9
316  ,1.120e+09   ,2.5  ,-2.4  ,4.7
317  ,2.888e+08   ,2.5  ,-2.4  ,4.5
318  ,3.824e+08   ,2.5  ,-2.4  ,4.3
319  ,8.178e+08   ,2.5  ,-2.4  ,4.1
320  ,8.548e+08   ,2.5  ,-2.4  ,3.9
321  ,8.138e+08   ,2.5  ,-2.4  ,3.7
322  ,7.233e+08   ,2.5  ,-2.4  ,3.5
323  ,6.104e+08   ,2.5  ,-2.4  ,3.3
324  ,4.926e+08   ,2.5  ,-2.4  ,3.1
325  ,2.860e+08   ,2.5  ,-2.4  ,2.9
326  ,1.574e+08   ,2.5  ,-2.4  ,2.7
327  ,1.478e+08   ,2.5  ,-2.4  ,2.5
328  ,2.024e+08   ,2.5  ,-2.4  ,2.3
329  ,2.151e+08   ,2.5  ,-2.4  ,2.1
330  ,3.040e+08   ,2.5  ,-2.4  ,1.9
331  ,3.094e+08   ,2.5  ,-2.4  ,1.7
332  ,2.741e+08   ,2.5  ,-2.4  ,1.5
333  ,2.921e+08   ,2.5  ,-2.4  ,1.3
334  ,2.752e+08   ,2.5  ,-2.4  ,1.1
335  ,2.530e+08   ,2.5  ,-2.4  ,0.9
336  ,3.954e+08   ,2.5  ,-2.4  ,0.7
337  ,4.951e+08   ,2.5  ,-2.4  ,0.5
338  ,5.866e+08   ,2.5  ,-2.4  ,0.3
339  ,2.482e+08   ,2.5  ,-2.2  ,0.1
340  ,2.770e+08   ,2.5  ,-2  ,0.1
341  ,1.885e+08   ,2.5  ,-1.8  ,0.1
342  ,2.088e+08   ,2.5  ,-1.6  ,0.1
343  ,1.987e+08   ,2.5  ,-1.4  ,0.1
344  ,2.506e+08   ,2.5  ,-1.2  ,0.1
345  ,2.288e+08   ,2.5  ,-1  ,0.1
346  ,1.951e+08   ,2.5  ,-0.8  ,0.1
347  ,2.515e+08   ,2.5  ,-0.6  ,0.1
348  ,2.681e+08   ,2.5  ,-0.4  ,0.1
349  ,3.524e+08   ,2.5  ,-0.2  ,0.1
350  ,3.854e+08   ,2.5  ,-1.7664E-15  ,0.1
351  ,3.994e+08   ,2.5  ,0.2  ,0.1
352  ,4.059e+08   ,2.5  ,0.4  ,0.1
353  ,3.523e+08   ,2.5  ,0.6  ,0.1
354  ,2.858e+08   ,2.5  ,0.8  ,0.1
355  ,2.220e+08   ,2.5  ,1  ,0.1
356  ,2.192e+08   ,2.5  ,1.2  ,0.1
357  ,2.066e+08   ,2.5  ,1.4  ,0.1
358  ,1.934e+08   ,2.5  ,1.6  ,0.1
359  ,1.500e+08   ,2.5  ,1.8  ,0.1
360  ,1.059e+08   ,2.5  ,2  ,0.1
361  ,1.398e+08   ,2.5  ,2.2  ,0.1
362  ,4.859e+09   ,2.5  ,2.4  ,4.436
363  ,3.298e+09   ,2.5  ,2.4  ,4.2389
364  ,2.069e+09   ,2.5  ,2.4  ,4.0418
365  ,1.624e+09   ,2.5  ,2.4  ,3.8447
366  ,1.250e+09   ,2.5  ,2.4  ,3.6476
367  ,1.153e+09   ,2.5  ,2.4  ,3.4505
368  ,1.292e+09   ,2.5  ,2.4  ,3.2535
369  ,1.141e+09   ,2.5  ,2.4  ,3.0564
370  ,9.275e+08   ,2.5  ,2.4  ,2.8593
371  ,8.279e+08   ,2.5  ,2.4  ,2.6622
372  ,8.805e+08   ,2.5  ,2.4  ,2.4651
373  ,7.546e+08   ,2.5  ,2.4  ,2.268
374  ,7.736e+08   ,2.5  ,2.4  ,2.0709
375  ,6.856e+08   ,2.5  ,2.4  ,1.8738
376  ,7.325e+08   ,2.5  ,2.4  ,1.6767
377  ,4.929e+08   ,2.5  ,2.4  ,1.4796
378  ,5.159e+08   ,2.5  ,2.4  ,1.2825
379  ,4.794e+08   ,2.5  ,2.4  ,1.0855
380  ,4.506e+08   ,2.5  ,2.4  ,0.88836
381  ,3.466e+08   ,2.5  ,2.4  ,0.69127
382  ,2.023e+08   ,2.5  ,2.4  ,0.49418
383  ,1.235e+08   ,2.5  ,2.4  ,0.29709
384  ,6.570e+09   ,2.5  ,2.2665  ,4.7665
544  ,1.571e+08   ,2.2  ,2.5  ,0.1
545  ,1.851e+08   ,2  ,2.5  ,0.1
546  ,1.927e+08   ,1.8  ,2.5  ,0.1
547  ,2.146e+08   ,1.6  ,2.5  ,0.1
548  ,2.053e+08   ,1.4  ,2.5  ,0.1
549  ,2.420e+08   ,1.2  ,2.5  ,0.1
550  ,3.066e+08   ,1  ,2.5  ,0.1
551  ,4.929e+08   ,0.8  ,2.5  ,0.1
552  ,5.128e+08   ,0.6  ,2.5  ,0.1
553  ,5.182e+08   ,0.4  ,2.5  ,0.1
554  ,5.651e+08   ,0.2  ,2.5  ,0.1
555  ,4.934e+08   ,5.8879E-16  ,2.5  ,0.1
556  ,3.571e+08   ,-0.2  ,2.5  ,0.1
557  ,4.222e+08   ,-0.4  ,2.5  ,0.1
558  ,4.744e+08   ,-0.6  ,2.5  ,0.1
559  ,5.040e+08   ,-0.8  ,2.5  ,0.1
560  ,4.251e+08   ,-1  ,2.5  ,0.1
561  ,3.896e+08   ,-1.2  ,2.5  ,0.1
562  ,3.337e+08   ,-1.4  ,2.5  ,0.1
563  ,3.004e+08   ,-1.6  ,2.5  ,0.1
564  ,2.516e+08   ,-1.8  ,2.5  ,0.1
565  ,1.805e+08   ,-2  ,2.5  ,0.1
566  ,1.250e+08   ,-2.2  ,2.5  ,0.1
567  ,1.209e+08   ,-2.4  ,2.5  ,4.7
568  ,1.898e+08   ,-2.4  ,2.5  ,4.5
569  ,2.025e+08   ,-2.4  ,2.5  ,4.3
570  ,1.992e+08   ,-2.4  ,2.5  ,4.1
571  ,1.890e+08   ,-2.4  ,2.5  ,3.9
572  ,2.038e+08   ,-2.4  ,2.5  ,3.7
573  ,2.742e+08   ,-2.4  ,2.5  ,3.5
574  ,4.967e+08   ,-2.4  ,2.5  ,3.3
575  ,4.547e+08   ,-2.4  ,2.5  ,3.1
576  ,4.679e+08   ,-2.4  ,2.5  ,2.9
577  ,4.550e+08   ,-2.4  ,2.5  ,2.7
578  ,4.957e+08   ,-2.4  ,2.5  ,2.5
579  ,4.720e+08   ,-2.4  ,2.5  ,2.3
580  ,5.101e+08   ,-2.4  ,2.5  ,2.1
581  ,5.157e+08   ,-2.4  ,2.5  ,1.9
582  ,5.138e+08   ,-2.4  ,2.5  ,1.7
583  ,4.477e+08   ,-2.4  ,2.5  ,1.5
584  ,3.880e+08   ,-2.4  ,2.5  ,1.3
585  ,3.354e+08   ,-2.4  ,2.5  ,1.1
586  ,2.908e+08   ,-2.4  ,2.5  ,0.9
587  ,2.674e+08   ,-2.4  ,2.5  ,0.7
588  ,1.923e+08   ,-2.4  ,2.5  ,0.5
589  ,1.242e+08   ,-2.4  ,2.5  ,0.3
590  ,5.370e+09   ,1.936  ,2.5  ,4.9
591  ,2.779e+09   ,1.7389  ,2.5  ,4.9
592  ,2.101e+09   ,1.5418  ,2.5  ,4.9
593  ,1.680e+09   ,1.3447  ,2.5  ,4.9
594  ,1.221e+09   ,1.1476  ,2.5  ,4.9
595  ,1.295e+09   ,0.95055  ,2.5  ,4.9
596  ,1.219e+09   ,0.75346  ,2.5  ,4.9
597  ,1.183e+09   ,0.55637  ,2.5  ,4.9
598  ,1.054e+09   ,0.35927  ,2.5  ,4.9
599  ,8.557e+08   ,0.16218  ,2.5  ,4.9
600  ,7.574e+08   ,-0.034907  ,2.5  ,4.9
601  ,7.388e+08   ,-0.232  ,2.5  ,4.9
602  ,8.769e+08   ,-0.42909  ,2.5  ,4.9
603  ,8.849e+08   ,-0.62618  ,2.5  ,4.9
604  ,7.277e+08   ,-0.82327  ,2.5  ,4.9
605  ,8.101e+08   ,-1.0204  ,2.5  ,4.9
606  ,7.477e+08   ,-1.2175  ,2.5  ,4.9
607  ,5.676e+08   ,-1.4145  ,2.5  ,4.9
608  ,4.121e+08   ,-1.6116  ,2.5  ,4.9
609  ,2.835e+08   ,-1.8087  ,2.5  ,4.9
610  ,1.782e+08   ,-2.0058  ,2.5  ,4.9
611  ,1.266e+08   ,-2.2029  ,2.5  ,4.9
612  ,6.673e+09   ,2.2665  ,2.5  ,4.7665
613  ,4.668e+09   ,2.4  ,2.5  ,4.436
614  ,2.952e+09   ,2.4  ,2.5  ,4.2389
615  ,2.067e+09   ,2.4  ,2.5  ,4.0418
616  ,1.550e+09   ,2.4  ,2.5  ,3.8447
617  ,1.302e+09   ,2.4  ,2.5  ,3.6476
618  ,1.169e+09   ,2.4  ,2.5  ,3.4505
619  ,1.298e+09   ,2.4  ,2.5  ,3.2535
620  ,1.133e+09   ,2.4  ,2.5  ,3.0564
621  ,9.628e+08   ,2.4  ,2.5  ,2.8593
622  ,8.619e+08   ,2.4  ,2.5  ,2.6622
623  ,7.571e+08   ,2.4  ,2.5  ,2.4651
624  ,7.011e+08   ,2.4  ,2.5  ,2.268
625  ,6.557e+08   ,2.4  ,2.5  ,2.0709
626  ,6.639e+08   ,2.4  ,2.5  ,1.8738
627  ,7.135e+08   ,2.4  ,2.5  ,1.6767
628  ,7.558e+08   ,2.4  ,2.5  ,1.4796
629  ,7.058e+08   ,2.4  ,2.5  ,1.2825
630  ,4.947e+08   ,2.4  ,2.5  ,1.0855
631  ,3.734e+08   ,2.4  ,2.5  ,0.88836
632  ,2.720e+08   ,2.4  ,2.5  ,0.69127
633  ,2.270e+08   ,2.4  ,2.5  ,0.49418
634  ,1.342e+08   ,2.4  ,2.5  ,0.29709
796  ,1.027e+08   ,-2.5  ,2.2  ,0.1
797  ,1.981e+08   ,-2.5  ,2  ,0.1
798  ,2.820e+08   ,-2.5  ,1.8  ,0.1
799  ,3.660e+08   ,-2.5  ,1.6  ,0.1
800  ,4.299e+08   ,-2.5  ,1.4  ,0.1
801  ,4.727e+08   ,-2.5  ,1.2  ,0.1
802  ,5.290e+08   ,-2.5  ,1  ,0.1
803  ,5.573e+08   ,-2.5  ,0.8  ,0.1
804  ,5.716e+08   ,-2.5  ,0.6  ,0.1
805  ,5.685e+08   ,-2.5  ,0.4  ,0.1
806  ,5.367e+08   ,-2.5  ,0.2  ,0.1
807  ,5.097e+08   ,-2.5  ,5.8879E-16  ,0.1
808  ,4.159e+08   ,-2.5  ,-0.2  ,0.1
809  ,3.244e+08   ,-2.5  ,-0.4  ,0.1
810  ,2.902e+08   ,-2.5  ,-0.6  ,0.1
811  ,2.632e+08   ,-2.5  ,-0.8  ,0.1
812  ,2.444e+08   ,-2.5  ,-1  ,0.1
813  ,2.059e+08   ,-2.5  ,-1.2  ,0.1
814  ,1.334e+08   ,-2.5  ,-1.4  ,0.1
815  ,9.268e+07   ,-2.5  ,-1.6  ,0.1
816  ,1.032e+08   ,-2.5  ,-1.8  ,0.1
817  ,9.799e+07   ,-2.5  ,-2  ,0.1
818  ,5.031e+07   ,-2.5  ,-2.2  ,0.1
819  ,2.506e+08   ,-2.5  ,-2.4  ,4.7
820  ,2.556e+08   ,-2.5  ,-2.4  ,4.5
821  ,4.626e+08   ,-2.5  ,-2.4  ,4.3
822  ,6.925e+08   ,-2.5  ,-2.4  ,4.1
823  ,7.610e+08   ,-2.5  ,-2.4  ,3.9
824  ,7.417e+08   ,-2.5  ,-2.4  ,3.7
825  ,6.940e+08   ,-2.5  ,-2.4  ,3.5
826  ,5.006e+08   ,-2.5  ,-2.4  ,3.3
827  ,3.925e+08   ,-2.5  ,-2.4  ,3.1
828  ,2.805e+08   ,-2.5  ,-2.4  ,2.9
829  ,2.062e+08   ,-2.5  ,-2.4  ,2.7
830  ,1.569e+08   ,-2.5  ,-2.4  ,2.5
831  ,1.712e+08   ,-2.5  ,-2.4  ,2.3
832  ,1.893e+08   ,-2.5  ,-2.4  ,2.1
833  ,2.540e+08   ,-2.5  ,-2.4  ,1.9
834  ,3.049e+08   ,-2.5  ,-2.4  ,1.7
835  ,2.844e+08   ,-2.5  ,-2.4  ,1.5
836  ,1.970e+08   ,-2.5  ,-2.4  ,1.3
837  ,1.395e+08   ,-2.5  ,-2.4  ,1.1
838  ,1.086e+08   ,-2.5  ,-2.4  ,0.9
839  ,1.710e+08   ,-2.5  ,-2.4  ,0.7
840  ,1.969e+08   ,-2.5  ,-2.4  ,0.5
841  ,1.100e+08   ,-2.5  ,-2.4  ,0.3
842  ,8.732e+07   ,-2.5  ,2.2  ,4.9
843  ,1.674e+08   ,-2.5  ,2  ,4.9
844  ,1.602e+08   ,-2.5  ,1.8  ,4.9
845  ,1.823e+08   ,-2.5  ,1.6  ,4.9
846  ,2.031e+08   ,-2.5  ,1.4  ,4.9
847  ,2.294e+08   ,-2.5  ,1.2  ,4.9
848  ,2.580e+08   ,-2.5  ,1  ,4.9
849  ,3.110e+08   ,-2.5  ,0.8  ,4.9
850  ,2.951e+08   ,-2.5  ,0.6  ,4.9
851  ,3.113e+08   ,-2.5  ,0.4  ,4.9
852  ,3.228e+08   ,-2.5  ,0.2  ,4.9
853  ,3.378e+08   ,-2.5  ,5.8879E-16  ,4.9
854  ,2.929e+08   ,-2.5  ,-0.2  ,4.9
855  ,2.432e+08   ,-2.5  ,-0.4  ,4.9
856  ,2.204e+08   ,-2.5  ,-0.6  ,4.9
857  ,2.289e+08   ,-2.5  ,-0.8  ,4.9
858  ,2.159e+08   ,-2.5  ,-1  ,4.9
859  ,2.089e+08   ,-2.5  ,-1.2  ,4.9
860  ,1.721e+08   ,-2.5  ,-1.4  ,4.9
861  ,1.692e+08   ,-2.5  ,-1.6  ,4.9
862  ,2.000e+08   ,-2.5  ,-1.8  ,4.9
863  ,2.375e+08   ,-2.5  ,-2  ,4.9
864  ,2.243e+08   ,-2.5  ,-2.2  ,4.9
865  ,1.344e+08   ,-2.5  ,2.4  ,4.7
866  ,2.398e+08   ,-2.5  ,2.4  ,4.5
867  ,2.761e+08   ,-2.5  ,2.4  ,4.3
868  ,2.396e+08   ,-2.5  ,2.4  ,4.1
869  ,2.801e+08   ,-2.5  ,2.4  ,3.9
870  ,3.046e+08   ,-2.5  ,2.4  ,3.7
871  ,3.522e+08   ,-2.5  ,2.4  ,3.5
872  ,3.792e+08   ,-2.5  ,2.4  ,3.3
873  ,3.820e+08   ,-2.5  ,2.4  ,3.1
874  ,4.108e+08   ,-2.5  ,2.4  ,2.9
875  ,4.194e+08   ,-2.5  ,2.4  ,2.7
876  ,4.583e+08   ,-2.5  ,2.4  ,2.5
877  ,4.474e+08   ,-2.5  ,2.4  ,2.3
878  ,4.540e+08   ,-2.5  ,2.4  ,2.1
879  ,4.525e+08   ,-2.5  ,2.4  ,1.9
880  ,4.555e+08   ,-2.5  ,2.4  ,1.7
881  ,3.464e+08   ,-2.5  ,2.4  ,1.5
882  ,3.414e+08   ,-2.5  ,2.4  ,1.3
883  ,2.825e+08   ,-2.5  ,2.4  ,1.1
884  ,2.652e+08   ,-2.5  ,2.4  ,0.9
885  ,2.089e+08   ,-2.5  ,2.4  ,0.7
886  ,1.418e+08   ,-2.5  ,2.4  ,0.5
887  ,6.156e+07   ,-2.5  ,2.4  ,0.3
1044  ,1.238e+08   ,-2.3  ,-2.5  ,0.44697
1045  ,1.792e+08   ,-2.3  ,-2.5  ,0.68705
1046  ,1.632e+08   ,-2.3  ,-2.5  ,0.92554
1047  ,1.618e+08   ,-2.3  ,-2.5  ,1.1682
1048  ,1.225e+08   ,-2.3  ,-2.5  ,1.4148
1049  ,9.837e+07   ,-2.3  ,-2.5  ,1.6581
1050  ,2.234e+08   ,-2.3  ,-2.5  ,1.8967
1051  ,3.643e+08   ,-2.3  ,-2.5  ,2.1357
1052  ,4.402e+08   ,-2.3  ,-2.5  ,2.3794
1053  ,4.582e+08   ,-2.3  ,-2.5  ,2.6206
1054  ,4.026e+08   ,-2.3  ,-2.5  ,2.8643
1055  ,2.924e+08   ,-2.3  ,-2.5  ,3.1033
1056  ,1.159e+08   ,-2.3  ,-2.5  ,3.342
1057  ,1.789e+08   ,-2.3  ,-2.5  ,3.5852
1058  ,3.016e+08   ,-2.3  ,-2.5  ,3.8318
1059  ,2.780e+08   ,-2.3  ,-2.5  ,4.0745
1060  ,1.782e+08   ,-2.3  ,-2.5  ,4.3129
1061  ,9.773e+07   ,-2.3  ,-2.5  ,4.553
1062  ,6.381e+08   ,-2.053  ,-2.5  ,4.8
1063  ,3.718e+08   ,-1.8129  ,-2.5  ,4.8
1064  ,1.454e+08   ,-1.5745  ,-2.5  ,4.8
1065  ,2.114e+08   ,-1.3318  ,-2.5  ,4.8
1066  ,1.578e+08   ,-1.0852  ,-2.5  ,4.8
1067  ,8.351e+07   ,-0.84195  ,-2.5  ,4.8
1068  ,2.651e+08   ,-0.60329  ,-2.5  ,4.8
1069  ,4.891e+08   ,-0.3643  ,-2.5  ,4.8
1070  ,5.024e+08   ,-0.12055  ,-2.5  ,4.8
1071  ,5.090e+08   ,0.12056  ,-2.5  ,4.8
1072  ,4.918e+08   ,0.3643  ,-2.5  ,4.8
1073  ,3.212e+08   ,0.6033  ,-2.5  ,4.8
1074  ,3.654e+07   ,0.84195  ,-2.5  ,4.8
1075  ,8.901e+07   ,1.0852  ,-2.5  ,4.8
1076  ,2.515e+08   ,1.3318  ,-2.5  ,4.8
1077  ,2.970e+08   ,1.5745  ,-2.5  ,4.8
1078  ,2.582e+08   ,1.8129  ,-2.5  ,4.8
1079  ,9.970e+08   ,2.053  ,-2.5  ,4.8
1080  ,1.013e+09   ,2.3  ,-2.5  ,4.553
1081  ,2.117e+08   ,2.3  ,-2.5  ,4.3129
1082  ,2.682e+08   ,2.3  ,-2.5  ,4.0745
1083  ,2.484e+08   ,2.3  ,-2.5  ,3.8318
1084  ,8.753e+07   ,2.3  ,-2.5  ,3.5852
1085  ,6.715e+07   ,2.3  ,-2.5  ,3.3419
1086  ,2.826e+08   ,2.3  ,-2.5  ,3.1033
1087  ,4.748e+08   ,2.3  ,-2.5  ,2.8643
1088  ,4.940e+08   ,2.3  ,-2.5  ,2.6206
1089  ,4.948e+08   ,2.3  ,-2.5  ,2.3794
1090  ,5.098e+08   ,2.3  ,-2.5  ,2.1357
1091  ,2.881e+08   ,2.3  ,-2.5  ,1.8967
1092  ,1.014e+08   ,2.3  ,-2.5  ,1.658
1093  ,1.462e+08   ,2.3  ,-2.5  ,1.4148
1094  ,1.561e+08   ,2.3  ,-2.5  ,1.1682
1095  ,1.297e+08   ,2.3  ,-2.5  ,0.92554
1096  ,3.339e+08   ,2.3  ,-2.5  ,0.68705
1097  ,6.423e+08   ,2.3  ,-2.5  ,0.44697
1098  ,1.376e+08   ,-2.053  ,-2.5  ,0.2
1099  ,1.146e+08   ,-1.8129  ,-2.5  ,0.2
1100  ,1.131e+08   ,-1.5745  ,-2.5  ,0.2
1101  ,1.382e+08   ,-1.3318  ,-2.5  ,0.2
1102  ,1.098e+08   ,-1.0852  ,-2.5  ,0.2
1103  ,8.050e+07   ,-0.84195  ,-2.5  ,0.2
1104  ,2.087e+08   ,-0.60329  ,-2.5  ,0.2
1105  ,3.590e+08   ,-0.3643  ,-2.5  ,0.2
1106  ,4.430e+08   ,-0.12055  ,-2.5  ,0.2
1107  ,4.717e+08   ,0.12056  ,-2.5  ,0.2
1108  ,3.888e+08   ,0.3643  ,-2.5  ,0.2
1109  ,2.672e+08   ,0.6033  ,-2.5  ,0.2
1110  ,1.410e+08   ,0.84195  ,-2.5  ,0.2
1111  ,1.494e+08   ,1.0852  ,-2.5  ,0.2
1112  ,3.097e+08   ,1.3318  ,-2.5  ,0.2
1113  ,3.007e+08   ,1.5745  ,-2.5  ,0.2
1114  ,2.336e+08   ,1.8129  ,-2.5  ,0.2
1115  ,1.463e+08   ,2.053  ,-2.5  ,0.2
1116  ,1.505e+08   ,-2.2  ,-2.5  ,4.9
1117  ,6.263e+07   ,-2  ,-2.5  ,4.9
1118  ,8.462e+07   ,-1.8  ,-2.5  ,4.9
1119  ,6.820e+07   ,-1.6  ,-2.5  ,4.9
1120  ,2.183e+08   ,-1.4  ,-2.5  ,4.9
1121  ,2.501e+08   ,-1.2  ,-2.5  ,4.9
1122  ,2.226e+08   ,-1  ,-2.5  ,4.9
1123  ,2.098e+08   ,-0.8  ,-2.5  ,4.9
1124  ,2.892e+08   ,-0.6  ,-2.5  ,4.9
1125  ,3.192e+08   ,-0.4  ,-2.5  ,4.9
1126  ,2.952e+08   ,-0.2  ,-2.5  ,4.9
1127  ,3.283e+08   ,-1.7664E-15  ,-2.5  ,4.9
1128  ,3.565e+08   ,0.2  ,-2.5  ,4.9
1129  ,4.312e+08   ,0.4  ,-2.5  ,4.9
1130  ,4.658e+08   ,0.6  ,-2.5  ,4.9
1131  ,3.996e+08   ,0.8  ,-2.5  ,4.9
1132  ,3.305e+08   ,1  ,-2.5  ,4.9
1133  ,3.572e+08   ,1.2  ,-2.5  ,4.9
1134  ,3.133e+08   ,1.4  ,-2.5  ,4.9
1135  ,4.157e+08   ,1.6  ,-2.5  ,4.9
1136  ,4.867e+08   ,1.8  ,-2.5  ,4.9
1137  ,4.828e+08   ,2  ,-2.5  ,4.9
1138  ,4.216e+08   ,2.2  ,-2.5  ,4.9
1139  ,3.385e+08   ,-2.4  ,-2.5  ,4.7
1140  ,2.283e+08   ,-2.4  ,-2.5  ,4.5
1141  ,2.159e+08   ,-2.4  ,-2.5  ,4.3
1142  ,2.097e+08   ,-2.4  ,-2.5  ,4.1
1143  ,2.673e+08   ,-2.4  ,-2.5  ,3.9
1144  ,3.610e+08   ,-2.4  ,-2.5  ,3.7
1145  ,3.168e+08   ,-2.4  ,-2.5  ,3.5
1146  ,3.739e+08   ,-2.4  ,-2.5  ,3.3
1147  ,3.604e+08   ,-2.4  ,-2.5  ,3.1
1148  ,3.631e+08   ,-2.4  ,-2.5  ,2.9
1149  ,3.354e+08   ,-2.4  ,-2.5  ,2.7
1150  ,3.242e+08   ,-2.4  ,-2.5  ,2.5
1151  ,2.935e+08   ,-2.4  ,-2.5  ,2.3
1152  ,2.784e+08   ,-2.4  ,-2.5  ,2.1
1153  ,2.534e+08   ,-2.4  ,-2.5  ,1.9
1154  ,2.245e+08   ,-2.4  ,-2.5  ,1.7
1155  ,2.084e+08   ,-2.4  ,-2.5  ,1.5
1156  ,1.977e+08   ,-2.4  ,-2.5  ,1.3
1157  ,1.451e+08   ,-2.4  ,-2.5  ,1.1
1158  ,1.294e+08   ,-2.4  ,-2.5  ,0.9
1159  ,1.410e+08   ,-2.4  ,-2.5  ,0.7
1160  ,1.065e+08   ,-2.4  ,-2.5  ,0.5
1161  ,1.127e+08   ,-2.4  ,-2.5  ,0.3
1162  ,9.928e+07   ,-2.2  ,-2.5  ,0.1
1163  ,6.235e+07   ,-2  ,-2.5  ,0.1
1164  ,5.820e+07   ,-1.8  ,-2.5  ,0.1
1165  ,1.077e+08   ,-1.6  ,-2.5  ,0.1
1166  ,1.507e+08   ,-1.4  ,-2.5  ,0.1
1167  ,1.911e+08   ,-1.2  ,-2.5  ,0.1
1168  ,1.987e+08   ,-1  ,-2.5  ,0.1
1169  ,2.106e+08   ,-0.8  ,-2.5  ,0.1
1170  ,2.413e+08   ,-0.6  ,-2.5  ,0.1
1171  ,2.680e+08   ,-0.4  ,-2.5  ,0.1
1172  ,2.932e+08   ,-0.2  ,-2.5  ,0.1
1173  ,3.089e+08   ,-1.7664E-15  ,-2.5  ,0.1
1174  ,3.238e+08   ,0.2  ,-2.5  ,0.1
1175  ,3.591e+08   ,0.4  ,-2.5  ,0.1
1176  ,3.841e+08   ,0.6  ,-2.5  ,0.1
1177  ,3.493e+08   ,0.8  ,-2.5  ,0.1
1178  ,3.489e+08   ,1  ,-2.5  ,0.1
1179  ,3.330e+08   ,1.2  ,-2.5  ,0.1
1180  ,2.583e+08   ,1.4  ,-2.5  ,0.1
1181  ,2.314e+08   ,1.6  ,-2.5  ,0.1
1182  ,2.221e+08   ,1.8  ,-2.5  ,0.1
1183  ,2.078e+08   ,2  ,-2.5  ,0.1
1184  ,3.063e+08   ,2.2  ,-2.5  ,0.1
1185  ,4.639e+08   ,2.4  ,-2.5  ,4.7
1186  ,4.901e+08   ,2.4  ,-2.5  ,4.5
1187  ,4.603e+08   ,2.4  ,-2.5  ,4.3
1188  ,3.435e+08   ,2.4  ,-2.5  ,4.1
1189  ,3.922e+08   ,2.4  ,-2.5  ,3.9
1190  ,3.585e+08   ,2.4  ,-2.5  ,3.7
1191  ,3.326e+08   ,2.4  ,-2.5  ,3.5
1192  ,4.053e+08   ,2.4  ,-2.5  ,3.3
1193  ,4.542e+08   ,2.4  ,-2.5  ,3.1
1194  ,3.943e+08   ,2.4  ,-2.5  ,2.9
1195  ,3.090e+08   ,2.4  ,-2.5  ,2.7
1196  ,3.157e+08   ,2.4  ,-2.5  ,2.5
1197  ,3.195e+08   ,2.4  ,-2.5  ,2.3
1198  ,3.475e+08   ,2.4  ,-2.5  ,2.1
1199  ,3.056e+08   ,2.4  ,-2.5  ,1.9
1200  ,2.218e+08   ,2.4  ,-2.5  ,1.7
1201  ,2.083e+08   ,2.4  ,-2.5  ,1.5
1202  ,2.163e+08   ,2.4  ,-2.5  ,1.3
1203  ,1.834e+08   ,2.4  ,-2.5  ,1.1
1204  ,9.715e+07   ,2.4  ,-2.5  ,0.9
1205  ,1.091e+08   ,2.4  ,-2.5  ,0.7
1206  ,1.181e+08   ,2.4  ,-2.5  ,0.5
1207  ,1.249e+08   ,2.4  ,-2.5  ,0.3
1208  ,2.211e+08   ,2.4  ,-2.2  ,0
1209  ,2.338e+08   ,2.4  ,-2  ,0
1210  ,1.917e+08   ,2.4  ,-1.8  ,0
1211  ,1.788e+08   ,2.4  ,-1.6  ,0
1212  ,1.931e+08   ,2.4  ,-1.4  ,0
1213  ,1.978e+08   ,2.4  ,-1.2  ,0
1214  ,2.253e+08   ,2.4  ,-1  ,0
1215  ,2.471e+08   ,2.4  ,-0.8  ,0
1216  ,2.179e+08   ,2.4  ,-0.6  ,0
1217  ,2.407e+08   ,2.4  ,-0.4  ,0
1218  ,2.923e+08   ,2.4  ,-0.2  ,0
1219  ,3.286e+08   ,2.4  ,-1.7664E-15  ,0
1220  ,3.543e+08   ,2.4  ,0.2  ,0
1221  ,3.118e+08   ,2.4  ,0.4  ,0
1222  ,2.701e+08   ,2.4  ,0.6  ,0
1223  ,2.350e+08   ,2.4  ,0.8  ,0
1224  ,2.323e+08   ,2.4  ,1  ,0
1225  ,2.358e+08   ,2.4  ,1.2  ,0
1226  ,2.388e+08   ,2.4  ,1.4  ,0
1227  ,2.089e+08   ,2.4  ,1.6  ,0
1228  ,1.999e+08   ,2.4  ,1.8  ,0
1229  ,1.464e+08   ,2.4  ,2  ,0
1230  ,7.276e+07   ,2.4  ,2.2  ,0
1231  ,1.251e+08   ,-2.2  ,-2.4  ,0
1232  ,9.754e+07   ,-2  ,-2.4  ,0
1233  ,5.404e+07   ,-1.8  ,-2.4  ,0
1234  ,1.047e+08   ,-1.6  ,-2.4  ,0
1235  ,1.533e+08   ,-1.4  ,-2.4  ,0
1236  ,2.114e+08   ,-1.2  ,-2.4  ,0
1237  ,2.730e+08   ,-1  ,-2.4  ,0
1238  ,2.907e+08   ,-0.8  ,-2.4  ,0
1239  ,2.290e+08   ,-0.6  ,-2.4  ,0
1240  ,1.690e+08   ,-0.4  ,-2.4  ,0
1241  ,1.489e+08   ,-0.2  ,-2.4  ,0
1242  ,1.450e+08   ,5.8879E-16  ,-2.4  ,0
1243  ,1.885e+08   ,0.2  ,-2.4  ,0
1244  ,3.174e+08   ,0.4  ,-2.4  ,0
1245  ,4.161e+08   ,0.6  ,-2.4  ,0
1246  ,5.195e+08   ,0.8  ,-2.4  ,0
1247  ,6.494e+08   ,1  ,-2.4  ,0
1248  ,7.843e+08   ,1.2  ,-2.4  ,0
1249  ,7.602e+08   ,1.4  ,-2.4  ,0
1250  ,6.513e+08   ,1.6  ,-2.4  ,0
1251  ,4.544e+08   ,1.8  ,-2.4  ,0
1252  ,3.150e+08   ,2  ,-2.4  ,0
1253  ,3.057e+08   ,2.2  ,-2.4  ,0
1254  ,1.012e+08   ,-2.4  ,2.2  ,0
1255  ,1.824e+08   ,-2.4  ,2  ,0
1256  ,2.915e+08   ,-2.4  ,1.8  ,0
1257  ,3.464e+08   ,-2.4  ,1.6  ,0
1258  ,4.169e+08   ,-2.4  ,1.4  ,0
1259  ,4.748e+08   ,-2.4  ,1.2  ,0
1260  ,5.112e+08   ,-2.4  ,1  ,0
1261  ,5.308e+08   ,-2.4  ,0.8  ,0
1262  ,5.794e+08   ,-2.4  ,0.6  ,0
1263  ,5.811e+08   ,-2.4  ,0.4  ,0
1264  ,5.609e+08   ,-2.4  ,0.2  ,0
1265  ,5.256e+08   ,-2.4  ,5.8879E-16  ,0
1266  ,4.240e+08   ,-2.4  ,-0.2  ,0
1267  ,3.065e+08   ,-2.4  ,-0.4  ,0
1268  ,2.620e+08   ,-2.4  ,-0.6  ,0
1269  ,2.462e+08   ,-2.4  ,-0.8  ,0
1270  ,2.425e+08   ,-2.4  ,-1  ,0
1271  ,2.075e+08   ,-2.4  ,-1.2  ,0
1272  ,1.267e+08   ,-2.4  ,-1.4  ,0
1273  ,9.028e+07   ,-2.4  ,-1.6  ,0
1274  ,1.024e+08   ,-2.4  ,-1.8  ,0
1275  ,9.364e+07   ,-2.4  ,-2  ,0
1276  ,5.382e+07   ,-2.4  ,-2.2  ,0
1277  ,7.036e+07   ,2.2  ,2.4  ,0
1278  ,1.980e+08   ,2  ,2.4  ,0
1279  ,2.586e+08   ,1.8  ,2.4  ,0
1280  ,2.402e+08   ,1.6  ,2.4  ,0
1281  ,2.615e+08   ,1.4  ,2.4  ,0
1282  ,3.340e+08   ,1.2  ,2.4  ,0
1283  ,3.904e+08   ,1  ,2.4  ,0
1284  ,3.739e+08   ,0.8  ,2.4  ,0
1285  ,4.083e+08   ,0.6  ,2.4  ,0
1286  ,3.989e+08   ,0.4  ,2.4  ,0
1287  ,4.277e+08   ,0.2  ,2.4  ,0
1288  ,4.354e+08   ,5.8879E-16  ,2.4  ,0
1289  ,4.978e+08   ,-0.2  ,2.4  ,0
1290  ,4.805e+08   ,-0.4  ,2.4  ,0
1291  ,4.727e+08   ,-0.6  ,2.4  ,0
1292  ,4.365e+08   ,-0.8  ,2.4  ,0
1293  ,3.289e+08   ,-1  ,2.4  ,0
1294  ,3.087e+08   ,-1.2  ,2.4  ,0
1295  ,2.689e+08   ,-1.4  ,2.4  ,0
1296  ,2.588e+08   ,-1.6  ,2.4  ,0
1297  ,2.306e+08   ,-1.8  ,2.4  ,0
1298  ,1.697e+08   ,-2  ,2.4  ,0
1299  ,7.013e+07   ,-2.2  ,2.4  ,0
1460  ,8.939e+09   ,2.3243  ,2.3243  ,4.9577
1461  ,8.638e+09   ,2.4577  ,2.3243  ,4.8243
1462  ,7.198e+09   ,2.3243  ,2.4577  ,4.8243
1463  ,2.907e+08   ,-2.3  ,-2.1759  ,4.8
1464  ,4.236e+08   ,-2.3  ,-1.7631  ,4.8
1465  ,6.285e+08   ,-2.3  ,-1.1827  ,4.8
1466  ,6.253e+08   ,-2.3  ,-0.34986  ,4.8
1467  ,8.498e+08   ,-2.3  ,0.80545  ,4.8
1468  ,8.363e+08   ,-0.81337  ,2.3  ,4.8
1469  ,1.642e+09   ,0.67326  ,2.3  ,4.8
1470  ,5.648e+08   ,2.3  ,-2.1824  ,4.8
1471  ,2.625e+08   ,2.3  ,-1.7784  ,4.8
1472  ,4.207e+08   ,2.3  ,-1.2138  ,4.8
1473  ,7.923e+08   ,2.3  ,-0.40752  ,4.8
1474  ,1.420e+09   ,2.3  ,0.70532  ,4.8
1516  ,7.814e+08   ,2.3  ,2.3  ,1.6866
1517  ,1.590e+09   ,2.3  ,2.3  ,3.1733
1518  ,3.179e+08   ,2.3  ,-2.1759  ,0.2
1519  ,4.352e+08   ,2.3  ,-1.7631  ,0.2
1520  ,6.806e+08   ,2.3  ,-1.1827  ,0.2
1521  ,5.907e+08   ,2.3  ,-0.34986  ,0.2
1522  ,8.540e+08   ,2.3  ,0.80545  ,0.2
1564  ,6.788e+08   ,-0.76667  ,2.3  ,0.2
1565  ,8.128e+08   ,0.76667  ,2.3  ,0.2
1566  ,6.685e+08   ,-2.3  ,2.3  ,1.7333
1567  ,8.304e+08   ,-2.3  ,2.3  ,3.2667
1574  ,1.491e+08   ,-2.3  ,-2.1759  ,0.2
1575  ,5.998e+07   ,-2.3  ,-1.7631  ,0.2
1576  ,9.913e+07   ,-2.3  ,-1.1827  ,0.2
1577  ,2.877e+08   ,-2.3  ,-0.34986  ,0.2
1578  ,2.705e+08   ,-2.3  ,0.80545  ,0.2
1777  ,8.961e+08   ,-0.52764  ,2.5  ,4.9
1801  ,2.264e+08   ,-2.3  ,1.5527  ,0.2
1825  ,6.337e+08   ,-1.5333  ,2.3  ,0.2
1841  ,8.161e+08   ,0.063638  ,2.5  ,4.9
1876  ,4.697e+08   ,-0.5  ,2.4  ,0
1894  ,7.735e+08   ,2.3  ,1.5527  ,0.2
1907  ,1.677e+08   ,2.1  ,2.5  ,0.1
1928  ,2.212e+08   ,1.9  ,2.4  ,0
1974  ,2.383e+08   ,2.4  ,1.1  ,0
1981  ,2.571e+08   ,2.4  ,2.5  ,0.59273
1987  ,2.680e+08   ,-2.5  ,2.4  ,4
2004  ,1.551e+08   ,-2.4  ,2.5  ,4.6
2009  ,2.285e+08   ,2.4  ,1.3  ,0
2020  ,2.065e+08   ,2.5  ,1.1  ,0.1
2035  ,2.040e+08   ,-2.3  ,-0.76628  ,0.2
2070  ,2.557e+09   ,1.6404  ,2.4  ,5
2081  ,6.331e+08   ,2.4  ,2.5  ,1.9724
2095  ,3.466e+08   ,2.4  ,2.5  ,0.78982
2138  ,4.738e+08   ,-2.4  ,-0.1  ,0
2146  ,7.248e+08   ,-0.92182  ,2.4  ,5
2174  ,5.642e+08   ,2.4  ,2.5  ,1.184
2190  ,4.480e+08   ,2.5  ,2.4  ,0.98691
2203  ,7.285e+08   ,2.5  ,-0.13345  ,4.9
2232  ,1.469e+09   ,2.3  ,0.1489  ,4.8
2242  ,1.047e+09   ,2.4  ,2.5  ,2.9578
2293  ,5.773e+08   ,-2.5  ,0.5  ,0.1
2311  ,1.736e+09   ,2.3  ,2.3  ,2.4299
2313  ,4.217e+08   ,2.5  ,2.4  ,0.78982
2329  ,6.736e+08   ,2.4  ,2.5  ,2.1695
2355  ,1.980e+08   ,-2.4  ,2.5  ,4.4
2380  ,1.045e+08   ,-2.5  ,-1.5  ,0.1
2383  ,1.100e+09   ,0.45782  ,2.5  ,4.9
2408  ,5.183e+08   ,2.3  ,-1.4961  ,4.8
2445  ,4.267e+08   ,2.5  ,-1.5131  ,4.9
2484  ,3.071e+08   ,-2.5  ,-2.4  ,1.6
2495  ,1.364e+08   ,-2.4  ,1.7  ,5
2508  ,3.378e+08   ,2.4  ,0.3  ,0
2514  ,8.262e+08   ,2.3  ,0.2278  ,0.2
2570  ,1.517e+08   ,-2.4  ,1.5  ,5
2580  ,2.503e+09   ,1.6404  ,2.5  ,4.9
2603  ,8.102e+08   ,-1.1189  ,2.5  ,4.9
2695  ,5.264e+08   ,2.3  ,2.3  ,0.94331
2705  ,7.532e+08   ,2.4  ,2.5  ,1.3811
2714  ,7.986e+08   ,2.5  ,0.45782  ,4.9
2734  ,2.251e+08   ,2.4  ,-0.9  ,0
2775  ,3.667e+08   ,2.5  ,-0.1  ,0.1
2779  ,3.082e+08   ,2.4  ,-0.1  ,0
2801  ,3.257e+09   ,1.4166  ,2.3  ,4.8
2814  ,1.872e+09   ,1.4433  ,2.5  ,4.9
2863  ,2.350e+08   ,-2.4  ,2.5  ,0.6
2884  ,2.712e+08   ,-2.4  ,2.5  ,0.8
2886  ,3.695e+08   ,-2.4  ,2.5  ,1.2
2967  ,1.879e+08   ,2.4  ,1.7  ,0
2973  ,1.939e+08   ,2.5  ,1.5  ,0.1
2987  ,3.835e+08   ,-0.3  ,2.5  ,0.1
3008  ,6.424e+08   ,-2.3  ,2.3  ,0.96667
3012  ,4.373e+08   ,-2.5  ,2.4  ,2.6
3021  ,3.990e+08   ,-2.5  ,2.4  ,2.8
3025  ,4.519e+08   ,-2.5  ,2.4  ,2.4
3030  ,4.868e+08   ,-2.4  ,2.5  ,2.4
3033  ,4.714e+08   ,-2.4  ,2.5  ,2.2
3047  ,7.227e+08   ,2.4  ,2.5  ,2.3665
3052  ,8.374e+08   ,2.5  ,2.4  ,2.5636
3061  ,8.218e+08   ,2.4  ,2.5  ,2.5636
3081  ,1.783e+08   ,-2.4  ,1.3  ,5
3088  ,1.888e+08   ,-1.9073  ,2.4  ,5
3099  ,1.575e+08   ,-2.4  ,1.9  ,5
3107  ,1.915e+08   ,-2.4  ,2.5  ,3.8
3139  ,4.540e+08   ,-1.5131  ,2.4  ,5
3145  ,4.885e+08   ,-1.5131  ,2.5  ,4.9
3148  ,3.545e+08   ,-1.7102  ,2.5  ,4.9
3168  ,3.838e+08   ,-2.4  ,1.5  ,0
3188  ,9.630e+07   ,-2.5  ,-2.4  ,1
3202  ,8.756e+08   ,0.26073  ,2.5  ,4.9
3212  ,2.590e+09   ,2.5  ,1.6404  ,4.9
3247  ,4.059e+09   ,2.5  ,1.8375  ,4.9
3265  ,3.255e+09   ,2.3  ,1.4326  ,4.8
3271  ,6.969e+09   ,2.2299  ,2.2299  ,4.8
3284  ,1.853e+09   ,2.4  ,1.4433  ,5
3291  ,1.847e+09   ,2.5  ,1.4433  ,4.9
3296  ,7.578e+08   ,-2.3  ,-0.76628  ,4.8
3303  ,2.454e+08   ,-2.4  ,-0.9  ,5
3311  ,2.255e+08   ,-2.4  ,-0.7  ,5
3315  ,1.820e+08   ,1.9  ,2.5  ,0.1
3336  ,5.698e+08   ,-2.4  ,0.3  ,0
3340  ,5.172e+08   ,-2.5  ,0.1  ,0.1
3344  ,5.414e+08   ,-2.4  ,0.1  ,0
3356  ,4.817e+08   ,-0.3  ,2.4  ,0
3361  ,7.266e+08   ,-0.33054  ,2.5  ,4.9
3364  ,7.697e+08   ,-0.13345  ,2.5  ,4.9
3383  ,1.272e+09   ,2.4  ,2.5  ,3.5491
3402  ,5.554e+09   ,2.4  ,2.5  ,4.5345
3421  ,6.405e+08   ,-1.316  ,2.5  ,4.9
3439  ,1.697e+09   ,2.5  ,2.4  ,3.9433
3447  ,1.835e+09   ,2.4  ,2.5  ,3.9433
3451  ,1.375e+09   ,2.4  ,2.5  ,3.7462
3468  ,1.851e+09   ,1.4433  ,2.4  ,5
3480  ,1.328e+09   ,1.0491  ,2.4  ,5
3519  ,2.399e+08   ,1.5  ,2.4  ,0
3527  ,6.860e+08   ,2.3  ,-1.4729  ,0.2
3550  ,2.424e+08   ,-1.7  ,2.4  ,0
3554  ,2.740e+08   ,-1.7  ,2.5  ,0.1
3558  ,2.572e+08   ,-1.5  ,2.4  ,0
3562  ,3.120e+08   ,-1.5  ,2.5  ,0.1
3574  ,1.460e+08   ,-2.4  ,2.1  ,5
3581  ,3.173e+08   ,-2.5  ,1.7  ,0.1
3583  ,2.459e+08   ,-2.5  ,1.9  ,0.1
3584  ,2.124e+08   ,-1.9073  ,2.5  ,4.9
3591  ,3.989e+08   ,2.5  ,0.3  ,0.1
3595  ,3.871e+08   ,2.5  ,0.1  ,0.1
3603  ,1.320e+10   ,2.4577  ,2.391  ,4.7576
3663  ,1.270e+08   ,-1.933  ,-2.5  ,0.2
3669  ,1.166e+08   ,-2.1765  ,-2.5  ,0.2
3672  ,8.663e+07   ,-2.3  ,-2.3379  ,0.2
3682  ,6.737e+07   ,-1.9  ,-2.4  ,0
3700  ,5.022e+08   ,2.3  ,-2.5  ,2.7424
3712  ,1.229e+08   ,-2.1  ,-2.5  ,4.9
3715  ,5.804e+07   ,-1.9  ,-2.5  ,4.9
3740  ,3.338e+08   ,-1.3  ,-2.4  ,5
3746  ,1.878e+08   ,-1.2085  ,-2.5  ,4.8
3755  ,2.456e+08   ,-1.5  ,-2.4  ,5
3760  ,5.471e+07   ,-1.7  ,-2.5  ,4.9
3786  ,7.103e+08   ,2.4  ,2.5  ,1.5782
3813  ,9.458e+08   ,0.26073  ,2.4  ,5
3858  ,2.894e+08   ,-0.9  ,-2.4  ,5
3863  ,2.838e+08   ,-2.5  ,0.9  ,4.9
3875  ,4.115e+08   ,-1.9  ,-2.4  ,5
3885  ,5.233e+08   ,2.4  ,-0.72473  ,5
3910  ,3.577e+08   ,-2.4  ,-2.5  ,3.4
3959  ,2.623e+09   ,2.5  ,2.4  ,4.1404
3969  ,1.107e+09   ,2.5  ,1.0491  ,4.9
3992  ,1.475e+10   ,2.391  ,2.2576  ,4.9577
3993  ,1.311e+10   ,2.4577  ,2.2576  ,4.891
4016  ,7.775e+07   ,-2.3015  ,2.5  ,4.9
4018  ,8.609e+07   ,-2.4  ,2.5  ,4.8
4021  ,1.446e+09   ,1.2462  ,2.4  ,5
4042  ,2.157e+08   ,2.4  ,-1.1  ,0
4046  ,3.618e+08   ,-0.9  ,2.4  ,0
4055  ,4.662e+08   ,1.7  ,-2.5  ,4.9
4087  ,2.541e+08   ,1.7  ,2.4  ,0
4114  ,5.724e+08   ,2.5  ,-0.33054  ,4.9
4120  ,2.732e+08   ,2.4  ,-2.5  ,1.8
4125  ,3.459e+08   ,2.4  ,2.5  ,0.98691
4144  ,3.824e+09   ,2.4  ,2.5  ,4.3375
4161  ,4.139e+08   ,-2.4  ,0.3  ,5
4201  ,1.916e+08   ,1.933  ,-2.5  ,0.2
4225  ,8.456e+07   ,-2.3  ,-2.4  ,0
4230  ,1.801e+08   ,-2.3  ,-2.5  ,0.56701
4269  ,2.184e+08   ,-0.9  ,-2.5  ,4.9
4277  ,3.340e+08   ,-1.1  ,-2.4  ,5
4288  ,1.530e+09   ,-0.070055  ,2.3  ,4.8
4328  ,5.565e+08   ,-2.5  ,-2.4  ,4.2
4336  ,3.734e+08   ,-2.5  ,-2.4  ,4.4
4342  ,8.203e+07   ,-2.5  ,-2.4  ,4.6
4348  ,3.644e+08   ,-2.4  ,-2.4707  ,4.9707
4352  ,2.237e+08   ,-2.3  ,-2.5  ,4.9
4354  ,7.142e+08   ,-2.1765  ,-2.5  ,4.8
4355  ,3.851e+08   ,-2.3  ,-2.3379  ,4.8
4362  ,2.320e+08   ,2.5  ,2.4  ,0.59273
4364  ,1.944e+08   ,2.5  ,-2.4  ,2.4
4366  ,1.918e+08   ,2.5  ,-2.4  ,2.2
4372  ,3.330e+08   ,2.4  ,-2.5  ,2.2
4385  ,1.010e+08   ,-2.5  ,-1.9  ,0.1
4399  ,1.295e+08   ,-2.5  ,2.1  ,0.1
4407  ,2.679e+08   ,-0.7  ,-2.4  ,0
4436  ,4.679e+08   ,-2.5  ,-0.1  ,0.1
4462  ,6.974e+08   ,-2.3  ,2.3  ,4.0333
4491  ,4.999e+08   ,2.5  ,-0.52764  ,4.9
4494  ,2.819e+08   ,2.5  ,-2.4  ,1.4
4503  ,2.033e+08   ,2.4  ,-2.5  ,1.4
4508  ,1.993e+08   ,2.4  ,-2.5  ,1.2
4515  ,3.213e+08   ,2.5  ,-2.4  ,1.8
4517  ,2.061e+08   ,2.4  ,-2.5  ,1.6
4522  ,4.473e+08   ,0.7  ,-2.4  ,0
4538  ,6.547e+08   ,-1.1189  ,2.4  ,5
4546  ,2.382e+09   ,2.4  ,2.5  ,4.1404
4559  ,5.460e+08   ,1.7  ,-2.4  ,0
4590  ,3.733e+08   ,0.5  ,-2.4  ,0
4631  ,3.000e+08   ,2.4  ,-2.5  ,2.6
4634  ,2.052e+08   ,2.5  ,-2.4  ,2.8
4657  ,2.220e+08   ,-2.5  ,-2.4  ,2
4660  ,2.884e+08   ,-2.5  ,-2.4  ,1.8
4664  ,1.665e+08   ,-0.3  ,-2.4  ,0
4675  ,2.478e+08   ,-2.4  ,-2.5  ,4.8
4681  ,3.626e+08   ,-2.5  ,-0.3  ,0.1
4684  ,5.890e+08   ,1.7  ,-2.4  ,5
4703  ,3.832e+08   ,-2.4  ,0.7  ,5
4707  ,3.103e+08   ,-2.5  ,0.3  ,4.9
4714  ,4.946e+08   ,2.4  ,-0.33054  ,5
4723  ,7.003e+08   ,-1.5567  ,2.3  ,4.8
4739  ,1.365e+08   ,-2.1044  ,2.5  ,4.9
4763  ,1.713e+08   ,-1.9  ,2.4  ,0
4780  ,1.362e+08   ,-2.3  ,-1.9695  ,0.2
4782  ,3.158e+07   ,-2.4707  ,-2.4  ,0.029289
4784  ,9.318e+07   ,-2.4  ,-1.9  ,0
4791  ,2.368e+08   ,-2.4  ,-2.5  ,1.8
4796  ,7.574e+08   ,2.4707  ,-2.4707  ,4.9
4799  ,8.149e+08   ,2.5  ,-2.4  ,4.8
4806  ,4.492e+08   ,2.3  ,-2.5  ,4.9
4809  ,3.339e+09   ,2.3  ,2.3  ,3.9166
4833  ,1.483e+08   ,-2.4  ,2.5  ,0.4
4841  ,4.721e+08   ,-2.4  ,2.5  ,2.6
4846  ,1.239e+08   ,-2.5  ,2.1  ,4.9
4848  ,5.242e+07   ,-2.5  ,2.3  ,4.9
4849  ,7.914e+07   ,-2.5  ,2.4  ,4.8
4893  ,2.035e+08   ,-2.4  ,2.5  ,4.2
4897  ,5.687e+09   ,2.3333  ,2.1998  ,5
4900  ,1.315e+10   ,2.391  ,2.4577  ,4.7576
4908  ,1.265e+10   ,2.2576  ,2.391  ,4.9577
4911  ,1.317e+10   ,2.2576  ,2.4577  ,4.891
4926  ,2.626e+08   ,-2.5  ,2.4  ,1
4932  ,4.885e+08   ,-2.4  ,2.5  ,1.6
4937  ,3.998e+08   ,-1.1  ,2.5  ,0.1
4939  ,6.889e+09   ,2.3  ,2.2299  ,4.7299
4944  ,5.421e+08   ,2.5  ,-1.9073  ,4.9
4987  ,7.610e+08   ,-2.3  ,1.5527  ,4.8
5010  ,1.060e+10   ,2.4973  ,2.1331  ,4.923
5013  ,5.554e+09   ,2.5  ,2.0345  ,4.9
5017  ,5.728e+09   ,2.4  ,2.0345  ,5
5035  ,7.571e+08   ,1.3  ,-2.4  ,0
5038  ,2.386e+08   ,1.2085  ,-2.5  ,0.2
5092  ,1.741e+08   ,-2.4  ,-2.5  ,1.2
5123  ,4.361e+08   ,2.5  ,-2.4  ,0.6
5151  ,3.029e+08   ,-2.5  ,-0.5  ,0.1
5160  ,2.763e+08   ,-2.5  ,-0.7  ,0.1
5164  ,2.898e+08   ,-2.4  ,0.9  ,5
5168  ,3.951e+08   ,-2.4  ,0.5  ,5
5176  ,2.011e+08   ,2.5  ,-0.7  ,0.1
5179  ,2.199e+08   ,2.4  ,-0.5  ,0
5189  ,3.226e+08   ,2.4  ,-2.5  ,2.4
5194  ,5.157e+08   ,2.3  ,-2.5  ,2.2576
5198  ,8.904e+07   ,-2.3  ,-2.5  ,0.32348
5205  ,7.454e+07   ,-2.4  ,-2.5  ,0.2
5207  ,9.089e+07   ,-2.1  ,-2.5  ,0.1
5246  ,3.798e+08   ,-2.5  ,2.4  ,3.2
5257  ,1.928e+08   ,-2.5  ,1.5  ,4.9
5263  ,3.232e+08   ,-2.3  ,0.2278  ,0.2
5272  ,5.453e+08   ,-2.5  ,0.3  ,0.1
5275  ,2.960e+08   ,-2.5  ,0.5  ,4.9
5281  ,3.347e+09   ,1.8375  ,2.5  ,4.9
5297  ,4.660e+08   ,-0.9  ,2.5  ,0.1
5306  ,4.478e+08   ,-0.7  ,2.4  ,0
5309  ,4.400e+08   ,-0.5  ,2.5  ,0.1
5324  ,8.872e+08   ,2.4  ,2.5  ,2.7607
5332  ,2.634e+08   ,2.5  ,-2.4  ,0.8
5334  ,1.450e+08   ,2.4  ,-2.5  ,1
5360  ,4.519e+08   ,2.4  ,-1.7102  ,5
5362  ,4.564e+08   ,2.4  ,-1.5131  ,5
5368  ,3.579e+09   ,2.4  ,1.8375  ,5
5371  ,2.266e+10   ,2.4325  ,2.4888  ,4.6656
5372  ,6.145e+09   ,2.3333  ,2.5  ,4.6998
5376  ,4.661e+09   ,2.4707  ,2.4707  ,4.6331
5377  ,5.906e+09   ,2.5  ,2.4  ,4.5345
5379  ,1.407e+08   ,-1.5  ,-2.5  ,4.9
5406  ,5.658e+08   ,-2.5  ,-2.4  ,3.4
5420  ,2.129e+08   ,-2.3  ,-2.5  ,3.2226
5423  ,6.926e+08   ,1.5  ,-2.4  ,0
5502  ,2.808e+07   ,-2.5  ,-2.3  ,0.1
5504  ,6.049e+07   ,-2.5  ,-2.4  ,0.2
5506  ,4.506e+07   ,-2.4  ,-2.3  ,0
5511  ,7.276e+07   ,-2.5  ,-2.1  ,0.1
5513  ,5.772e+08   ,-2.4  ,0.5  ,0
5517  ,1.996e+08   ,-0.9  ,-2.5  ,0.1
5532  ,4.879e+07   ,-2.4707  ,2.4707  ,4.9
5534  ,2.178e+08   ,2.4  ,-0.7  ,0
5551  ,8.329e+08   ,2.5  ,-2.4  ,3.8
5566  ,5.601e+08   ,2.5  ,2.4  ,1.3811
5603  ,2.573e+08   ,2.4  ,-0.3  ,0
5617  ,1.508e+08   ,-2.1  ,2.5  ,0.1
5637  ,3.294e+08   ,-2.3  ,-1.9695  ,4.8
5641  ,2.340e+07   ,2.3  ,-2.5  ,3.4636
5645  ,2.596e+08   ,-2.4  ,-2.5  ,2
5649  ,2.929e+08   ,-2.4  ,-2.5  ,2.2
5659  ,1.478e+08   ,-2.3  ,-2.5  ,1.7774
5662  ,1.320e+09   ,2.1765  ,-2.5  ,4.8
5666  ,4.349e+08   ,2.4  ,-2.5  ,4.8
5669  ,8.114e+08   ,2.3  ,-2.3412  ,4.8
5695  ,5.510e+08   ,-2.4  ,0.7  ,0
5701  ,3.891e+08   ,-2.5  ,2.4  ,1.6
5715  ,5.141e+08   ,-2.4  ,2.5  ,1.8
5726  ,4.812e+08   ,-0.7  ,2.5  ,0.1
5727  ,3.256e+08   ,-1.1  ,2.4  ,0
5730  ,1.565e+08   ,2.3  ,-2.5  ,1.7774
5746  ,6.980e+08   ,2.5  ,2.4  ,1.7753
5755  ,2.471e+08   ,2.5  ,-2.4  ,4.4
5763  ,4.331e+08   ,2.4  ,-2.5  ,4.4
5773  ,1.323e+09   ,1.0491  ,2.5  ,4.9
5791  ,7.065e+08   ,-0.72473  ,2.4  ,5
5795  ,3.505e+09   ,1.8375  ,2.4  ,5
5803  ,1.682e+08   ,-0.3  ,-2.4  ,5
5810  ,2.502e+09   ,2.4  ,1.6404  ,5
5836  ,2.058e+08   ,-2.5  ,1.3  ,4.9
5860  ,2.846e+08   ,2.5  ,-2.4  ,1.6
5866  ,2.370e+08   ,1.5  ,-2.5  ,0.1
5884  ,3.037e+08   ,-2.4  ,-0.3  ,5
5888  ,2.119e+08   ,-2.5  ,-0.5  ,4.9
5901  ,4.815e+08   ,2.3  ,-2.5  ,2.5
5908  ,2.794e+08   ,2.5  ,-2.4  ,1.2
5909  ,2.694e+08   ,2.5  ,-2.4  ,2
5934  ,4.446e+08   ,1.9  ,-2.5  ,4.9
5938  ,5.170e+08   ,1.933  ,-2.5  ,4.8
5948  ,2.626e+08   ,-2.4  ,-2.5  ,4.6
5950  ,2.962e+08   ,-2.4707  ,-2.4707  ,4.9
5951  ,2.383e+08   ,-2.5  ,-2.4  ,4.8
5952  ,2.278e+08   ,-2.5  ,-2.3  ,4.9
5986  ,1.570e+08   ,2.3  ,-2.5  ,3.7085
5990  ,7.044e+08   ,-0.92182  ,2.5  ,4.9
6019  ,1.193e+08   ,2.5  ,1.9  ,0.1
6025  ,1.825e+08   ,2.4  ,-1.3  ,0
6035  ,1.600e+08   ,-2.5  ,1.9  ,4.9
6044  ,6.101e+08   ,0.1  ,2.5  ,0.1
6054  ,3.410e+08   ,2.4  ,0.1  ,0
6070  ,8.726e+07   ,-2.4  ,2.3  ,0
6071  ,6.242e+07   ,-2.3  ,2.4  ,0
6076  ,1.270e+08   ,-2.4  ,2.1  ,0
6083  ,1.590e+08   ,2.1  ,-2.4  ,0
6084  ,6.814e+07   ,2.4  ,2.3  ,0
6087  ,6.215e+07   ,2.3  ,2.4  ,0
6092  ,1.171e+08   ,-2.4  ,-2.5  ,0.4
6096  ,9.230e+07   ,-2.3  ,-2.5  ,0.1
6099  ,3.642e+08   ,0.7  ,-2.5  ,0.1
6149  ,2.491e+08   ,-2.4  ,-0.9  ,0
6159  ,1.856e+08   ,-2.5  ,-2.4  ,2.6
6183  ,1.348e+09   ,1.2462  ,2.5  ,4.9
6224  ,8.640e+08   ,2.5  ,-2.4  ,4
6228  ,3.400e+08   ,2.4  ,-2.5  ,3.8
6237  ,3.080e+08   ,2.5  ,0.7  ,0.1
6241  ,6.003e+09   ,2.5  ,2.3333  ,4.6998
6245  ,5.995e+08   ,2.5  ,2.4  ,1.5782
6259  ,6.005e+08   ,2.5  ,-2.1044  ,4.9
6265  ,4.261e+08   ,2.3  ,-1.9804  ,4.8
6267  ,7.000e+08   ,2.5  ,-2.3015  ,4.9
6268  ,6.293e+08   ,2.4707  ,-2.4  ,4.9707
6270  ,6.349e+08   ,2.4  ,-2.1044  ,5
6317  ,7.396e+08   ,-2.3  ,0.2278  ,4.8
6349  ,8.250e+08   ,-0.52764  ,2.4  ,5
6391  ,6.905e+08   ,2.4  ,2.5  ,1.7753
6440  ,2.911e+08   ,-2.5  ,2.4  ,3.8
6471  ,4.357e+08   ,2.5  ,-0.92182  ,4.9
6489  ,1.425e+09   ,2.5  ,1.2462  ,4.9
6523  ,2.348e+08   ,-1.1  ,-2.4  ,0
6528  ,1.917e+08   ,-1.1  ,-2.5  ,0.1
6535  ,2.924e+08   ,-0.9  ,-2.4  ,0
6538  ,8.663e+08   ,1.5  ,-2.4  ,5
6541  ,3.698e+08   ,1.5  ,-2.5  ,4.9
6551  ,4.688e+08   ,2.5  ,-0.72473  ,4.9
6564  ,1.122e+10   ,2.1331  ,2.4973  ,4.923
6565  ,5.841e+09   ,2.0345  ,2.5  ,4.9
6572  ,1.800e+08   ,2.4  ,-1.7  ,0
6581  ,8.085e+08   ,0  ,2.3  ,0.2
6592  ,3.435e+08   ,2.3  ,-1.9695  ,0.2
6594  ,4.112e+08   ,0.3  ,2.4  ,0
6601  ,4.990e+08   ,0.5  ,2.5  ,0.1
6605  ,1.676e+08   ,-2.4  ,-1.3  ,0
6606  ,2.225e+08   ,-2.4  ,-1.1  ,0
6615  ,3.572e+08   ,-2.4  ,-0.3  ,0
6634  ,5.449e+08   ,2.1  ,-2.5  ,4.9
6635  ,7.635e+08   ,2.4  ,-2.4707  ,4.9707
6636  ,8.007e+08   ,2.3  ,-2.4  ,5
6647  ,3.625e+08   ,0.5  ,-2.5  ,0.1
6704  ,5.825e+07   ,-2.4707  ,2.4707  ,0.1
6708  ,6.643e+07   ,-2.5  ,2.4  ,0.2
6712  ,2.402e+08   ,-2.4  ,2.5  ,3.6
6715  ,3.757e+08   ,-2.4  ,2.5  ,3.4
6728  ,3.016e+08   ,-2.5  ,0.7  ,4.9
6753  ,1.420e+08   ,-2.1044  ,2.4  ,5
6788  ,3.891e+09   ,2.5  ,2.4  ,4.3375
6791  ,5.109e+08   ,-1.933  ,-2.5  ,4.8
6795  ,5.688e+09   ,2.1998  ,2.5  ,4.8333
6837  ,1.773e+08   ,-2.3  ,-2.5  ,0.8063
6869  ,4.846e+08   ,2.5  ,-1.7102  ,4.9
6873  ,6.001e+08   ,2.4  ,-1.9073  ,5
6880  ,4.728e+08   ,2.4  ,-0.92182  ,5
6885  ,5.135e+08   ,2.4  ,-0.52764  ,5
6893  ,1.344e+09   ,2.4  ,1.2462  ,5
6914  ,4.969e+08   ,0.7  ,2.5  ,0.1
6920  ,3.937e+08   ,0.9  ,2.4  ,0
6923  ,3.888e+08   ,0.7  ,2.4  ,0
6936  ,3.683e+08   ,2.4  ,-2.5  ,3.4
6939  ,1.756e+08   ,2.3  ,-2.5  ,3.2226
6961  ,3.188e+08   ,-0.1  ,-2.5  ,4.9
6967  ,1.936e+08   ,-2.5  ,-1.5  ,4.9
6975  ,1.969e+08   ,-2.4  ,1.1  ,5
6978  ,7.213e+07   ,-2.4  ,2.5  ,0.2
6987  ,4.351e+08   ,2.4  ,-1.316  ,5
6994  ,2.136e+08   ,2.4  ,-1.5  ,0
7004  ,3.273e+08   ,2.4  ,-2.5  ,3.6
7011  ,1.019e+09   ,2.4  ,0.65491  ,5
7016  ,8.573e+08   ,2.4  ,0.45782  ,5
7019  ,7.374e+08   ,2.5  ,2.4  ,2.1695
7021  ,7.221e+08   ,2.5  ,2.4  ,1.9724
7052  ,3.167e+08   ,-1.3  ,2.5  ,0.1
7054  ,1.238e+08   ,-2.4  ,-2.5  ,0.8
7057  ,3.393e+08   ,0.3  ,-2.5  ,0.1
7065  ,4.396e+08   ,0.24243  ,-2.5  ,0.2
7075  ,2.251e+10   ,2.4888  ,2.4325  ,4.6656
7113  ,3.315e+08   ,-2.4  ,-2.5  ,2.6
7121  ,3.558e+08   ,-2.4  ,-2.5  ,2.8
7126  ,2.507e+08   ,-2.5  ,-2.4  ,2.8
7128  ,4.380e+07   ,-2.4707  ,-2.4707  ,0.1
7129  ,4.963e+07   ,-2.4  ,-2.4707  ,0.029289
7141  ,2.865e+08   ,-1.7  ,-2.4  ,5
7145  ,3.543e+08   ,1.1  ,2.4  ,0
7163  ,2.652e+08   ,-1.7102  ,2.4  ,5
7172  ,5.548e+08   ,2.5  ,-2.4  ,3.2
7174  ,3.212e+08   ,-2.5  ,2.4  ,3.6
7183  ,1.807e+08   ,-1.4531  ,-2.5  ,4.8
7204  ,1.133e+09   ,2.3  ,-0.81068  ,4.8
7220  ,7.004e+08   ,2.5  ,0.063638  ,4.9
7227  ,2.227e+08   ,2.5  ,-1.9  ,0.1
7256  ,1.884e+08   ,-0.1  ,-2.4  ,5
7280  ,7.983e+08   ,-0.33054  ,2.4  ,5
7299  ,4.517e+08   ,2.5  ,-1.1189  ,4.9
7316  ,1.321e+08   ,-2.5  ,-2.4  ,0.8
7323  ,1.210e+08   ,-2.4  ,-2.5  ,1
7396  ,6.919e+08   ,1.1  ,-2.4  ,5
7400  ,5.651e+08   ,-2.5  ,0.7  ,0.1
7409  ,8.082e+08   ,1.3  ,-2.4  ,5
7420  ,1.126e+08   ,2.5  ,2.1  ,0.1
7429  ,1.652e+08   ,2.4  ,1.9  ,0
7436  ,1.867e+08   ,2.5  ,-1.7  ,0.1
7438  ,3.499e+08   ,2.4  ,-2.5  ,2.8
7445  ,1.811e+10   ,2.4325  ,2.1656  ,4.9888
7464  ,1.642e+08   ,2.5  ,-1.5  ,0.1
7480  ,4.198e+08   ,2.5  ,-2.4  ,0.2
7482  ,1.448e+08   ,1.9  ,-2.5  ,0.1
7483  ,2.006e+08   ,1.7  ,-2.5  ,0.1
7486  ,2.530e+08   ,1.9  ,-2.4  ,5
7488  ,2.416e+08   ,1.6937  ,-2.5  ,4.8
7492  ,6.615e+08   ,2.1  ,-2.4  ,5
7495  ,3.168e+08   ,0.1  ,-2.5  ,0.1
7504  ,2.486e+08   ,0.3  ,-2.4  ,0
7507  ,3.482e+08   ,0.9  ,-2.5  ,0.1
7533  ,5.347e+08   ,-2.5  ,0.9  ,0.1
7536  ,3.510e+08   ,-2.4  ,-2.5  ,3.2
7540  ,3.582e+08   ,-2.4  ,-2.5  ,3
7545  ,3.278e+08   ,-2.5  ,-2.4  ,3
7582  ,2.090e+08   ,1.3  ,2.5  ,0.1
7588  ,8.237e+08   ,2.5  ,2.4  ,2.3665
7598  ,2.634e+08   ,-2.5  ,2.4  ,4.2
7607  ,7.061e+08   ,1.5333  ,2.3  ,0.2
7627  ,2.348e+08   ,-2.5  ,1.1  ,4.9
7651  ,2.084e+08   ,2.4  ,-1.9  ,0
7656  ,1.769e+08   ,2.5  ,2.4  ,0.39564
7660  ,6.848e+09   ,2.2299  ,2.3  ,4.7299
7668  ,3.091e+08   ,1.4531  ,-2.5  ,4.8
7676  ,3.395e+08   ,0.1  ,-2.5  ,4.9
7683  ,2.004e+08   ,0.1  ,-2.4  ,5
7686  ,2.400e+08   ,-2.4  ,-1.1  ,5
7702  ,1.376e+08   ,-2.3  ,-2.5  ,4.433
7710  ,2.758e+08   ,-2.3  ,-2.5  ,4.6765
7752  ,6.456e+08   ,0.9  ,-2.4  ,5
7763  ,5.076e+08   ,0.24243  ,-2.5  ,4.8
7767  ,4.354e+08   ,-2.5  ,-2.4  ,3.2
7768  ,7.154e+07   ,-2.4  ,-2.1  ,0
7776  ,5.136e+08   ,-2.4  ,0.9  ,0
7786  ,3.937e+08   ,-0.4838  ,-2.5  ,4.8
7800  ,6.751e+08   ,2.5  ,-2.4  ,4.6
7805  ,1.766e+08   ,-2.5  ,-1.3  ,4.9
7811  ,2.193e+08   ,-2.5  ,-1.1  ,4.9
7820  ,2.495e+08   ,2.5  ,-2.1  ,0.1
7824  ,2.181e+08   ,2.4  ,-2.1  ,0
7828  ,4.205e+08   ,2.4  ,-2.5  ,4.2
7831  ,3.280e+08   ,2.4  ,-2.5  ,4
7838  ,5.764e+08   ,2.5  ,-2.4  ,4.2
7839  ,8.953e+08   ,2.5  ,2.4  ,2.7607
7840  ,1.012e+09   ,2.5  ,2.4  ,2.9578
7863  ,9.784e+07   ,-2.4  ,-1.5  ,0
7890  ,2.244e+08   ,2.4  ,0.9  ,0
7897  ,2.484e+08   ,-2.4  ,-0.7  ,0
7912  ,1.262e+08   ,-1.5  ,-2.4  ,0
7917  ,1.745e+08   ,-1.3  ,-2.5  ,0.1
7931  ,3.974e+08   ,0.5  ,2.4  ,0
7934  ,6.918e+08   ,1.1  ,-2.4  ,0
7937  ,6.651e+07   ,2.4  ,-2.5  ,0.8
7941  ,1.220e+08   ,-2.4  ,-2.5  ,0.6
7969  ,8.024e+07   ,-2.5  ,2.3  ,0.1
7971  ,2.357e+08   ,-2.4  ,1.9  ,0
7972  ,2.183e+08   ,-1.9  ,2.5  ,0.1
7978  ,4.865e+08   ,-2.4  ,1.1  ,0
7996  ,2.752e+08   ,-2.4  ,-0.5  ,5
8000  ,1.824e+08   ,-2.5  ,-2.4  ,0.6
8003  ,1.629e+08   ,-2.5  ,-2.4  ,0.4
8025  ,3.807e+08   ,0.9  ,2.5  ,0.1
8035  ,5.356e+08   ,0.3  ,2.5  ,0.1
8039  ,7.521e+08   ,2.3  ,-2.5  ,0.32348
8041  ,4.192e+08   ,2.3  ,-2.3379  ,0.2
8043  ,3.099e+08   ,2.1765  ,-2.5  ,0.2
8045  ,8.424e+07   ,-0.96359  ,-2.5  ,0.2
8054  ,3.011e+08   ,1.3  ,2.4  ,0
8058  ,2.716e+08   ,1.1  ,2.5  ,0.1
8062  ,3.525e+08   ,-2.5  ,2.4  ,1.4
8067  ,2.289e+08   ,-2.5  ,2.4  ,0.8
8087  ,3.951e+08   ,-2.5  ,1.5  ,0.1
8132  ,8.711e+08   ,-0.13345  ,2.4  ,5
8183  ,2.308e+08   ,2.5  ,-0.9  ,0.1
8184  ,2.702e+08   ,1.6937  ,-2.5  ,0.2
8214  ,2.253e+08   ,-2.4707  ,-2.4  ,4.9707
8217  ,5.462e+08   ,-2.1  ,-2.4  ,5
8219  ,1.757e+08   ,-2.4  ,-2.5  ,4.4
8227  ,1.211e+09   ,2.5  ,2.4  ,3.1549
8242  ,4.524e+08   ,0.7  ,-2.5  ,4.9
8248  ,7.253e+08   ,2.5  ,-2.4  ,3.6
8254  ,3.097e+08   ,2.5  ,-0.3  ,0.1
8256  ,2.565e+08   ,2.5  ,-0.5  ,0.1
8258  ,3.016e+08   ,-0.3  ,-2.5  ,4.9
8263  ,3.230e+08   ,-0.5  ,-2.5  ,4.9
8268  ,2.499e+08   ,-2.3  ,-2.5  ,3.7085
8277  ,3.045e+08   ,-0.1  ,-2.5  ,0.1
8285  ,2.990e+08   ,1.1  ,-2.5  ,4.9
8307  ,4.188e+08   ,0.1  ,2.4  ,0
8308  ,3.187e+08   ,-0.1  ,2.5  ,0.1
8309  ,4.402e+08   ,-0.1  ,2.4  ,0
8313  ,2.576e+08   ,2.5  ,-2.3  ,0.1
8318  ,3.888e+08   ,2.5  ,-2.4  ,3
8338  ,1.197e+09   ,2.5  ,2.4  ,3.352
8339  ,1.264e+09   ,2.4  ,2.5  ,3.1549
8344  ,3.720e+08   ,-2.5  ,2.4  ,3.4
8357  ,1.750e+10   ,2.4888  ,2.1656  ,4.9325
8358  ,5.565e+09   ,2.5  ,2.1998  ,4.8333
8383  ,6.548e+07   ,-1.7  ,-2.4  ,0
8396  ,3.166e+08   ,1.1  ,-2.5  ,0.1
8399  ,7.072e+09   ,2.4526  ,2.1331  ,4.9851
8405  ,2.503e+08   ,2.5  ,-2.4  ,1
8412  ,1.925e+08   ,2.3  ,-2.5  ,0.8063
8417  ,4.517e+08   ,-2.3  ,-2.5  ,2.5
8434  ,4.891e+07   ,0.9636  ,-2.5  ,4.8
8438  ,2.837e+08   ,-0.3  ,-2.5  ,0.1
8452  ,3.232e+08   ,-2.4  ,-0.1  ,5
8468  ,1.397e+09   ,2.5  ,2.4  ,3.7462
8471  ,2.515e+08   ,-1.3  ,-2.5  ,4.9
8493  ,2.391e+08   ,-1.1  ,-2.5  ,4.9
8509  ,9.652e+07   ,-2.5  ,-1.7  ,0.1
8517  ,4.508e+08   ,-2.4  ,2.5  ,3
8531  ,3.148e+08   ,-2.4  ,1.7  ,0
8556  ,1.268e+09   ,2.5  ,2.4  ,3.5491
8573  ,5.560e+08   ,-1.316  ,2.4  ,5
8576  ,4.428e+08   ,-2.4  ,1.3  ,0
8611  ,1.487e+08   ,2.3  ,-2.5  ,1.2915
8618  ,1.751e+08   ,-2.4  ,2.5  ,4
8646  ,5.007e+08   ,-2.5  ,1.1  ,0.1
8656  ,2.573e+08   ,2.5  ,-1.3  ,0.1
8657  ,8.738e+07   ,2.4  ,2.1  ,0
8673  ,2.716e+08   ,-1.3  ,2.4  ,0
8692  ,1.753e+08   ,0.72263  ,-2.5  ,4.8
8696  ,1.449e+08   ,2.3  ,-2.5  ,1.0469
8706  ,9.477e+08   ,2.5  ,0.65491  ,4.9
8721  ,2.157e+08   ,-2.4  ,-2.5  ,1.6
8725  ,1.232e+09   ,0.65491  ,2.4  ,5
8739  ,1.881e+10   ,2.1656  ,2.4325  ,4.9888
8741  ,6.048e+09   ,2.1998  ,2.3333  ,5
8746  ,1.162e+08   ,-2.1  ,-2.4  ,0
8748  ,1.642e+08   ,-2.5  ,-2.4  ,1.2
8752  ,8.554e+09   ,2.1331  ,2.4526  ,4.9851
8759  ,1.650e+08   ,-2.3  ,-2.5  ,1.0469
8787  ,1.524e+08   ,-0.1  ,-2.4  ,0
8793  ,4.050e+08   ,-2.3  ,-2.5  ,2.2576
8795  ,3.149e+08   ,-2.4  ,-2.5  ,2.4
8798  ,2.271e+08   ,-2.3  ,-2.5  ,4.1937
8808  ,2.993e+08   ,-2.3  ,-2.5  ,3.9531
8814  ,3.183e+08   ,-2.4  ,-1.5  ,5
8849  ,4.293e+08   ,0.4838  ,-2.5  ,4.8
8851  ,2.089e+08   ,-2.4  ,-2.5  ,4.2
8868  ,4.290e+08   ,2.4  ,-2.5  ,3
8874  ,1.230e+09   ,0.852  ,2.4  ,5
8883  ,2.581e+08   ,-0.5  ,-2.4  ,5
8886  ,1.326e+08   ,-0.72262  ,-2.5  ,4.8
8893  ,2.587e+08   ,-0.7  ,-2.5  ,4.9
8897  ,7.123e+08   ,-2.5  ,-2.4  ,3.6
8899  ,9.240e+07   ,-2.3  ,-2.5  ,3.4636
8900  ,1.002e+08   ,-2.3  ,-1.4729  ,0.2
8906  ,1.604e+08   ,-2.5  ,-1.3  ,0.1
8910  ,1.255e+09   ,0.852  ,2.5  ,4.9
8925  ,3.716e+08   ,-2.4  ,2.5  ,1.4
8941  ,6.914e+07   ,2.4707  ,2.4  ,0.029289
8942  ,1.101e+08   ,2.5  ,2.3  ,0.1
8945  ,3.069e+08   ,-2.5  ,0.1  ,4.9
8950  ,5.981e+07   ,2.4707  ,2.4707  ,0.1
8951  ,6.444e+07   ,2.4  ,2.4707  ,0.029289
8959  ,6.601e+08   ,2.4  ,0.26073  ,5
8965  ,1.022e+09   ,0.45782  ,2.4  ,5
8978  ,9.297e+08   ,2.4  ,0.852  ,5
8983  ,2.298e+08   ,2.5  ,-1.1  ,0.1
8991  ,1.661e+08   ,-2.5  ,2.4  ,0.6
9008  ,9.686e+08   ,2.5  ,0.852  ,4.9
9011  ,2.820e+08   ,-2.4  ,-0.5  ,0
9025  ,1.325e+08   ,-1.5  ,-2.5  ,0.1
9038  ,3.428e+08   ,2.4  ,-2.5  ,2
9041  ,2.339e+08   ,2.5  ,0.9  ,0.1
9050  ,3.663e+08   ,2.5  ,0.5  ,0.1
9054  ,5.454e+08   ,0.9  ,-2.4  ,0
9060  ,1.302e+08   ,2.4  ,-2.5  ,0.4
9062  ,4.901e+08   ,2.3  ,-2.5  ,0.56701
9064  ,5.371e+08   ,2.5  ,-2.4  ,0.4
9069  ,1.066e+08   ,2.4  ,-2.5  ,0.6
9071  ,3.187e+08   ,1.4531  ,-2.5  ,0.2
9082  ,1.436e+08   ,-2.3  ,-2.5  ,1.2915
9086  ,1.992e+08   ,-2.4  ,-2.5  ,1.4
9091  ,2.315e+08   ,-2.5  ,-2.4  ,1.4
9094  ,3.352e+08   ,1.3  ,-2.5  ,4.9
9097  ,2.247e+08   ,-0.7  ,-2.5  ,0.1
9137  ,2.251e+08   ,-2.5  ,-0.7  ,4.9
9143  ,3.052e+08   ,-2.5  ,-0.1  ,4.9
9146  ,1.122e+08   ,-2.1  ,2.4  ,0
9148  ,1.660e+08   ,-2.5  ,1.7  ,4.9
9173  ,3.684e+08   ,-2.5  ,2.4  ,3
9192  ,2.878e+08   ,-0.7  ,-2.4  ,5
9195  ,2.121e+08   ,0.72263  ,-2.5  ,0.2
9209  ,6.328e+08   ,2.5  ,-2.4  ,3.4
9215  ,8.021e+07   ,0.9636  ,-2.5  ,0.2
9217  ,4.376e+08   ,2.4  ,-2.5  ,3.2
9218  ,1.061e+08   ,-0.96359  ,-2.5  ,4.8
9229  ,4.510e+08   ,-2.4  ,2.5  ,2.8
9248  ,4.864e+08   ,2.3  ,-2.5  ,4.433
9255  ,2.175e+08   ,2.5  ,1.3  ,0.1
9257  ,2.236e+08   ,2.4  ,1.5  ,0
9262  ,3.996e+08   ,0.5  ,-2.4  ,5
9264  ,5.168e+08   ,2.4  ,-0.13345  ,5
9272  ,8.247e+08   ,0.063638  ,2.4  ,5
9277  ,2.936e+08   ,-2.5  ,2.4  ,1.2
9279  ,7.082e+08   ,2.5  ,0.26073  ,4.9
9282  ,1.564e+08   ,1.2085  ,-2.5  ,4.8
9286  ,3.395e+08   ,0.9  ,-2.5  ,4.9
9292  ,5.683e+07   ,-2.4  ,2.4707  ,4.9707
9293  ,9.037e+07   ,-2.3015  ,2.4  ,5
9296  ,2.448e+08   ,-2.4  ,-2.1  ,5
9303  ,2.546e+08   ,-2.4  ,-1.9  ,5
9311  ,8.199e+07   ,-2.4  ,2.3  ,5
9313  ,3.616e+08   ,-2.4  ,0.1  ,5
9319  ,2.029e+08   ,-0.5  ,-2.4  ,0
9328  ,1.058e+08   ,-2.3  ,-2.5  ,1.5364
9334  ,7.278e+07   ,-2.3  ,2.5  ,0.1
9338  ,1.673e+08   ,-2.5  ,-2.4  ,2.4
9339  ,4.447e+08   ,-2.5  ,1.3  ,0.1
9341  ,4.340e+08   ,-2.3  ,-2.5  ,2.7424
9344  ,1.865e+08   ,-2.5  ,-2.4  ,2.2
9358  ,1.184e+09   ,-2.3  ,2.3  ,2.5
9364  ,2.414e+08   ,-2.5  ,-2.1  ,4.9
9367  ,2.884e+08   ,-2.4  ,-2.3  ,5
9374  ,2.801e+08   ,-2.4  ,-1.3  ,5
9378  ,4.674e+08   ,-2.5  ,2.4  ,1.8
9384  ,4.155e+08   ,2.3  ,-2.5  ,2.0162
9385  ,2.460e+08   ,-2.5  ,2.4  ,4.4
9389  ,4.388e+08   ,-2.5  ,2.4  ,2
9395  ,6.550e+08   ,2.4  ,-2.3015  ,5
9396  ,9.074e+07   ,-2.4  ,-1.7  ,0
9407  ,6.075e+08   ,-2.3  ,-1.4729  ,4.8
9411  ,1.921e+08   ,-2.5  ,-1.7  ,4.9
9423  ,3.073e+08   ,-2.4  ,-2.5  ,3.6
9432  ,5.804e+08   ,0.7  ,-2.4  ,5
9438  ,2.077e+08   ,-2.5  ,-0.9  ,4.9
9443  ,2.604e+08   ,-2.5  ,-0.3  ,4.9
9445  ,4.332e+07   ,-2.4707  ,2.4  ,4.9707
9448  ,4.145e+08   ,2.4  ,-1.1189  ,5
9453  ,2.443e+08   ,2.4  ,0.7  ,0
9455  ,1.452e+08   ,2.5  ,-2.4  ,2.6
9457  ,3.866e+08   ,2.3  ,-2.5  ,2.9838
9494  ,3.024e+08   ,-2.4  ,2.5  ,1
9500  ,3.946e+08   ,0.3  ,-2.5  ,4.9
9504  ,2.751e+08   ,0.3  ,-2.4  ,5
9506  ,2.374e+08   ,2.1  ,-2.5  ,0.1
9518  ,5.317e+07   ,-1.9  ,-2.5  ,0.1
9528  ,2.523e+08   ,2.3  ,-2.5  ,0.1
9531  ,3.950e+08   ,2.4707  ,-2.4707  ,0.1
9533  ,2.500e+08   ,2.4707  ,-2.4  ,0.029289
9534  ,3.170e+08   ,2.4  ,-2.4707  ,0.029289
9541  ,4.617e+08   ,0.5  ,-2.5  ,4.9
9544  ,2.520e+08   ,-0.5  ,-2.5  ,0.1
9559  ,2.062e+08   ,-2.5  ,-1.9  ,4.9
9562  ,1.834e+08   ,-2.5  ,2.4  ,4.6
9565  ,4.921e+08   ,-2.4  ,2.5  ,2
9571  ,7.590e+08   ,-2.5  ,-2.4  ,3.8
9574  ,2.744e+08   ,-2.4  ,-2.5  ,3.8
9577  ,2.706e+08   ,1.3  ,-2.5  ,0.1
9582  ,2.552e+08   ,-2.5  ,-0.9  ,0.1
9596  ,1.299e+08   ,2.1  ,2.4  ,0
9598  ,4.780e+08   ,-2.4  ,2.5  ,3.2
9602  ,1.970e+08   ,1.5  ,2.5  ,0.1
9610  ,1.754e+08   ,2.4  ,2.5  ,0.39564
9612  ,8.010e+08   ,-0.72473  ,2.5  ,4.9
9614  ,1.965e+08   ,1.7  ,2.5  ,0.1
9635  ,1.803e+08   ,2.5  ,1.7  ,0.1
9646  ,9.536e+07   ,2.3  ,2.5  ,0.1
9651  ,1.777e+10   ,2.1656  ,2.4888  ,4.9325
9653  ,4.297e+08   ,2.5  ,-1.316  ,4.9
9656  ,2.104e+08   ,-2.4  ,-1.7  ,5
9659  ,1.349e+09   ,2.3  ,-2.5  ,4.6765
9661  ,2.904e+08   ,2.3  ,-2.5  ,3.9531
9664  ,3.915e+08   ,-2.3  ,-2.4  ,5
9666  ,3.696e+08   ,1.9  ,-2.4  ,0
9677  ,2.917e+08   ,2.4  ,0.5  ,0
9678  ,2.297e+08   ,-2.5  ,-1.1  ,0.1
9680  ,4.946e+08   ,2.5  ,2.4  ,1.184
9681  ,9.228e+07   ,2.5  ,2.4  ,0.19855
9696  ,3.014e+08   ,-2.3  ,-2.5  ,2.0162
9698  ,2.542e+08   ,2.4  ,-2.3  ,0
9699  ,4.045e+08   ,-0.24243  ,-2.5  ,0.2
9701  ,1.581e+08   ,0.1  ,-2.4  ,0
9704  ,2.909e+08   ,-0.4838  ,-2.5  ,0.2
9718  ,1.342e+08   ,-0.72262  ,-2.5  ,0.2
9726  ,8.648e+08   ,2.3  ,-0.76628  ,0.2
9727  ,9.514e+07   ,-2.5  ,2.4  ,0.4
9730  ,4.974e+08   ,1.9433E-06  ,-2.5  ,4.8
9731  ,5.081e+08   ,-0.24243  ,-2.5  ,4.8
9732  ,4.336e+08   ,-2.5  ,2.4  ,2.2
9738  ,6.992e+08   ,-2.5  ,-2.4  ,4
9743  ,2.436e+08   ,-1.6937  ,-2.5  ,4.8
9744  ,2.279e+08   ,-2.4  ,-2.5  ,4
9750  ,8.016e+07   ,-1.7  ,-2.5  ,0.1
9752  ,1.158e+08   ,-1.6937  ,-2.5  ,0.2
9754  ,1.762e+08   ,-1.3  ,-2.4  ,0
9759  ,7.298e+07   ,-2.4707  ,2.4  ,0.029289
9760  ,5.524e+07   ,-2.4  ,2.4707  ,0.029289
9768  ,1.871e+08   ,2.3  ,-2.5  ,4.1937
9770  ,4.577e+08   ,1.9433E-06  ,-2.5  ,0.2
9771  ,3.269e+08   ,0.4838  ,-2.5  ,0.2
9772  ,2.069e+08   ,2.4  ,-2.5  ,0.2
9773  ,5.866e+08   ,2.4  ,-2.5  ,4.6
9776  ,5.482e+08   ,2.4  ,0.063638  ,5
9780  ,1.197e+09   ,0.65491  ,2.5  ,4.9
9781  ,8.478e+07   ,2.4  ,2.5  ,0.19855
9782  ,3.556e+08   ,-2.3  ,-2.5  ,2.9838
9786  ,1.325e+08   ,-1.2085  ,-2.5  ,0.2
9787  ,1.266e+08   ,-1.4531  ,-2.5  ,0.2
9790  ,2.539e+08   ,2.3  ,-2.4  ,0
9793  ,5.769e+09   ,2.0345  ,2.4  ,5
9797  ,1.162e+08   ,2.3  ,-2.5  ,1.5364
9798  ,1.077e+09   ,2.4  ,1.0491  ,5
9809  ,1.164e+09   ,2.4  ,2.5  ,3.352
