Date:  11:16, Monday, July 10, 2023
Model name: Hollow_DropBox
Study name: Drop Test_hollow_draft1(-Default-)
Plot type:  Stress1
Plot step: 5   time : 26.2195 Microseconds
Result Type: von Mises 


Node  ,Value (N/m^2)  ,X (in)  ,Y (in)  ,Z (in)
1  ,3.641e+09   ,2.5  ,2.1331  ,4.9
2  ,1.784e+10   ,2.4577  ,2.1908  ,4.9577
3  ,5.222e+09   ,2.4894  ,2.1331  ,4.9447
4  ,3.571e+09   ,2.1331  ,2.5  ,4.9
5  ,5.411e+09   ,2.1331  ,2.4894  ,4.9447
6  ,1.676e+10   ,2.1908  ,2.4577  ,4.9577
7  ,6.212e+07   ,-2.4  ,2.4  ,5
8  ,5.858e+06   ,-2.4  ,-2.4  ,5
9  ,1.518e+07   ,2.4  ,-2.4  ,5
10  ,3.679e+09   ,2.4  ,2.1331  ,5
11  ,3.924e+09   ,2.1331  ,2.4  ,5
12  ,1.979e+07   ,2.5  ,-2.4  ,4.9
13  ,4.737e+06   ,2.5  ,-2.4  ,0.1
14  ,6.366e+07   ,2.5  ,2.4  ,0.1
15  ,4.246e+09   ,2.5  ,2.4  ,4.6331
16  ,6.317e+07   ,2.4  ,2.5  ,0.1
17  ,2.458e+06   ,-2.4  ,2.5  ,0.1
18  ,5.727e+07   ,-2.4  ,2.5  ,4.9
19  ,4.312e+09   ,2.4  ,2.5  ,4.6331
20  ,1.213e+07   ,-2.5  ,2.4  ,0.1
21  ,6.673e+04   ,-2.5  ,-2.4  ,0.1
22  ,1.056e+06   ,-2.5  ,-2.4  ,4.9
23  ,4.209e+07   ,-2.5  ,2.4  ,4.9
24  ,1.382e+05   ,-2.3  ,-2.5  ,0.2
25  ,6.539e+06   ,-2.3  ,-2.5  ,4.8
26  ,4.555e+07   ,2.3  ,-2.5  ,4.8
27  ,4.576e+06   ,2.3  ,-2.5  ,0.2
28  ,2.435e+06   ,-2.4  ,-2.5  ,4.9
29  ,1.458e+07   ,2.4  ,-2.5  ,4.9
30  ,9.324e+04   ,-2.4  ,-2.5  ,0.1
31  ,3.062e+06   ,2.4  ,-2.5  ,0.1
32  ,1.702e+06   ,2.4  ,-2.4  ,0
33  ,5.435e+07   ,2.4  ,2.4  ,0
34  ,1.049e+05   ,-2.4  ,-2.4  ,0
35  ,9.461e+06   ,-2.4  ,2.4  ,0
36  ,1.540e+10   ,2.4577  ,2.4577  ,4.6908
37  ,1.330e+08   ,-2.3  ,2.3  ,4.8
38  ,4.715e+09   ,2.1599  ,2.3  ,4.8
39  ,4.632e+09   ,2.3  ,2.1599  ,4.8
40  ,4.428e+09   ,2.3  ,2.3  ,4.6599
41  ,1.534e+08   ,2.3  ,2.3  ,0.2
42  ,1.991e+07   ,-2.3  ,2.3  ,0.2
43  ,6.722e+07   ,-2.4  ,2.2  ,5
44  ,6.473e+07   ,-2.4  ,2  ,5
45  ,5.140e+07   ,-2.4  ,1.8  ,5
46  ,6.295e+07   ,-2.4  ,1.6  ,5
47  ,5.866e+07   ,-2.4  ,1.4  ,5
48  ,6.174e+07   ,-2.4  ,1.2  ,5
49  ,4.419e+07   ,-2.4  ,1  ,5
50  ,4.281e+07   ,-2.4  ,0.8  ,5
51  ,4.649e+07   ,-2.4  ,0.6  ,5
52  ,4.844e+07   ,-2.4  ,0.4  ,5
53  ,4.740e+07   ,-2.4  ,0.2  ,5
54  ,6.022e+07   ,-2.4  ,5.8879E-16  ,5
55  ,9.347e+07   ,-2.4  ,-0.2  ,5
56  ,9.009e+07   ,-2.4  ,-0.4  ,5
57  ,4.509e+07   ,-2.4  ,-0.6  ,5
58  ,3.008e+07   ,-2.4  ,-0.8  ,5
59  ,2.514e+07   ,-2.4  ,-1  ,5
60  ,2.079e+07   ,-2.4  ,-1.2  ,5
61  ,1.600e+07   ,-2.4  ,-1.4  ,5
62  ,2.084e+07   ,-2.4  ,-1.6  ,5
63  ,1.635e+07   ,-2.4  ,-1.8  ,5
64  ,4.402e+06   ,-2.4  ,-2  ,5
65  ,7.033e+06   ,-2.4  ,-2.2  ,5
66  ,1.230e+07   ,-2.2  ,-2.4  ,5
67  ,1.381e+07   ,-2  ,-2.4  ,5
68  ,1.988e+07   ,-1.8  ,-2.4  ,5
69  ,1.471e+07   ,-1.6  ,-2.4  ,5
70  ,2.002e+07   ,-1.4  ,-2.4  ,5
71  ,3.300e+07   ,-1.2  ,-2.4  ,5
72  ,5.581e+07   ,-1  ,-2.4  ,5
73  ,7.546e+07   ,-0.8  ,-2.4  ,5
74  ,7.172e+07   ,-0.6  ,-2.4  ,5
75  ,5.924e+07   ,-0.4  ,-2.4  ,5
76  ,5.500e+07   ,-0.2  ,-2.4  ,5
77  ,5.925e+07   ,-5.8879E-16  ,-2.4  ,5
78  ,5.723e+07   ,0.2  ,-2.4  ,5
79  ,3.931e+07   ,0.4  ,-2.4  ,5
80  ,4.128e+07   ,0.6  ,-2.4  ,5
81  ,4.146e+07   ,0.8  ,-2.4  ,5
82  ,4.664e+07   ,1  ,-2.4  ,5
83  ,4.817e+07   ,1.2  ,-2.4  ,5
84  ,6.777e+07   ,1.4  ,-2.4  ,5
85  ,8.607e+07   ,1.6  ,-2.4  ,5
86  ,7.915e+07   ,1.8  ,-2.4  ,5
87  ,8.727e+07   ,2  ,-2.4  ,5
88  ,5.024e+07   ,2.2  ,-2.4  ,5
89  ,3.728e+07   ,2.4  ,-2.2029  ,5
90  ,5.351e+07   ,2.4  ,-2.0058  ,5
91  ,1.071e+08   ,2.4  ,-1.8087  ,5
92  ,1.835e+08   ,2.4  ,-1.6116  ,5
93  ,2.288e+08   ,2.4  ,-1.4145  ,5
94  ,1.815e+08   ,2.4  ,-1.2175  ,5
95  ,5.493e+07   ,2.4  ,-1.0204  ,5
96  ,3.781e+07   ,2.4  ,-0.82327  ,5
97  ,3.733e+07   ,2.4  ,-0.62618  ,5
98  ,1.177e+08   ,2.4  ,-0.42909  ,5
99  ,2.539e+08   ,2.4  ,-0.232  ,5
100  ,3.106e+08   ,2.4  ,-0.034907  ,5
101  ,3.923e+08   ,2.4  ,0.16218  ,5
102  ,4.754e+08   ,2.4  ,0.35927  ,5
103  ,5.957e+08   ,2.4  ,0.55637  ,5
104  ,6.219e+08   ,2.4  ,0.75346  ,5
105  ,6.266e+08   ,2.4  ,0.95055  ,5
106  ,6.179e+08   ,2.4  ,1.1476  ,5
107  ,9.199e+08   ,2.4  ,1.3447  ,5
108  ,1.353e+09   ,2.4  ,1.5418  ,5
109  ,1.741e+09   ,2.4  ,1.7389  ,5
110  ,2.776e+09   ,2.4  ,1.936  ,5
111  ,3.857e+09   ,2.2665  ,2.2665  ,5
112  ,2.896e+09   ,1.936  ,2.4  ,5
113  ,1.734e+09   ,1.7389  ,2.4  ,5
114  ,1.316e+09   ,1.5418  ,2.4  ,5
115  ,1.009e+09   ,1.3447  ,2.4  ,5
116  ,7.578e+08   ,1.1476  ,2.4  ,5
117  ,7.333e+08   ,0.95055  ,2.4  ,5
118  ,6.009e+08   ,0.75346  ,2.4  ,5
119  ,4.411e+08   ,0.55637  ,2.4  ,5
120  ,4.047e+08   ,0.35927  ,2.4  ,5
121  ,4.031e+08   ,0.16218  ,2.4  ,5
122  ,3.125e+08   ,-0.034907  ,2.4  ,5
123  ,3.065e+08   ,-0.232  ,2.4  ,5
124  ,1.675e+08   ,-0.42909  ,2.4  ,5
125  ,9.127e+07   ,-0.62618  ,2.4  ,5
126  ,5.117e+07   ,-0.82327  ,2.4  ,5
127  ,1.241e+08   ,-1.0204  ,2.4  ,5
128  ,1.611e+08   ,-1.2175  ,2.4  ,5
129  ,2.283e+08   ,-1.4145  ,2.4  ,5
130  ,2.383e+08   ,-1.6116  ,2.4  ,5
131  ,1.994e+08   ,-1.8087  ,2.4  ,5
132  ,1.696e+08   ,-2.0058  ,2.4  ,5
133  ,9.329e+07   ,-2.2029  ,2.4  ,5
294  ,2.914e+07   ,2.5  ,-2.2029  ,4.9
295  ,5.009e+07   ,2.5  ,-2.0058  ,4.9
296  ,1.042e+08   ,2.5  ,-1.8087  ,4.9
297  ,1.802e+08   ,2.5  ,-1.6116  ,4.9
298  ,2.451e+08   ,2.5  ,-1.4145  ,4.9
299  ,1.762e+08   ,2.5  ,-1.2175  ,4.9
300  ,7.951e+07   ,2.5  ,-1.0204  ,4.9
301  ,3.997e+07   ,2.5  ,-0.82327  ,4.9
302  ,5.170e+07   ,2.5  ,-0.62618  ,4.9
303  ,1.211e+08   ,2.5  ,-0.42909  ,4.9
304  ,2.604e+08   ,2.5  ,-0.232  ,4.9
305  ,3.346e+08   ,2.5  ,-0.034907  ,4.9
306  ,4.277e+08   ,2.5  ,0.16218  ,4.9
307  ,4.648e+08   ,2.5  ,0.35927  ,4.9
308  ,5.469e+08   ,2.5  ,0.55637  ,4.9
309  ,5.945e+08   ,2.5  ,0.75346  ,4.9
310  ,6.497e+08   ,2.5  ,0.95055  ,4.9
311  ,7.902e+08   ,2.5  ,1.1476  ,4.9
312  ,9.700e+08   ,2.5  ,1.3447  ,4.9
313  ,1.361e+09   ,2.5  ,1.5418  ,4.9
314  ,2.065e+09   ,2.5  ,1.7389  ,4.9
315  ,3.012e+09   ,2.5  ,1.936  ,4.9
316  ,5.569e+07   ,2.5  ,-2.4  ,4.7
317  ,8.169e+07   ,2.5  ,-2.4  ,4.5
318  ,6.926e+07   ,2.5  ,-2.4  ,4.3
319  ,6.722e+07   ,2.5  ,-2.4  ,4.1
320  ,4.851e+07   ,2.5  ,-2.4  ,3.9
321  ,3.463e+07   ,2.5  ,-2.4  ,3.7
322  ,3.341e+07   ,2.5  ,-2.4  ,3.5
323  ,2.759e+07   ,2.5  ,-2.4  ,3.3
324  ,2.643e+07   ,2.5  ,-2.4  ,3.1
325  ,3.445e+07   ,2.5  ,-2.4  ,2.9
326  ,5.031e+07   ,2.5  ,-2.4  ,2.7
327  ,5.219e+07   ,2.5  ,-2.4  ,2.5
328  ,5.571e+07   ,2.5  ,-2.4  ,2.3
329  ,6.381e+07   ,2.5  ,-2.4  ,2.1
330  ,7.622e+07   ,2.5  ,-2.4  ,1.9
331  ,6.976e+07   ,2.5  ,-2.4  ,1.7
332  ,4.865e+07   ,2.5  ,-2.4  ,1.5
333  ,2.506e+07   ,2.5  ,-2.4  ,1.3
334  ,1.797e+07   ,2.5  ,-2.4  ,1.1
335  ,1.319e+07   ,2.5  ,-2.4  ,0.9
336  ,1.047e+07   ,2.5  ,-2.4  ,0.7
337  ,9.581e+06   ,2.5  ,-2.4  ,0.5
338  ,9.327e+06   ,2.5  ,-2.4  ,0.3
339  ,4.656e+06   ,2.5  ,-2.2  ,0.1
340  ,1.066e+07   ,2.5  ,-2  ,0.1
341  ,2.332e+07   ,2.5  ,-1.8  ,0.1
342  ,1.373e+07   ,2.5  ,-1.6  ,0.1
343  ,1.092e+07   ,2.5  ,-1.4  ,0.1
344  ,2.743e+07   ,2.5  ,-1.2  ,0.1
345  ,1.638e+07   ,2.5  ,-1  ,0.1
346  ,3.143e+07   ,2.5  ,-0.8  ,0.1
347  ,5.378e+07   ,2.5  ,-0.6  ,0.1
348  ,8.730e+07   ,2.5  ,-0.4  ,0.1
349  ,8.288e+07   ,2.5  ,-0.2  ,0.1
350  ,4.798e+07   ,2.5  ,-1.7664E-15  ,0.1
351  ,4.056e+07   ,2.5  ,0.2  ,0.1
352  ,4.405e+07   ,2.5  ,0.4  ,0.1
353  ,5.256e+07   ,2.5  ,0.6  ,0.1
354  ,6.700e+07   ,2.5  ,0.8  ,0.1
355  ,6.947e+07   ,2.5  ,1  ,0.1
356  ,6.211e+07   ,2.5  ,1.2  ,0.1
357  ,6.904e+07   ,2.5  ,1.4  ,0.1
358  ,6.556e+07   ,2.5  ,1.6  ,0.1
359  ,6.228e+07   ,2.5  ,1.8  ,0.1
360  ,6.214e+07   ,2.5  ,2  ,0.1
361  ,5.658e+07   ,2.5  ,2.2  ,0.1
362  ,3.041e+09   ,2.5  ,2.4  ,4.436
363  ,2.025e+09   ,2.5  ,2.4  ,4.2389
364  ,1.282e+09   ,2.5  ,2.4  ,4.0418
365  ,1.048e+09   ,2.5  ,2.4  ,3.8447
366  ,7.406e+08   ,2.5  ,2.4  ,3.6476
367  ,7.101e+08   ,2.5  ,2.4  ,3.4505
368  ,5.868e+08   ,2.5  ,2.4  ,3.2535
369  ,4.545e+08   ,2.5  ,2.4  ,3.0564
370  ,3.951e+08   ,2.5  ,2.4  ,2.8593
371  ,3.501e+08   ,2.5  ,2.4  ,2.6622
372  ,3.748e+08   ,2.5  ,2.4  ,2.4651
373  ,2.956e+08   ,2.5  ,2.4  ,2.268
374  ,2.076e+08   ,2.5  ,2.4  ,2.0709
375  ,7.338e+07   ,2.5  ,2.4  ,1.8738
376  ,9.565e+07   ,2.5  ,2.4  ,1.6767
377  ,1.118e+08   ,2.5  ,2.4  ,1.4796
378  ,1.559e+08   ,2.5  ,2.4  ,1.2825
379  ,1.993e+08   ,2.5  ,2.4  ,1.0855
380  ,2.215e+08   ,2.5  ,2.4  ,0.88836
381  ,2.159e+08   ,2.5  ,2.4  ,0.69127
382  ,1.922e+08   ,2.5  ,2.4  ,0.49418
383  ,9.972e+07   ,2.5  ,2.4  ,0.29709
384  ,3.658e+09   ,2.5  ,2.2665  ,4.7665
544  ,5.989e+07   ,2.2  ,2.5  ,0.1
545  ,5.108e+07   ,2  ,2.5  ,0.1
546  ,4.926e+07   ,1.8  ,2.5  ,0.1
547  ,4.003e+07   ,1.6  ,2.5  ,0.1
548  ,3.495e+07   ,1.4  ,2.5  ,0.1
549  ,4.167e+07   ,1.2  ,2.5  ,0.1
550  ,5.504e+07   ,1  ,2.5  ,0.1
551  ,7.749e+07   ,0.8  ,2.5  ,0.1
552  ,6.645e+07   ,0.6  ,2.5  ,0.1
553  ,4.908e+07   ,0.4  ,2.5  ,0.1
554  ,5.187e+07   ,0.2  ,2.5  ,0.1
555  ,4.957e+07   ,5.8879E-16  ,2.5  ,0.1
556  ,3.778e+07   ,-0.2  ,2.5  ,0.1
557  ,4.344e+07   ,-0.4  ,2.5  ,0.1
558  ,7.337e+07   ,-0.6  ,2.5  ,0.1
559  ,9.295e+07   ,-0.8  ,2.5  ,0.1
560  ,2.789e+07   ,-1  ,2.5  ,0.1
561  ,2.761e+07   ,-1.2  ,2.5  ,0.1
562  ,2.602e+07   ,-1.4  ,2.5  ,0.1
563  ,2.317e+07   ,-1.6  ,2.5  ,0.1
564  ,1.964e+07   ,-1.8  ,2.5  ,0.1
565  ,1.746e+07   ,-2  ,2.5  ,0.1
566  ,8.154e+06   ,-2.2  ,2.5  ,0.1
567  ,5.236e+07   ,-2.4  ,2.5  ,4.7
568  ,3.535e+07   ,-2.4  ,2.5  ,4.5
569  ,3.645e+07   ,-2.4  ,2.5  ,4.3
570  ,3.561e+07   ,-2.4  ,2.5  ,4.1
571  ,3.700e+07   ,-2.4  ,2.5  ,3.9
572  ,4.124e+07   ,-2.4  ,2.5  ,3.7
573  ,5.753e+07   ,-2.4  ,2.5  ,3.5
574  ,7.641e+07   ,-2.4  ,2.5  ,3.3
575  ,5.218e+07   ,-2.4  ,2.5  ,3.1
576  ,4.335e+07   ,-2.4  ,2.5  ,2.9
577  ,4.758e+07   ,-2.4  ,2.5  ,2.7
578  ,4.928e+07   ,-2.4  ,2.5  ,2.5
579  ,5.644e+07   ,-2.4  ,2.5  ,2.3
580  ,5.630e+07   ,-2.4  ,2.5  ,2.1
581  ,5.642e+07   ,-2.4  ,2.5  ,1.9
582  ,5.758e+07   ,-2.4  ,2.5  ,1.7
583  ,2.556e+07   ,-2.4  ,2.5  ,1.5
584  ,1.752e+07   ,-2.4  ,2.5  ,1.3
585  ,1.786e+07   ,-2.4  ,2.5  ,1.1
586  ,1.491e+07   ,-2.4  ,2.5  ,0.9
587  ,1.162e+07   ,-2.4  ,2.5  ,0.7
588  ,1.119e+07   ,-2.4  ,2.5  ,0.5
589  ,8.798e+06   ,-2.4  ,2.5  ,0.3
590  ,3.133e+09   ,1.936  ,2.5  ,4.9
591  ,1.639e+09   ,1.7389  ,2.5  ,4.9
592  ,1.284e+09   ,1.5418  ,2.5  ,4.9
593  ,1.006e+09   ,1.3447  ,2.5  ,4.9
594  ,7.539e+08   ,1.1476  ,2.5  ,4.9
595  ,6.794e+08   ,0.95055  ,2.5  ,4.9
596  ,6.344e+08   ,0.75346  ,2.5  ,4.9
597  ,4.477e+08   ,0.55637  ,2.5  ,4.9
598  ,4.350e+08   ,0.35927  ,2.5  ,4.9
599  ,3.846e+08   ,0.16218  ,2.5  ,4.9
600  ,3.109e+08   ,-0.034907  ,2.5  ,4.9
601  ,2.715e+08   ,-0.232  ,2.5  ,4.9
602  ,1.922e+08   ,-0.42909  ,2.5  ,4.9
603  ,1.024e+08   ,-0.62618  ,2.5  ,4.9
604  ,7.639e+07   ,-0.82327  ,2.5  ,4.9
605  ,1.184e+08   ,-1.0204  ,2.5  ,4.9
606  ,1.590e+08   ,-1.2175  ,2.5  ,4.9
607  ,2.346e+08   ,-1.4145  ,2.5  ,4.9
608  ,2.375e+08   ,-1.6116  ,2.5  ,4.9
609  ,1.996e+08   ,-1.8087  ,2.5  ,4.9
610  ,1.745e+08   ,-2.0058  ,2.5  ,4.9
611  ,9.554e+07   ,-2.2029  ,2.5  ,4.9
612  ,3.811e+09   ,2.2665  ,2.5  ,4.7665
613  ,2.763e+09   ,2.4  ,2.5  ,4.436
614  ,1.754e+09   ,2.4  ,2.5  ,4.2389
615  ,1.291e+09   ,2.4  ,2.5  ,4.0418
616  ,9.934e+08   ,2.4  ,2.5  ,3.8447
617  ,7.579e+08   ,2.4  ,2.5  ,3.6476
618  ,7.102e+08   ,2.4  ,2.5  ,3.4505
619  ,6.065e+08   ,2.4  ,2.5  ,3.2535
620  ,4.949e+08   ,2.4  ,2.5  ,3.0564
621  ,4.189e+08   ,2.4  ,2.5  ,2.8593
622  ,3.395e+08   ,2.4  ,2.5  ,2.6622
623  ,3.281e+08   ,2.4  ,2.5  ,2.4651
624  ,2.942e+08   ,2.4  ,2.5  ,2.268
625  ,1.985e+08   ,2.4  ,2.5  ,2.0709
626  ,4.823e+07   ,2.4  ,2.5  ,1.8738
627  ,8.522e+07   ,2.4  ,2.5  ,1.6767
628  ,7.801e+07   ,2.4  ,2.5  ,1.4796
629  ,1.555e+08   ,2.4  ,2.5  ,1.2825
630  ,2.111e+08   ,2.4  ,2.5  ,1.0855
631  ,2.428e+08   ,2.4  ,2.5  ,0.88836
632  ,2.221e+08   ,2.4  ,2.5  ,0.69127
633  ,1.951e+08   ,2.4  ,2.5  ,0.49418
634  ,9.925e+07   ,2.4  ,2.5  ,0.29709
796  ,2.307e+07   ,-2.5  ,2.2  ,0.1
797  ,1.270e+07   ,-2.5  ,2  ,0.1
798  ,8.544e+06   ,-2.5  ,1.8  ,0.1
799  ,1.004e+07   ,-2.5  ,1.6  ,0.1
800  ,1.039e+07   ,-2.5  ,1.4  ,0.1
801  ,9.912e+06   ,-2.5  ,1.2  ,0.1
802  ,5.459e+06   ,-2.5  ,1  ,0.1
803  ,2.403e+06   ,-2.5  ,0.8  ,0.1
804  ,2.685e+06   ,-2.5  ,0.6  ,0.1
805  ,2.056e+06   ,-2.5  ,0.4  ,0.1
806  ,1.418e+06   ,-2.5  ,0.2  ,0.1
807  ,1.099e+06   ,-2.5  ,5.8879E-16  ,0.1
808  ,2.519e+06   ,-2.5  ,-0.2  ,0.1
809  ,3.090e+06   ,-2.5  ,-0.4  ,0.1
810  ,9.024e+05   ,-2.5  ,-0.6  ,0.1
811  ,9.419e+05   ,-2.5  ,-0.8  ,0.1
812  ,1.452e+06   ,-2.5  ,-1  ,0.1
813  ,9.786e+05   ,-2.5  ,-1.2  ,0.1
814  ,3.409e+05   ,-2.5  ,-1.4  ,0.1
815  ,6.865e+05   ,-2.5  ,-1.6  ,0.1
816  ,3.060e+05   ,-2.5  ,-1.8  ,0.1
817  ,2.168e+05   ,-2.5  ,-2  ,0.1
818  ,9.702e+04   ,-2.5  ,-2.2  ,0.1
819  ,2.602e+06   ,-2.5  ,-2.4  ,4.7
820  ,2.397e+06   ,-2.5  ,-2.4  ,4.5
821  ,2.198e+06   ,-2.5  ,-2.4  ,4.3
822  ,2.036e+06   ,-2.5  ,-2.4  ,4.1
823  ,1.577e+06   ,-2.5  ,-2.4  ,3.9
824  ,1.946e+06   ,-2.5  ,-2.4  ,3.7
825  ,1.457e+06   ,-2.5  ,-2.4  ,3.5
826  ,4.930e+05   ,-2.5  ,-2.4  ,3.3
827  ,4.586e+05   ,-2.5  ,-2.4  ,3.1
828  ,5.140e+05   ,-2.5  ,-2.4  ,2.9
829  ,4.219e+05   ,-2.5  ,-2.4  ,2.7
830  ,1.651e+05   ,-2.5  ,-2.4  ,2.5
831  ,1.930e+05   ,-2.5  ,-2.4  ,2.3
832  ,1.754e+05   ,-2.5  ,-2.4  ,2.1
833  ,3.145e+05   ,-2.5  ,-2.4  ,1.9
834  ,3.343e+05   ,-2.5  ,-2.4  ,1.7
835  ,1.020e+05   ,-2.5  ,-2.4  ,1.5
836  ,1.704e+05   ,-2.5  ,-2.4  ,1.3
837  ,1.950e+05   ,-2.5  ,-2.4  ,1.1
838  ,1.303e+05   ,-2.5  ,-2.4  ,0.9
839  ,8.351e+04   ,-2.5  ,-2.4  ,0.7
840  ,7.043e+04   ,-2.5  ,-2.4  ,0.5
841  ,8.615e+04   ,-2.5  ,-2.4  ,0.3
842  ,7.184e+07   ,-2.5  ,2.2  ,4.9
843  ,5.993e+07   ,-2.5  ,2  ,4.9
844  ,6.390e+07   ,-2.5  ,1.8  ,4.9
845  ,5.980e+07   ,-2.5  ,1.6  ,4.9
846  ,5.687e+07   ,-2.5  ,1.4  ,4.9
847  ,4.443e+07   ,-2.5  ,1.2  ,4.9
848  ,3.087e+07   ,-2.5  ,1  ,4.9
849  ,3.990e+07   ,-2.5  ,0.8  ,4.9
850  ,3.358e+07   ,-2.5  ,0.6  ,4.9
851  ,3.025e+07   ,-2.5  ,0.4  ,4.9
852  ,2.834e+07   ,-2.5  ,0.2  ,4.9
853  ,3.081e+07   ,-2.5  ,5.8879E-16  ,4.9
854  ,5.081e+07   ,-2.5  ,-0.2  ,4.9
855  ,7.256e+07   ,-2.5  ,-0.4  ,4.9
856  ,3.559e+07   ,-2.5  ,-0.6  ,4.9
857  ,1.698e+07   ,-2.5  ,-0.8  ,4.9
858  ,1.177e+07   ,-2.5  ,-1  ,4.9
859  ,1.587e+07   ,-2.5  ,-1.2  ,4.9
860  ,8.355e+06   ,-2.5  ,-1.4  ,4.9
861  ,8.831e+06   ,-2.5  ,-1.6  ,4.9
862  ,1.125e+07   ,-2.5  ,-1.8  ,4.9
863  ,5.841e+06   ,-2.5  ,-2  ,4.9
864  ,2.525e+06   ,-2.5  ,-2.2  ,4.9
865  ,6.533e+07   ,-2.5  ,2.4  ,4.7
866  ,4.928e+07   ,-2.5  ,2.4  ,4.5
867  ,5.871e+07   ,-2.5  ,2.4  ,4.3
868  ,3.852e+07   ,-2.5  ,2.4  ,4.1
869  ,5.914e+07   ,-2.5  ,2.4  ,3.9
870  ,5.543e+07   ,-2.5  ,2.4  ,3.7
871  ,6.537e+07   ,-2.5  ,2.4  ,3.5
872  ,6.767e+07   ,-2.5  ,2.4  ,3.3
873  ,4.502e+07   ,-2.5  ,2.4  ,3.1
874  ,4.646e+07   ,-2.5  ,2.4  ,2.9
875  ,3.846e+07   ,-2.5  ,2.4  ,2.7
876  ,3.936e+07   ,-2.5  ,2.4  ,2.5
877  ,3.695e+07   ,-2.5  ,2.4  ,2.3
878  ,3.181e+07   ,-2.5  ,2.4  ,2.1
879  ,2.698e+07   ,-2.5  ,2.4  ,1.9
880  ,3.599e+07   ,-2.5  ,2.4  ,1.7
881  ,2.584e+07   ,-2.5  ,2.4  ,1.5
882  ,1.447e+07   ,-2.5  ,2.4  ,1.3
883  ,9.269e+06   ,-2.5  ,2.4  ,1.1
884  ,8.872e+06   ,-2.5  ,2.4  ,0.9
885  ,8.058e+06   ,-2.5  ,2.4  ,0.7
886  ,1.279e+07   ,-2.5  ,2.4  ,0.5
887  ,1.397e+07   ,-2.5  ,2.4  ,0.3
1044  ,1.262e+05   ,-2.3  ,-2.5  ,0.44697
1045  ,7.807e+04   ,-2.3  ,-2.5  ,0.68705
1046  ,1.056e+05   ,-2.3  ,-2.5  ,0.92554
1047  ,1.891e+05   ,-2.3  ,-2.5  ,1.1682
1048  ,1.867e+05   ,-2.3  ,-2.5  ,1.4148
1049  ,5.375e+04   ,-2.3  ,-2.5  ,1.6581
1050  ,1.700e+05   ,-2.3  ,-2.5  ,1.8967
1051  ,2.249e+05   ,-2.3  ,-2.5  ,2.1357
1052  ,3.526e+05   ,-2.3  ,-2.5  ,2.3794
1053  ,2.228e+05   ,-2.3  ,-2.5  ,2.6206
1054  ,1.459e+05   ,-2.3  ,-2.5  ,2.8643
1055  ,5.633e+05   ,-2.3  ,-2.5  ,3.1033
1056  ,5.794e+05   ,-2.3  ,-2.5  ,3.342
1057  ,1.000e+06   ,-2.3  ,-2.5  ,3.5852
1058  ,1.556e+06   ,-2.3  ,-2.5  ,3.8318
1059  ,1.805e+06   ,-2.3  ,-2.5  ,4.0745
1060  ,8.307e+05   ,-2.3  ,-2.5  ,4.3129
1061  ,2.196e+06   ,-2.3  ,-2.5  ,4.553
1062  ,1.228e+07   ,-2.053  ,-2.5  ,4.8
1063  ,2.083e+07   ,-1.8129  ,-2.5  ,4.8
1064  ,1.865e+07   ,-1.5745  ,-2.5  ,4.8
1065  ,1.350e+07   ,-1.3318  ,-2.5  ,4.8
1066  ,1.726e+07   ,-1.0852  ,-2.5  ,4.8
1067  ,2.966e+07   ,-0.84195  ,-2.5  ,4.8
1068  ,2.893e+07   ,-0.60329  ,-2.5  ,4.8
1069  ,3.527e+07   ,-0.3643  ,-2.5  ,4.8
1070  ,4.901e+07   ,-0.12055  ,-2.5  ,4.8
1071  ,5.002e+07   ,0.12056  ,-2.5  ,4.8
1072  ,5.330e+07   ,0.3643  ,-2.5  ,4.8
1073  ,6.206e+07   ,0.6033  ,-2.5  ,4.8
1074  ,4.332e+07   ,0.84195  ,-2.5  ,4.8
1075  ,1.997e+07   ,1.0852  ,-2.5  ,4.8
1076  ,3.016e+07   ,1.3318  ,-2.5  ,4.8
1077  ,3.585e+07   ,1.5745  ,-2.5  ,4.8
1078  ,6.402e+07   ,1.8129  ,-2.5  ,4.8
1079  ,4.918e+07   ,2.053  ,-2.5  ,4.8
1080  ,4.780e+07   ,2.3  ,-2.5  ,4.553
1081  ,6.077e+07   ,2.3  ,-2.5  ,4.3129
1082  ,3.684e+07   ,2.3  ,-2.5  ,4.0745
1083  ,3.828e+07   ,2.3  ,-2.5  ,3.8318
1084  ,2.355e+07   ,2.3  ,-2.5  ,3.5852
1085  ,3.308e+07   ,2.3  ,-2.5  ,3.3419
1086  ,4.944e+07   ,2.3  ,-2.5  ,3.1033
1087  ,4.835e+07   ,2.3  ,-2.5  ,2.8643
1088  ,4.633e+07   ,2.3  ,-2.5  ,2.6206
1089  ,4.719e+07   ,2.3  ,-2.5  ,2.3794
1090  ,3.482e+07   ,2.3  ,-2.5  ,2.1357
1091  ,2.791e+07   ,2.3  ,-2.5  ,1.8967
1092  ,2.295e+07   ,2.3  ,-2.5  ,1.658
1093  ,1.702e+07   ,2.3  ,-2.5  ,1.4148
1094  ,1.647e+07   ,2.3  ,-2.5  ,1.1682
1095  ,1.574e+07   ,2.3  ,-2.5  ,0.92554
1096  ,1.208e+07   ,2.3  ,-2.5  ,0.68705
1097  ,7.446e+06   ,2.3  ,-2.5  ,0.44697
1098  ,1.987e+05   ,-2.053  ,-2.5  ,0.2
1099  ,2.812e+05   ,-1.8129  ,-2.5  ,0.2
1100  ,5.796e+05   ,-1.5745  ,-2.5  ,0.2
1101  ,9.030e+05   ,-1.3318  ,-2.5  ,0.2
1102  ,5.767e+05   ,-1.0852  ,-2.5  ,0.2
1103  ,9.104e+05   ,-0.84195  ,-2.5  ,0.2
1104  ,7.426e+05   ,-0.60329  ,-2.5  ,0.2
1105  ,4.020e+05   ,-0.3643  ,-2.5  ,0.2
1106  ,2.963e+05   ,-0.12055  ,-2.5  ,0.2
1107  ,5.215e+05   ,0.12056  ,-2.5  ,0.2
1108  ,5.875e+05   ,0.3643  ,-2.5  ,0.2
1109  ,8.491e+05   ,0.6033  ,-2.5  ,0.2
1110  ,1.612e+06   ,0.84195  ,-2.5  ,0.2
1111  ,1.724e+06   ,1.0852  ,-2.5  ,0.2
1112  ,1.137e+06   ,1.3318  ,-2.5  ,0.2
1113  ,2.006e+06   ,1.5745  ,-2.5  ,0.2
1114  ,1.865e+06   ,1.8129  ,-2.5  ,0.2
1115  ,3.466e+06   ,2.053  ,-2.5  ,0.2
1116  ,9.326e+06   ,-2.2  ,-2.5  ,4.9
1117  ,1.386e+07   ,-2  ,-2.5  ,4.9
1118  ,1.888e+07   ,-1.8  ,-2.5  ,4.9
1119  ,1.395e+07   ,-1.6  ,-2.5  ,4.9
1120  ,1.656e+07   ,-1.4  ,-2.5  ,4.9
1121  ,2.012e+07   ,-1.2  ,-2.5  ,4.9
1122  ,3.346e+07   ,-1  ,-2.5  ,4.9
1123  ,4.477e+07   ,-0.8  ,-2.5  ,4.9
1124  ,3.735e+07   ,-0.6  ,-2.5  ,4.9
1125  ,3.369e+07   ,-0.4  ,-2.5  ,4.9
1126  ,4.540e+07   ,-0.2  ,-2.5  ,4.9
1127  ,5.640e+07   ,-1.7664E-15  ,-2.5  ,4.9
1128  ,5.326e+07   ,0.2  ,-2.5  ,4.9
1129  ,5.234e+07   ,0.4  ,-2.5  ,4.9
1130  ,4.544e+07   ,0.6  ,-2.5  ,4.9
1131  ,4.527e+07   ,0.8  ,-2.5  ,4.9
1132  ,3.049e+07   ,1  ,-2.5  ,4.9
1133  ,3.439e+07   ,1.2  ,-2.5  ,4.9
1134  ,4.452e+07   ,1.4  ,-2.5  ,4.9
1135  ,5.823e+07   ,1.6  ,-2.5  ,4.9
1136  ,4.785e+07   ,1.8  ,-2.5  ,4.9
1137  ,4.826e+07   ,2  ,-2.5  ,4.9
1138  ,5.632e+07   ,2.2  ,-2.5  ,4.9
1139  ,4.454e+06   ,-2.4  ,-2.5  ,4.7
1140  ,2.191e+06   ,-2.4  ,-2.5  ,4.5
1141  ,1.626e+06   ,-2.4  ,-2.5  ,4.3
1142  ,2.263e+06   ,-2.4  ,-2.5  ,4.1
1143  ,1.926e+06   ,-2.4  ,-2.5  ,3.9
1144  ,1.693e+06   ,-2.4  ,-2.5  ,3.7
1145  ,9.937e+05   ,-2.4  ,-2.5  ,3.5
1146  ,4.098e+05   ,-2.4  ,-2.5  ,3.3
1147  ,3.755e+05   ,-2.4  ,-2.5  ,3.1
1148  ,3.402e+05   ,-2.4  ,-2.5  ,2.9
1149  ,2.928e+05   ,-2.4  ,-2.5  ,2.7
1150  ,1.757e+05   ,-2.4  ,-2.5  ,2.5
1151  ,2.515e+05   ,-2.4  ,-2.5  ,2.3
1152  ,1.732e+05   ,-2.4  ,-2.5  ,2.1
1153  ,1.933e+05   ,-2.4  ,-2.5  ,1.9
1154  ,1.825e+05   ,-2.4  ,-2.5  ,1.7
1155  ,8.536e+04   ,-2.4  ,-2.5  ,1.5
1156  ,1.539e+05   ,-2.4  ,-2.5  ,1.3
1157  ,1.447e+05   ,-2.4  ,-2.5  ,1.1
1158  ,9.213e+04   ,-2.4  ,-2.5  ,0.9
1159  ,7.375e+04   ,-2.4  ,-2.5  ,0.7
1160  ,7.402e+04   ,-2.4  ,-2.5  ,0.5
1161  ,1.302e+05   ,-2.4  ,-2.5  ,0.3
1162  ,9.682e+04   ,-2.2  ,-2.5  ,0.1
1163  ,3.001e+05   ,-2  ,-2.5  ,0.1
1164  ,2.613e+05   ,-1.8  ,-2.5  ,0.1
1165  ,3.826e+05   ,-1.6  ,-2.5  ,0.1
1166  ,7.684e+05   ,-1.4  ,-2.5  ,0.1
1167  ,7.934e+05   ,-1.2  ,-2.5  ,0.1
1168  ,9.587e+05   ,-1  ,-2.5  ,0.1
1169  ,9.330e+05   ,-0.8  ,-2.5  ,0.1
1170  ,5.478e+05   ,-0.6  ,-2.5  ,0.1
1171  ,5.025e+05   ,-0.4  ,-2.5  ,0.1
1172  ,4.663e+05   ,-0.2  ,-2.5  ,0.1
1173  ,5.171e+05   ,-1.7664E-15  ,-2.5  ,0.1
1174  ,6.498e+05   ,0.2  ,-2.5  ,0.1
1175  ,8.179e+05   ,0.4  ,-2.5  ,0.1
1176  ,9.183e+05   ,0.6  ,-2.5  ,0.1
1177  ,1.499e+06   ,0.8  ,-2.5  ,0.1
1178  ,1.877e+06   ,1  ,-2.5  ,0.1
1179  ,1.968e+06   ,1.2  ,-2.5  ,0.1
1180  ,2.129e+06   ,1.4  ,-2.5  ,0.1
1181  ,2.498e+06   ,1.6  ,-2.5  ,0.1
1182  ,2.323e+06   ,1.8  ,-2.5  ,0.1
1183  ,3.786e+06   ,2  ,-2.5  ,0.1
1184  ,2.616e+06   ,2.2  ,-2.5  ,0.1
1185  ,5.511e+07   ,2.4  ,-2.5  ,4.7
1186  ,4.304e+07   ,2.4  ,-2.5  ,4.5
1187  ,4.874e+07   ,2.4  ,-2.5  ,4.3
1188  ,4.859e+07   ,2.4  ,-2.5  ,4.1
1189  ,4.314e+07   ,2.4  ,-2.5  ,3.9
1190  ,3.400e+07   ,2.4  ,-2.5  ,3.7
1191  ,2.396e+07   ,2.4  ,-2.5  ,3.5
1192  ,2.828e+07   ,2.4  ,-2.5  ,3.3
1193  ,3.563e+07   ,2.4  ,-2.5  ,3.1
1194  ,4.855e+07   ,2.4  ,-2.5  ,2.9
1195  ,4.661e+07   ,2.4  ,-2.5  ,2.7
1196  ,4.911e+07   ,2.4  ,-2.5  ,2.5
1197  ,4.169e+07   ,2.4  ,-2.5  ,2.3
1198  ,3.380e+07   ,2.4  ,-2.5  ,2.1
1199  ,3.957e+07   ,2.4  ,-2.5  ,1.9
1200  ,4.455e+07   ,2.4  ,-2.5  ,1.7
1201  ,2.908e+07   ,2.4  ,-2.5  ,1.5
1202  ,1.648e+07   ,2.4  ,-2.5  ,1.3
1203  ,1.715e+07   ,2.4  ,-2.5  ,1.1
1204  ,1.402e+07   ,2.4  ,-2.5  ,0.9
1205  ,8.905e+06   ,2.4  ,-2.5  ,0.7
1206  ,8.941e+06   ,2.4  ,-2.5  ,0.5
1207  ,5.734e+06   ,2.4  ,-2.5  ,0.3
1208  ,5.331e+06   ,2.4  ,-2.2  ,0
1209  ,9.807e+06   ,2.4  ,-2  ,0
1210  ,1.160e+07   ,2.4  ,-1.8  ,0
1211  ,6.300e+06   ,2.4  ,-1.6  ,0
1212  ,9.700e+06   ,2.4  ,-1.4  ,0
1213  ,1.445e+07   ,2.4  ,-1.2  ,0
1214  ,1.963e+07   ,2.4  ,-1  ,0
1215  ,2.606e+07   ,2.4  ,-0.8  ,0
1216  ,3.481e+07   ,2.4  ,-0.6  ,0
1217  ,6.255e+07   ,2.4  ,-0.4  ,0
1218  ,4.344e+07   ,2.4  ,-0.2  ,0
1219  ,3.921e+07   ,2.4  ,-1.7664E-15  ,0
1220  ,3.684e+07   ,2.4  ,0.2  ,0
1221  ,4.439e+07   ,2.4  ,0.4  ,0
1222  ,5.050e+07   ,2.4  ,0.6  ,0
1223  ,5.729e+07   ,2.4  ,0.8  ,0
1224  ,6.763e+07   ,2.4  ,1  ,0
1225  ,6.403e+07   ,2.4  ,1.2  ,0
1226  ,6.365e+07   ,2.4  ,1.4  ,0
1227  ,5.792e+07   ,2.4  ,1.6  ,0
1228  ,4.396e+07   ,2.4  ,1.8  ,0
1229  ,4.808e+07   ,2.4  ,2  ,0
1230  ,8.191e+07   ,2.4  ,2.2  ,0
1231  ,1.069e+05   ,-2.2  ,-2.4  ,0
1232  ,2.766e+05   ,-2  ,-2.4  ,0
1233  ,2.422e+05   ,-1.8  ,-2.4  ,0
1234  ,5.796e+05   ,-1.6  ,-2.4  ,0
1235  ,8.159e+05   ,-1.4  ,-2.4  ,0
1236  ,9.546e+05   ,-1.2  ,-2.4  ,0
1237  ,1.355e+06   ,-1  ,-2.4  ,0
1238  ,1.200e+06   ,-0.8  ,-2.4  ,0
1239  ,7.702e+05   ,-0.6  ,-2.4  ,0
1240  ,6.287e+05   ,-0.4  ,-2.4  ,0
1241  ,7.137e+05   ,-0.2  ,-2.4  ,0
1242  ,6.611e+05   ,5.8879E-16  ,-2.4  ,0
1243  ,8.276e+05   ,0.2  ,-2.4  ,0
1244  ,1.175e+06   ,0.4  ,-2.4  ,0
1245  ,1.671e+06   ,0.6  ,-2.4  ,0
1246  ,2.091e+06   ,0.8  ,-2.4  ,0
1247  ,2.215e+06   ,1  ,-2.4  ,0
1248  ,2.321e+06   ,1.2  ,-2.4  ,0
1249  ,2.709e+06   ,1.4  ,-2.4  ,0
1250  ,3.336e+06   ,1.6  ,-2.4  ,0
1251  ,3.817e+06   ,1.8  ,-2.4  ,0
1252  ,4.650e+06   ,2  ,-2.4  ,0
1253  ,4.114e+06   ,2.2  ,-2.4  ,0
1254  ,2.372e+07   ,-2.4  ,2.2  ,0
1255  ,1.113e+07   ,-2.4  ,2  ,0
1256  ,8.452e+06   ,-2.4  ,1.8  ,0
1257  ,8.722e+06   ,-2.4  ,1.6  ,0
1258  ,9.318e+06   ,-2.4  ,1.4  ,0
1259  ,9.347e+06   ,-2.4  ,1.2  ,0
1260  ,6.757e+06   ,-2.4  ,1  ,0
1261  ,1.803e+06   ,-2.4  ,0.8  ,0
1262  ,2.728e+06   ,-2.4  ,0.6  ,0
1263  ,1.857e+06   ,-2.4  ,0.4  ,0
1264  ,1.366e+06   ,-2.4  ,0.2  ,0
1265  ,3.224e+05   ,-2.4  ,5.8879E-16  ,0
1266  ,2.378e+06   ,-2.4  ,-0.2  ,0
1267  ,4.312e+06   ,-2.4  ,-0.4  ,0
1268  ,3.685e+05   ,-2.4  ,-0.6  ,0
1269  ,1.714e+06   ,-2.4  ,-0.8  ,0
1270  ,1.833e+06   ,-2.4  ,-1  ,0
1271  ,9.338e+05   ,-2.4  ,-1.2  ,0
1272  ,6.623e+05   ,-2.4  ,-1.4  ,0
1273  ,7.955e+05   ,-2.4  ,-1.6  ,0
1274  ,1.266e+05   ,-2.4  ,-1.8  ,0
1275  ,2.840e+05   ,-2.4  ,-2  ,0
1276  ,8.754e+04   ,-2.4  ,-2.2  ,0
1277  ,7.389e+07   ,2.2  ,2.4  ,0
1278  ,6.787e+07   ,2  ,2.4  ,0
1279  ,7.318e+07   ,1.8  ,2.4  ,0
1280  ,4.861e+07   ,1.6  ,2.4  ,0
1281  ,4.119e+07   ,1.4  ,2.4  ,0
1282  ,5.628e+07   ,1.2  ,2.4  ,0
1283  ,6.117e+07   ,1  ,2.4  ,0
1284  ,7.653e+07   ,0.8  ,2.4  ,0
1285  ,6.435e+07   ,0.6  ,2.4  ,0
1286  ,4.847e+07   ,0.4  ,2.4  ,0
1287  ,3.082e+07   ,0.2  ,2.4  ,0
1288  ,3.787e+07   ,5.8879E-16  ,2.4  ,0
1289  ,2.951e+07   ,-0.2  ,2.4  ,0
1290  ,2.761e+07   ,-0.4  ,2.4  ,0
1291  ,3.693e+07   ,-0.6  ,2.4  ,0
1292  ,6.282e+07   ,-0.8  ,2.4  ,0
1293  ,4.186e+07   ,-1  ,2.4  ,0
1294  ,1.934e+07   ,-1.2  ,2.4  ,0
1295  ,1.532e+07   ,-1.4  ,2.4  ,0
1296  ,1.478e+07   ,-1.6  ,2.4  ,0
1297  ,1.428e+07   ,-1.8  ,2.4  ,0
1298  ,1.684e+07   ,-2  ,2.4  ,0
1299  ,1.354e+07   ,-2.2  ,2.4  ,0
1460  ,6.225e+09   ,2.3243  ,2.3243  ,4.9577
1461  ,6.126e+09   ,2.4577  ,2.3243  ,4.8243
1462  ,5.131e+09   ,2.3243  ,2.4577  ,4.8243
1463  ,1.045e+07   ,-2.3  ,-2.1759  ,4.8
1464  ,1.364e+07   ,-2.3  ,-1.7631  ,4.8
1465  ,2.836e+07   ,-2.3  ,-1.1827  ,4.8
1466  ,9.998e+07   ,-2.3  ,-0.34986  ,4.8
1467  ,1.205e+08   ,-2.3  ,0.80545  ,4.8
1468  ,2.749e+08   ,-0.81337  ,2.3  ,4.8
1469  ,8.898e+08   ,0.67326  ,2.3  ,4.8
1470  ,7.294e+07   ,2.3  ,-2.1824  ,4.8
1471  ,1.755e+08   ,2.3  ,-1.7784  ,4.8
1472  ,1.354e+08   ,2.3  ,-1.2138  ,4.8
1473  ,3.935e+08   ,2.3  ,-0.40752  ,4.8
1474  ,9.020e+08   ,2.3  ,0.70532  ,4.8
1516  ,2.736e+08   ,2.3  ,2.3  ,1.6866
1517  ,8.783e+08   ,2.3  ,2.3  ,3.1733
1518  ,1.267e+07   ,2.3  ,-2.1759  ,0.2
1519  ,1.159e+07   ,2.3  ,-1.7631  ,0.2
1520  ,2.104e+07   ,2.3  ,-1.1827  ,0.2
1521  ,9.036e+07   ,2.3  ,-0.34986  ,0.2
1522  ,1.106e+08   ,2.3  ,0.80545  ,0.2
1564  ,6.130e+07   ,-0.76667  ,2.3  ,0.2
1565  ,1.213e+08   ,0.76667  ,2.3  ,0.2
1566  ,5.012e+07   ,-2.3  ,2.3  ,1.7333
1567  ,1.181e+08   ,-2.3  ,2.3  ,3.2667
1574  ,2.040e+05   ,-2.3  ,-2.1759  ,0.2
1575  ,5.172e+05   ,-2.3  ,-1.7631  ,0.2
1576  ,9.016e+05   ,-2.3  ,-1.1827  ,0.2
1577  ,1.680e+06   ,-2.3  ,-0.34986  ,0.2
1578  ,9.886e+06   ,-2.3  ,0.80545  ,0.2
1777  ,1.369e+08   ,-0.52764  ,2.5  ,4.9
1801  ,7.486e+06   ,-2.3  ,1.5527  ,0.2
1825  ,3.056e+07   ,-1.5333  ,2.3  ,0.2
1841  ,3.603e+08   ,0.063638  ,2.5  ,4.9
1876  ,3.228e+07   ,-0.5  ,2.4  ,0
1894  ,2.125e+08   ,2.3  ,1.5527  ,0.2
1907  ,5.345e+07   ,2.1  ,2.5  ,0.1
1928  ,6.441e+07   ,1.9  ,2.4  ,0
1974  ,6.453e+07   ,2.4  ,1.1  ,0
1981  ,2.069e+08   ,2.4  ,2.5  ,0.59273
1987  ,6.154e+07   ,-2.5  ,2.4  ,4
2004  ,4.445e+07   ,-2.4  ,2.5  ,4.6
2009  ,5.979e+07   ,2.4  ,1.3  ,0
2020  ,6.475e+07   ,2.5  ,1.1  ,0.1
2035  ,1.116e+06   ,-2.3  ,-0.76628  ,0.2
2070  ,1.561e+09   ,1.6404  ,2.4  ,5
2081  ,1.146e+08   ,2.4  ,2.5  ,1.9724
2095  ,2.368e+08   ,2.4  ,2.5  ,0.78982
2138  ,1.348e+06   ,-2.4  ,-0.1  ,0
2146  ,8.256e+07   ,-0.92182  ,2.4  ,5
2174  ,1.863e+08   ,2.4  ,2.5  ,1.184
2190  ,2.187e+08   ,2.5  ,2.4  ,0.98691
2203  ,2.978e+08   ,2.5  ,-0.13345  ,4.9
2232  ,7.276e+08   ,2.3  ,0.1489  ,4.8
2242  ,4.512e+08   ,2.4  ,2.5  ,2.9578
2293  ,2.297e+06   ,-2.5  ,0.5  ,0.1
2311  ,7.504e+08   ,2.3  ,2.3  ,2.4299
2313  ,2.213e+08   ,2.5  ,2.4  ,0.78982
2329  ,2.614e+08   ,2.4  ,2.5  ,2.1695
2355  ,3.570e+07   ,-2.4  ,2.5  ,4.4
2380  ,5.450e+05   ,-2.5  ,-1.5  ,0.1
2383  ,4.350e+08   ,0.45782  ,2.5  ,4.9
2408  ,1.169e+08   ,2.3  ,-1.4961  ,4.8
2445  ,2.231e+08   ,2.5  ,-1.5131  ,4.9
2484  ,1.610e+05   ,-2.5  ,-2.4  ,1.6
2495  ,5.581e+07   ,-2.4  ,1.7  ,5
2508  ,3.708e+07   ,2.4  ,0.3  ,0
2514  ,1.213e+08   ,2.3  ,0.2278  ,0.2
2570  ,6.005e+07   ,-2.4  ,1.5  ,5
2580  ,1.532e+09   ,1.6404  ,2.5  ,4.9
2603  ,1.237e+08   ,-1.1189  ,2.5  ,4.9
2695  ,1.722e+08   ,2.3  ,2.3  ,0.94331
2705  ,1.251e+08   ,2.4  ,2.5  ,1.3811
2714  ,5.147e+08   ,2.5  ,0.45782  ,4.9
2734  ,2.044e+07   ,2.4  ,-0.9  ,0
2775  ,6.155e+07   ,2.5  ,-0.1  ,0.1
2779  ,3.945e+07   ,2.4  ,-0.1  ,0
2801  ,1.831e+09   ,1.4166  ,2.3  ,4.8
2814  ,1.103e+09   ,1.4433  ,2.5  ,4.9
2863  ,9.883e+06   ,-2.4  ,2.5  ,0.6
2884  ,1.320e+07   ,-2.4  ,2.5  ,0.8
2886  ,1.742e+07   ,-2.4  ,2.5  ,1.2
2967  ,4.641e+07   ,2.4  ,1.7  ,0
2973  ,6.697e+07   ,2.5  ,1.5  ,0.1
2987  ,4.443e+07   ,-0.3  ,2.5  ,0.1
3008  ,2.973e+07   ,-2.3  ,2.3  ,0.96667
3012  ,3.904e+07   ,-2.5  ,2.4  ,2.6
3021  ,4.105e+07   ,-2.5  ,2.4  ,2.8
3025  ,4.193e+07   ,-2.5  ,2.4  ,2.4
3030  ,5.038e+07   ,-2.4  ,2.5  ,2.4
3033  ,5.128e+07   ,-2.4  ,2.5  ,2.2
3047  ,3.141e+08   ,2.4  ,2.5  ,2.3665
3052  ,3.583e+08   ,2.5  ,2.4  ,2.5636
3061  ,3.296e+08   ,2.4  ,2.5  ,2.5636
3081  ,6.213e+07   ,-2.4  ,1.3  ,5
3088  ,1.878e+08   ,-1.9073  ,2.4  ,5
3099  ,4.836e+07   ,-2.4  ,1.9  ,5
3107  ,3.887e+07   ,-2.4  ,2.5  ,3.8
3139  ,2.444e+08   ,-1.5131  ,2.4  ,5
3145  ,2.458e+08   ,-1.5131  ,2.5  ,4.9
3148  ,2.193e+08   ,-1.7102  ,2.5  ,4.9
3168  ,8.734e+06   ,-2.4  ,1.5  ,0
3188  ,1.488e+05   ,-2.5  ,-2.4  ,1
3202  ,3.893e+08   ,0.26073  ,2.5  ,4.9
3212  ,1.605e+09   ,2.5  ,1.6404  ,4.9
3247  ,2.376e+09   ,2.5  ,1.8375  ,4.9
3265  ,1.915e+09   ,2.3  ,1.4326  ,4.8
3271  ,4.572e+09   ,2.2299  ,2.2299  ,4.8
3284  ,1.125e+09   ,2.4  ,1.4433  ,5
3291  ,1.120e+09   ,2.5  ,1.4433  ,4.9
3296  ,6.140e+07   ,-2.3  ,-0.76628  ,4.8
3303  ,2.520e+07   ,-2.4  ,-0.9  ,5
3311  ,2.649e+07   ,-2.4  ,-0.7  ,5
3315  ,5.033e+07   ,1.9  ,2.5  ,0.1
3336  ,1.521e+06   ,-2.4  ,0.3  ,0
3340  ,1.120e+06   ,-2.5  ,0.1  ,0.1
3344  ,7.088e+05   ,-2.4  ,0.1  ,0
3356  ,2.607e+07   ,-0.3  ,2.4  ,0
3361  ,2.573e+08   ,-0.33054  ,2.5  ,4.9
3364  ,2.779e+08   ,-0.13345  ,2.5  ,4.9
3383  ,7.417e+08   ,2.4  ,2.5  ,3.5491
3402  ,3.436e+09   ,2.4  ,2.5  ,4.5345
3421  ,2.031e+08   ,-1.316  ,2.5  ,4.9
3439  ,1.102e+09   ,2.5  ,2.4  ,3.9433
3447  ,1.151e+09   ,2.4  ,2.5  ,3.9433
3451  ,8.283e+08   ,2.4  ,2.5  ,3.7462
3468  ,1.089e+09   ,1.4433  ,2.4  ,5
3480  ,7.365e+08   ,1.0491  ,2.4  ,5
3519  ,6.052e+07   ,1.5  ,2.4  ,0
3527  ,1.463e+07   ,2.3  ,-1.4729  ,0.2
3550  ,1.379e+07   ,-1.7  ,2.4  ,0
3554  ,2.175e+07   ,-1.7  ,2.5  ,0.1
3558  ,1.308e+07   ,-1.5  ,2.4  ,0
3562  ,2.421e+07   ,-1.5  ,2.5  ,0.1
3574  ,5.912e+07   ,-2.4  ,2.1  ,5
3581  ,9.885e+06   ,-2.5  ,1.7  ,0.1
3583  ,8.890e+06   ,-2.5  ,1.9  ,0.1
3584  ,1.836e+08   ,-1.9073  ,2.5  ,4.9
3591  ,3.079e+07   ,2.5  ,0.3  ,0.1
3595  ,4.450e+07   ,2.5  ,0.1  ,0.1
3603  ,8.728e+09   ,2.4577  ,2.391  ,4.7576
3663  ,3.249e+05   ,-1.933  ,-2.5  ,0.2
3669  ,7.677e+04   ,-2.1765  ,-2.5  ,0.2
3672  ,1.574e+05   ,-2.3  ,-2.3379  ,0.2
3682  ,2.983e+05   ,-1.9  ,-2.4  ,0
3700  ,3.955e+07   ,2.3  ,-2.5  ,2.7424
3712  ,1.019e+07   ,-2.1  ,-2.5  ,4.9
3715  ,1.582e+07   ,-1.9  ,-2.5  ,4.9
3740  ,2.574e+07   ,-1.3  ,-2.4  ,5
3746  ,1.271e+07   ,-1.2085  ,-2.5  ,4.8
3755  ,1.634e+07   ,-1.5  ,-2.4  ,5
3760  ,1.988e+07   ,-1.7  ,-2.5  ,4.9
3786  ,7.617e+07   ,2.4  ,2.5  ,1.5782
3813  ,4.097e+08   ,0.26073  ,2.4  ,5
3858  ,6.121e+07   ,-0.9  ,-2.4  ,5
3863  ,3.083e+07   ,-2.5  ,0.9  ,4.9
3875  ,1.630e+07   ,-1.9  ,-2.4  ,5
3885  ,2.965e+07   ,2.4  ,-0.72473  ,5
3910  ,5.665e+05   ,-2.4  ,-2.5  ,3.4
3959  ,1.586e+09   ,2.5  ,2.4  ,4.1404
3969  ,7.263e+08   ,2.5  ,1.0491  ,4.9
3992  ,9.731e+09   ,2.391  ,2.2576  ,4.9577
3993  ,8.675e+09   ,2.4577  ,2.2576  ,4.891
4016  ,6.142e+07   ,-2.3015  ,2.5  ,4.9
4018  ,4.961e+07   ,-2.4  ,2.5  ,4.8
4021  ,8.724e+08   ,1.2462  ,2.4  ,5
4042  ,1.591e+07   ,2.4  ,-1.1  ,0
4046  ,5.039e+07   ,-0.9  ,2.4  ,0
4055  ,5.483e+07   ,1.7  ,-2.5  ,4.9
4087  ,7.323e+07   ,1.7  ,2.4  ,0
4114  ,2.011e+08   ,2.5  ,-0.33054  ,4.9
4120  ,4.329e+07   ,2.4  ,-2.5  ,1.8
4125  ,2.302e+08   ,2.4  ,2.5  ,0.98691
4144  ,2.236e+09   ,2.4  ,2.5  ,4.3375
4161  ,4.470e+07   ,-2.4  ,0.3  ,5
4201  ,2.672e+06   ,1.933  ,-2.5  ,0.2
4225  ,1.329e+05   ,-2.3  ,-2.4  ,0
4230  ,1.078e+05   ,-2.3  ,-2.5  ,0.56701
4269  ,4.222e+07   ,-0.9  ,-2.5  ,4.9
4277  ,3.832e+07   ,-1.1  ,-2.4  ,5
4288  ,6.334e+08   ,-0.070055  ,2.3  ,4.8
4328  ,2.102e+06   ,-2.5  ,-2.4  ,4.2
4336  ,2.274e+06   ,-2.5  ,-2.4  ,4.4
4342  ,2.417e+06   ,-2.5  ,-2.4  ,4.6
4348  ,2.701e+06   ,-2.4  ,-2.4707  ,4.9707
4352  ,7.083e+06   ,-2.3  ,-2.5  ,4.9
4354  ,6.912e+06   ,-2.1765  ,-2.5  ,4.8
4355  ,4.381e+06   ,-2.3  ,-2.3379  ,4.8
4362  ,2.038e+08   ,2.5  ,2.4  ,0.59273
4364  ,5.281e+07   ,2.5  ,-2.4  ,2.4
4366  ,5.852e+07   ,2.5  ,-2.4  ,2.2
4372  ,4.110e+07   ,2.4  ,-2.5  ,2.2
4385  ,1.207e+05   ,-2.5  ,-1.9  ,0.1
4399  ,1.858e+07   ,-2.5  ,2.1  ,0.1
4407  ,1.055e+06   ,-0.7  ,-2.4  ,0
4436  ,1.668e+06   ,-2.5  ,-0.1  ,0.1
4462  ,1.544e+08   ,-2.3  ,2.3  ,4.0333
4491  ,7.587e+07   ,2.5  ,-0.52764  ,4.9
4494  ,3.139e+07   ,2.5  ,-2.4  ,1.4
4503  ,1.959e+07   ,2.4  ,-2.5  ,1.4
4508  ,1.644e+07   ,2.4  ,-2.5  ,1.2
4515  ,7.579e+07   ,2.5  ,-2.4  ,1.8
4517  ,3.383e+07   ,2.4  ,-2.5  ,1.6
4522  ,1.831e+06   ,0.7  ,-2.4  ,0
4538  ,1.434e+08   ,-1.1189  ,2.4  ,5
4546  ,1.413e+09   ,2.4  ,2.5  ,4.1404
4559  ,3.444e+06   ,1.7  ,-2.4  ,0
4590  ,1.307e+06   ,0.5  ,-2.4  ,0
4631  ,4.482e+07   ,2.4  ,-2.5  ,2.6
4634  ,3.703e+07   ,2.5  ,-2.4  ,2.8
4657  ,2.574e+05   ,-2.5  ,-2.4  ,2
4660  ,3.220e+05   ,-2.5  ,-2.4  ,1.8
4664  ,6.652e+05   ,-0.3  ,-2.4  ,0
4675  ,3.339e+06   ,-2.4  ,-2.5  ,4.8
4681  ,2.777e+06   ,-2.5  ,-0.3  ,0.1
4684  ,7.858e+07   ,1.7  ,-2.4  ,5
4703  ,4.127e+07   ,-2.4  ,0.7  ,5
4707  ,2.687e+07   ,-2.5  ,0.3  ,4.9
4714  ,1.815e+08   ,2.4  ,-0.33054  ,5
4723  ,1.935e+08   ,-1.5567  ,2.3  ,4.8
4739  ,1.456e+08   ,-2.1044  ,2.5  ,4.9
4763  ,1.524e+07   ,-1.9  ,2.4  ,0
4780  ,2.108e+05   ,-2.3  ,-1.9695  ,0.2
4782  ,5.776e+04   ,-2.4707  ,-2.4  ,0.029289
4784  ,2.568e+05   ,-2.4  ,-1.9  ,0
4791  ,2.022e+05   ,-2.4  ,-2.5  ,1.8
4796  ,1.027e+07   ,2.4707  ,-2.4707  ,4.9
4799  ,3.871e+07   ,2.5  ,-2.4  ,4.8
4806  ,3.264e+07   ,2.3  ,-2.5  ,4.9
4809  ,1.888e+09   ,2.3  ,2.3  ,3.9166
4833  ,1.111e+07   ,-2.4  ,2.5  ,0.4
4841  ,5.014e+07   ,-2.4  ,2.5  ,2.6
4846  ,5.086e+07   ,-2.5  ,2.1  ,4.9
4848  ,5.517e+07   ,-2.5  ,2.3  ,4.9
4849  ,5.409e+07   ,-2.5  ,2.4  ,4.8
4893  ,3.783e+07   ,-2.4  ,2.5  ,4.2
4897  ,3.555e+09   ,2.3333  ,2.1998  ,5
4900  ,8.567e+09   ,2.391  ,2.4577  ,4.7576
4908  ,8.454e+09   ,2.2576  ,2.391  ,4.9577
4911  ,8.697e+09   ,2.2576  ,2.4577  ,4.891
4926  ,8.332e+06   ,-2.5  ,2.4  ,1
4932  ,3.776e+07   ,-2.4  ,2.5  ,1.6
4937  ,2.670e+07   ,-1.1  ,2.5  ,0.1
4939  ,4.345e+09   ,2.3  ,2.2299  ,4.7299
4944  ,7.410e+07   ,2.5  ,-1.9073  ,4.9
4987  ,1.698e+08   ,-2.3  ,1.5527  ,4.8
5010  ,4.343e+09   ,2.4973  ,2.1331  ,4.923
5013  ,3.292e+09   ,2.5  ,2.0345  ,4.9
5017  ,3.589e+09   ,2.4  ,2.0345  ,5
5035  ,2.176e+06   ,1.3  ,-2.4  ,0
5038  ,1.608e+06   ,1.2085  ,-2.5  ,0.2
5092  ,1.593e+05   ,-2.4  ,-2.5  ,1.2
5123  ,9.895e+06   ,2.5  ,-2.4  ,0.6
5151  ,2.045e+06   ,-2.5  ,-0.5  ,0.1
5160  ,4.628e+05   ,-2.5  ,-0.7  ,0.1
5164  ,4.123e+07   ,-2.4  ,0.9  ,5
5168  ,4.740e+07   ,-2.4  ,0.5  ,5
5176  ,3.071e+07   ,2.5  ,-0.7  ,0.1
5179  ,5.046e+07   ,2.4  ,-0.5  ,0
5189  ,4.816e+07   ,2.4  ,-2.5  ,2.4
5194  ,3.507e+07   ,2.3  ,-2.5  ,2.2576
5198  ,1.557e+05   ,-2.3  ,-2.5  ,0.32348
5205  ,1.021e+05   ,-2.4  ,-2.5  ,0.2
5207  ,1.987e+05   ,-2.1  ,-2.5  ,0.1
5246  ,5.177e+07   ,-2.5  ,2.4  ,3.2
5257  ,5.460e+07   ,-2.5  ,1.5  ,4.9
5263  ,1.536e+06   ,-2.3  ,0.2278  ,0.2
5272  ,1.461e+06   ,-2.5  ,0.3  ,0.1
5275  ,2.846e+07   ,-2.5  ,0.5  ,4.9
5281  ,1.912e+09   ,1.8375  ,2.5  ,4.9
5297  ,5.532e+07   ,-0.9  ,2.5  ,0.1
5306  ,5.071e+07   ,-0.7  ,2.4  ,0
5309  ,5.614e+07   ,-0.5  ,2.5  ,0.1
5324  ,3.760e+08   ,2.4  ,2.5  ,2.7607
5332  ,1.297e+07   ,2.5  ,-2.4  ,0.8
5334  ,1.710e+07   ,2.4  ,-2.5  ,1
5360  ,1.436e+08   ,2.4  ,-1.7102  ,5
5362  ,2.193e+08   ,2.4  ,-1.5131  ,5
5368  ,2.028e+09   ,2.4  ,1.8375  ,5
5371  ,1.399e+10   ,2.4325  ,2.4888  ,4.6656
5372  ,3.682e+09   ,2.3333  ,2.5  ,4.6998
5376  ,2.998e+09   ,2.4707  ,2.4707  ,4.6331
5377  ,3.701e+09   ,2.5  ,2.4  ,4.5345
5379  ,1.642e+07   ,-1.5  ,-2.5  ,4.9
5406  ,8.280e+05   ,-2.5  ,-2.4  ,3.4
5420  ,6.825e+05   ,-2.3  ,-2.5  ,3.2226
5423  ,2.778e+06   ,1.5  ,-2.4  ,0
5502  ,5.623e+04   ,-2.5  ,-2.3  ,0.1
5504  ,8.657e+04   ,-2.5  ,-2.4  ,0.2
5506  ,1.238e+05   ,-2.4  ,-2.3  ,0
5511  ,1.836e+05   ,-2.5  ,-2.1  ,0.1
5513  ,2.027e+06   ,-2.4  ,0.5  ,0
5517  ,1.114e+06   ,-0.9  ,-2.5  ,0.1
5532  ,3.670e+07   ,-2.4707  ,2.4707  ,4.9
5534  ,2.622e+07   ,2.4  ,-0.7  ,0
5551  ,4.085e+07   ,2.5  ,-2.4  ,3.8
5566  ,1.322e+08   ,2.5  ,2.4  ,1.3811
5603  ,5.543e+07   ,2.4  ,-0.3  ,0
5617  ,1.410e+07   ,-2.1  ,2.5  ,0.1
5637  ,1.264e+07   ,-2.3  ,-1.9695  ,4.8
5641  ,2.147e+07   ,2.3  ,-2.5  ,3.4636
5645  ,1.998e+05   ,-2.4  ,-2.5  ,2
5649  ,2.443e+05   ,-2.4  ,-2.5  ,2.2
5659  ,1.098e+05   ,-2.3  ,-2.5  ,1.7774
5662  ,5.149e+07   ,2.1765  ,-2.5  ,4.8
5666  ,3.250e+07   ,2.4  ,-2.5  ,4.8
5669  ,4.609e+07   ,2.3  ,-2.3412  ,4.8
5695  ,2.855e+06   ,-2.4  ,0.7  ,0
5701  ,2.965e+07   ,-2.5  ,2.4  ,1.6
5715  ,5.839e+07   ,-2.4  ,2.5  ,1.8
5726  ,8.630e+07   ,-0.7  ,2.5  ,0.1
5727  ,2.807e+07   ,-1.1  ,2.4  ,0
5730  ,2.808e+07   ,2.3  ,-2.5  ,1.7774
5746  ,4.078e+07   ,2.5  ,2.4  ,1.7753
5755  ,6.816e+07   ,2.5  ,-2.4  ,4.4
5763  ,4.831e+07   ,2.4  ,-2.5  ,4.4
5773  ,7.562e+08   ,1.0491  ,2.5  ,4.9
5791  ,3.621e+07   ,-0.72473  ,2.4  ,5
5795  ,2.051e+09   ,1.8375  ,2.4  ,5
5803  ,5.617e+07   ,-0.3  ,-2.4  ,5
5810  ,1.535e+09   ,2.4  ,1.6404  ,5
5836  ,4.625e+07   ,-2.5  ,1.3  ,4.9
5860  ,5.753e+07   ,2.5  ,-2.4  ,1.6
5866  ,2.508e+06   ,1.5  ,-2.5  ,0.1
5884  ,9.688e+07   ,-2.4  ,-0.3  ,5
5888  ,5.463e+07   ,-2.5  ,-0.5  ,4.9
5901  ,4.355e+07   ,2.3  ,-2.5  ,2.5
5908  ,2.093e+07   ,2.5  ,-2.4  ,1.2
5909  ,7.189e+07   ,2.5  ,-2.4  ,2
5934  ,5.064e+07   ,1.9  ,-2.5  ,4.9
5938  ,5.746e+07   ,1.933  ,-2.5  ,4.8
5948  ,2.841e+06   ,-2.4  ,-2.5  ,4.6
5950  ,1.210e+06   ,-2.4707  ,-2.4707  ,4.9
5951  ,1.647e+06   ,-2.5  ,-2.4  ,4.8
5952  ,2.035e+06   ,-2.5  ,-2.3  ,4.9
5986  ,2.914e+07   ,2.3  ,-2.5  ,3.7085
5990  ,1.075e+08   ,-0.92182  ,2.5  ,4.9
6019  ,5.416e+07   ,2.5  ,1.9  ,0.1
6025  ,1.305e+07   ,2.4  ,-1.3  ,0
6035  ,6.786e+07   ,-2.5  ,1.9  ,4.9
6044  ,5.326e+07   ,0.1  ,2.5  ,0.1
6054  ,3.870e+07   ,2.4  ,0.1  ,0
6070  ,1.606e+07   ,-2.4  ,2.3  ,0
6071  ,9.035e+06   ,-2.3  ,2.4  ,0
6076  ,1.537e+07   ,-2.4  ,2.1  ,0
6083  ,3.703e+06   ,2.1  ,-2.4  ,0
6084  ,6.744e+07   ,2.4  ,2.3  ,0
6087  ,6.235e+07   ,2.3  ,2.4  ,0
6092  ,7.928e+04   ,-2.4  ,-2.5  ,0.4
6096  ,1.087e+05   ,-2.3  ,-2.5  ,0.1
6099  ,1.238e+06   ,0.7  ,-2.5  ,0.1
6149  ,1.894e+06   ,-2.4  ,-0.9  ,0
6159  ,2.244e+05   ,-2.5  ,-2.4  ,2.6
6183  ,8.443e+08   ,1.2462  ,2.5  ,4.9
6224  ,5.514e+07   ,2.5  ,-2.4  ,4
6228  ,3.787e+07   ,2.4  ,-2.5  ,3.8
6237  ,5.830e+07   ,2.5  ,0.7  ,0.1
6241  ,3.580e+09   ,2.5  ,2.3333  ,4.6998
6245  ,6.008e+07   ,2.5  ,2.4  ,1.5782
6259  ,3.330e+07   ,2.5  ,-2.1044  ,4.9
6265  ,1.457e+08   ,2.3  ,-1.9804  ,4.8
6267  ,2.924e+07   ,2.5  ,-2.3015  ,4.9
6268  ,1.505e+07   ,2.4707  ,-2.4  ,4.9707
6270  ,3.717e+07   ,2.4  ,-2.1044  ,5
6317  ,8.570e+07   ,-2.3  ,0.2278  ,4.8
6349  ,1.339e+08   ,-0.52764  ,2.4  ,5
6391  ,4.867e+07   ,2.4  ,2.5  ,1.7753
6440  ,5.774e+07   ,-2.5  ,2.4  ,3.8
6471  ,4.363e+07   ,2.5  ,-0.92182  ,4.9
6489  ,8.802e+08   ,2.5  ,1.2462  ,4.9
6523  ,9.986e+05   ,-1.1  ,-2.4  ,0
6528  ,7.879e+05   ,-1.1  ,-2.5  ,0.1
6535  ,1.254e+06   ,-0.9  ,-2.4  ,0
6538  ,7.076e+07   ,1.5  ,-2.4  ,5
6541  ,5.010e+07   ,1.5  ,-2.5  ,4.9
6551  ,6.957e+07   ,2.5  ,-0.72473  ,4.9
6564  ,4.390e+09   ,2.1331  ,2.4973  ,4.923
6565  ,3.400e+09   ,2.0345  ,2.5  ,4.9
6572  ,8.454e+06   ,2.4  ,-1.7  ,0
6581  ,1.166e+08   ,0  ,2.3  ,0.2
6592  ,1.336e+07   ,2.3  ,-1.9695  ,0.2
6594  ,3.549e+07   ,0.3  ,2.4  ,0
6601  ,6.575e+07   ,0.5  ,2.5  ,0.1
6605  ,2.860e+05   ,-2.4  ,-1.3  ,0
6606  ,1.450e+06   ,-2.4  ,-1.1  ,0
6615  ,3.813e+06   ,-2.4  ,-0.3  ,0
6634  ,5.085e+07   ,2.1  ,-2.5  ,4.9
6635  ,8.794e+06   ,2.4  ,-2.4707  ,4.9707
6636  ,3.199e+07   ,2.3  ,-2.4  ,5
6647  ,9.033e+05   ,0.5  ,-2.5  ,0.1
6704  ,3.675e+06   ,-2.4707  ,2.4707  ,0.1
6708  ,9.583e+06   ,-2.5  ,2.4  ,0.2
6712  ,4.897e+07   ,-2.4  ,2.5  ,3.6
6715  ,7.115e+07   ,-2.4  ,2.5  ,3.4
6728  ,3.925e+07   ,-2.5  ,0.7  ,4.9
6753  ,1.419e+08   ,-2.1044  ,2.4  ,5
6788  ,2.400e+09   ,2.5  ,2.4  ,4.3375
6791  ,1.808e+07   ,-1.933  ,-2.5  ,4.8
6795  ,3.143e+09   ,2.1998  ,2.5  ,4.8333
6837  ,1.048e+05   ,-2.3  ,-2.5  ,0.8063
6869  ,1.410e+08   ,2.5  ,-1.7102  ,4.9
6873  ,7.773e+07   ,2.4  ,-1.9073  ,5
6880  ,5.080e+07   ,2.4  ,-0.92182  ,5
6885  ,7.720e+07   ,2.4  ,-0.52764  ,5
6893  ,7.442e+08   ,2.4  ,1.2462  ,5
6914  ,7.059e+07   ,0.7  ,2.5  ,0.1
6920  ,6.966e+07   ,0.9  ,2.4  ,0
6923  ,6.839e+07   ,0.7  ,2.4  ,0
6936  ,2.727e+07   ,2.4  ,-2.5  ,3.4
6939  ,4.279e+07   ,2.3  ,-2.5  ,3.2226
6961  ,5.399e+07   ,-0.1  ,-2.5  ,4.9
6967  ,8.683e+06   ,-2.5  ,-1.5  ,4.9
6975  ,5.381e+07   ,-2.4  ,1.1  ,5
6978  ,6.118e+06   ,-2.4  ,2.5  ,0.2
6987  ,2.161e+08   ,2.4  ,-1.316  ,5
6994  ,6.297e+06   ,2.4  ,-1.5  ,0
7004  ,2.667e+07   ,2.4  ,-2.5  ,3.6
7011  ,6.218e+08   ,2.4  ,0.65491  ,5
7016  ,5.543e+08   ,2.4  ,0.45782  ,5
7019  ,2.514e+08   ,2.5  ,2.4  ,2.1695
7021  ,1.273e+08   ,2.5  ,2.4  ,1.9724
7052  ,2.322e+07   ,-1.3  ,2.5  ,0.1
7054  ,6.019e+04   ,-2.4  ,-2.5  ,0.8
7057  ,7.582e+05   ,0.3  ,-2.5  ,0.1
7065  ,6.199e+05   ,0.24243  ,-2.5  ,0.2
7075  ,1.392e+10   ,2.4888  ,2.4325  ,4.6656
7113  ,1.873e+05   ,-2.4  ,-2.5  ,2.6
7121  ,2.919e+05   ,-2.4  ,-2.5  ,2.8
7126  ,4.373e+05   ,-2.5  ,-2.4  ,2.8
7128  ,5.808e+04   ,-2.4707  ,-2.4707  ,0.1
7129  ,9.065e+04   ,-2.4  ,-2.4707  ,0.029289
7141  ,1.894e+07   ,-1.7  ,-2.4  ,5
7145  ,5.704e+07   ,1.1  ,2.4  ,0
7163  ,2.179e+08   ,-1.7102  ,2.4  ,5
7172  ,3.079e+07   ,2.5  ,-2.4  ,3.2
7174  ,5.829e+07   ,-2.5  ,2.4  ,3.6
7183  ,1.647e+07   ,-1.4531  ,-2.5  ,4.8
7204  ,2.675e+08   ,2.3  ,-0.81068  ,4.8
7220  ,3.950e+08   ,2.5  ,0.063638  ,4.9
7227  ,1.723e+07   ,2.5  ,-1.9  ,0.1
7256  ,5.571e+07   ,-0.1  ,-2.4  ,5
7280  ,2.423e+08   ,-0.33054  ,2.4  ,5
7299  ,1.147e+08   ,2.5  ,-1.1189  ,4.9
7316  ,8.682e+04   ,-2.5  ,-2.4  ,0.8
7323  ,1.164e+05   ,-2.4  ,-2.5  ,1
7396  ,4.541e+07   ,1.1  ,-2.4  ,5
7400  ,2.944e+06   ,-2.5  ,0.7  ,0.1
7409  ,5.315e+07   ,1.3  ,-2.4  ,5
7420  ,5.336e+07   ,2.5  ,2.1  ,0.1
7429  ,4.341e+07   ,2.4  ,1.9  ,0
7436  ,1.879e+07   ,2.5  ,-1.7  ,0.1
7438  ,5.279e+07   ,2.4  ,-2.5  ,2.8
7445  ,1.267e+10   ,2.4325  ,2.1656  ,4.9888
7464  ,7.215e+06   ,2.5  ,-1.5  ,0.1
7480  ,6.948e+06   ,2.5  ,-2.4  ,0.2
7482  ,1.902e+06   ,1.9  ,-2.5  ,0.1
7483  ,2.458e+06   ,1.7  ,-2.5  ,0.1
7486  ,7.573e+07   ,1.9  ,-2.4  ,5
7488  ,4.959e+07   ,1.6937  ,-2.5  ,4.8
7492  ,7.590e+07   ,2.1  ,-2.4  ,5
7495  ,6.655e+05   ,0.1  ,-2.5  ,0.1
7504  ,9.292e+05   ,0.3  ,-2.4  ,0
7507  ,2.138e+06   ,0.9  ,-2.5  ,0.1
7533  ,2.397e+06   ,-2.5  ,0.9  ,0.1
7536  ,5.181e+05   ,-2.4  ,-2.5  ,3.2
7540  ,3.136e+05   ,-2.4  ,-2.5  ,3
7545  ,5.073e+05   ,-2.5  ,-2.4  ,3
7582  ,3.754e+07   ,1.3  ,2.5  ,0.1
7588  ,3.421e+08   ,2.5  ,2.4  ,2.3665
7598  ,6.417e+07   ,-2.5  ,2.4  ,4.2
7607  ,1.860e+08   ,1.5333  ,2.3  ,0.2
7627  ,3.331e+07   ,-2.5  ,1.1  ,4.9
7651  ,1.099e+07   ,2.4  ,-1.9  ,0
7656  ,1.618e+08   ,2.5  ,2.4  ,0.39564
7660  ,4.391e+09   ,2.2299  ,2.3  ,4.7299
7668  ,2.572e+07   ,1.4531  ,-2.5  ,4.8
7676  ,5.208e+07   ,0.1  ,-2.5  ,4.9
7683  ,6.049e+07   ,0.1  ,-2.4  ,5
7686  ,2.293e+07   ,-2.4  ,-1.1  ,5
7702  ,1.409e+06   ,-2.3  ,-2.5  ,4.433
7710  ,4.914e+06   ,-2.3  ,-2.5  ,4.6765
7752  ,4.145e+07   ,0.9  ,-2.4  ,5
7763  ,3.922e+07   ,0.24243  ,-2.5  ,4.8
7767  ,3.690e+05   ,-2.5  ,-2.4  ,3.2
7768  ,1.704e+05   ,-2.4  ,-2.1  ,0
7776  ,3.336e+06   ,-2.4  ,0.9  ,0
7786  ,2.659e+07   ,-0.4838  ,-2.5  ,4.8
7800  ,7.587e+07   ,2.5  ,-2.4  ,4.6
7805  ,1.157e+07   ,-2.5  ,-1.3  ,4.9
7811  ,1.493e+07   ,-2.5  ,-1.1  ,4.9
7820  ,2.632e+06   ,2.5  ,-2.1  ,0.1
7824  ,7.484e+06   ,2.4  ,-2.1  ,0
7828  ,4.833e+07   ,2.4  ,-2.5  ,4.2
7831  ,4.326e+07   ,2.4  ,-2.5  ,4
7838  ,6.571e+07   ,2.5  ,-2.4  ,4.2
7839  ,3.571e+08   ,2.5  ,2.4  ,2.7607
7840  ,4.182e+08   ,2.5  ,2.4  ,2.9578
7863  ,9.170e+05   ,-2.4  ,-1.5  ,0
7890  ,5.870e+07   ,2.4  ,0.9  ,0
7897  ,1.005e+06   ,-2.4  ,-0.7  ,0
7912  ,8.073e+05   ,-1.5  ,-2.4  ,0
7917  ,8.193e+05   ,-1.3  ,-2.5  ,0.1
7931  ,5.718e+07   ,0.5  ,2.4  ,0
7934  ,2.397e+06   ,1.1  ,-2.4  ,0
7937  ,1.401e+07   ,2.4  ,-2.5  ,0.8
7941  ,8.358e+04   ,-2.4  ,-2.5  ,0.6
7969  ,1.581e+07   ,-2.5  ,2.3  ,0.1
7971  ,9.598e+06   ,-2.4  ,1.9  ,0
7972  ,1.580e+07   ,-1.9  ,2.5  ,0.1
7978  ,8.378e+06   ,-2.4  ,1.1  ,0
7996  ,6.915e+07   ,-2.4  ,-0.5  ,5
8000  ,8.776e+04   ,-2.5  ,-2.4  ,0.6
8003  ,5.677e+04   ,-2.5  ,-2.4  ,0.4
8025  ,7.270e+07   ,0.9  ,2.5  ,0.1
8035  ,5.185e+07   ,0.3  ,2.5  ,0.1
8039  ,4.857e+06   ,2.3  ,-2.5  ,0.32348
8041  ,6.727e+06   ,2.3  ,-2.3379  ,0.2
8043  ,2.398e+06   ,2.1765  ,-2.5  ,0.2
8045  ,6.140e+05   ,-0.96359  ,-2.5  ,0.2
8054  ,5.345e+07   ,1.3  ,2.4  ,0
8058  ,5.101e+07   ,1.1  ,2.5  ,0.1
8062  ,1.703e+07   ,-2.5  ,2.4  ,1.4
8067  ,7.922e+06   ,-2.5  ,2.4  ,0.8
8087  ,1.020e+07   ,-2.5  ,1.5  ,0.1
8132  ,3.017e+08   ,-0.13345  ,2.4  ,5
8183  ,2.493e+07   ,2.5  ,-0.9  ,0.1
8184  ,1.894e+06   ,1.6937  ,-2.5  ,0.2
8214  ,2.639e+06   ,-2.4707  ,-2.4  ,4.9707
8217  ,1.194e+07   ,-2.1  ,-2.4  ,5
8219  ,1.776e+06   ,-2.4  ,-2.5  ,4.4
8227  ,5.117e+08   ,2.5  ,2.4  ,3.1549
8242  ,5.337e+07   ,0.7  ,-2.5  ,4.9
8248  ,3.122e+07   ,2.5  ,-2.4  ,3.6
8254  ,8.882e+07   ,2.5  ,-0.3  ,0.1
8256  ,6.470e+07   ,2.5  ,-0.5  ,0.1
8258  ,4.342e+07   ,-0.3  ,-2.5  ,4.9
8263  ,3.737e+07   ,-0.5  ,-2.5  ,4.9
8268  ,1.397e+06   ,-2.3  ,-2.5  ,3.7085
8277  ,4.702e+05   ,-0.1  ,-2.5  ,0.1
8285  ,3.093e+07   ,1.1  ,-2.5  ,4.9
8307  ,3.117e+07   ,0.1  ,2.4  ,0
8308  ,5.207e+07   ,-0.1  ,2.5  ,0.1
8309  ,3.433e+07   ,-0.1  ,2.4  ,0
8313  ,5.475e+06   ,2.5  ,-2.3  ,0.1
8318  ,2.795e+07   ,2.5  ,-2.4  ,3
8338  ,6.256e+08   ,2.5  ,2.4  ,3.352
8339  ,5.414e+08   ,2.4  ,2.5  ,3.1549
8344  ,6.566e+07   ,-2.5  ,2.4  ,3.4
8357  ,1.216e+10   ,2.4888  ,2.1656  ,4.9325
8358  ,3.132e+09   ,2.5  ,2.1998  ,4.8333
8383  ,2.362e+05   ,-1.7  ,-2.4  ,0
8396  ,2.019e+06   ,1.1  ,-2.5  ,0.1
8399  ,3.426e+09   ,2.4526  ,2.1331  ,4.9851
8405  ,1.679e+07   ,2.5  ,-2.4  ,1
8412  ,1.539e+07   ,2.3  ,-2.5  ,0.8063
8417  ,2.980e+05   ,-2.3  ,-2.5  ,2.5
8434  ,2.632e+07   ,0.9636  ,-2.5  ,4.8
8438  ,5.181e+05   ,-0.3  ,-2.5  ,0.1
8452  ,7.344e+07   ,-2.4  ,-0.1  ,5
8468  ,8.495e+08   ,2.5  ,2.4  ,3.7462
8471  ,1.783e+07   ,-1.3  ,-2.5  ,4.9
8493  ,2.321e+07   ,-1.1  ,-2.5  ,4.9
8509  ,5.593e+05   ,-2.5  ,-1.7  ,0.1
8517  ,4.471e+07   ,-2.4  ,2.5  ,3
8531  ,9.135e+06   ,-2.4  ,1.7  ,0
8556  ,7.796e+08   ,2.5  ,2.4  ,3.5491
8573  ,1.930e+08   ,-1.316  ,2.4  ,5
8576  ,9.273e+06   ,-2.4  ,1.3  ,0
8611  ,1.670e+07   ,2.3  ,-2.5  ,1.2915
8618  ,3.444e+07   ,-2.4  ,2.5  ,4
8646  ,8.153e+06   ,-2.5  ,1.1  ,0.1
8656  ,1.879e+07   ,2.5  ,-1.3  ,0.1
8657  ,4.920e+07   ,2.4  ,2.1  ,0
8673  ,1.496e+07   ,-1.3  ,2.4  ,0
8692  ,5.572e+07   ,0.72263  ,-2.5  ,4.8
8696  ,1.676e+07   ,2.3  ,-2.5  ,1.0469
8706  ,5.569e+08   ,2.5  ,0.65491  ,4.9
8721  ,7.869e+04   ,-2.4  ,-2.5  ,1.6
8725  ,4.981e+08   ,0.65491  ,2.4  ,5
8739  ,1.319e+10   ,2.1656  ,2.4325  ,4.9888
8741  ,3.511e+09   ,2.1998  ,2.3333  ,5
8746  ,1.218e+05   ,-2.1  ,-2.4  ,0
8748  ,2.025e+05   ,-2.5  ,-2.4  ,1.2
8752  ,3.445e+09   ,2.1331  ,2.4526  ,4.9851
8759  ,1.188e+05   ,-2.3  ,-2.5  ,1.0469
8787  ,6.361e+05   ,-0.1  ,-2.4  ,0
8793  ,2.852e+05   ,-2.3  ,-2.5  ,2.2576
8795  ,2.445e+05   ,-2.4  ,-2.5  ,2.4
8798  ,1.405e+06   ,-2.3  ,-2.5  ,4.1937
8808  ,1.750e+06   ,-2.3  ,-2.5  ,3.9531
8814  ,1.686e+07   ,-2.4  ,-1.5  ,5
8849  ,5.791e+07   ,0.4838  ,-2.5  ,4.8
8851  ,2.198e+06   ,-2.4  ,-2.5  ,4.2
8868  ,5.093e+07   ,2.4  ,-2.5  ,3
8874  ,6.802e+08   ,0.852  ,2.4  ,5
8883  ,6.776e+07   ,-0.5  ,-2.4  ,5
8886  ,3.307e+07   ,-0.72262  ,-2.5  ,4.8
8893  ,4.531e+07   ,-0.7  ,-2.5  ,4.9
8897  ,1.853e+06   ,-2.5  ,-2.4  ,3.6
8899  ,6.676e+05   ,-2.3  ,-2.5  ,3.4636
8900  ,3.604e+05   ,-2.3  ,-1.4729  ,0.2
8906  ,4.771e+05   ,-2.5  ,-1.3  ,0.1
8910  ,6.753e+08   ,0.852  ,2.5  ,4.9
8925  ,1.748e+07   ,-2.4  ,2.5  ,1.4
8941  ,4.586e+07   ,2.4707  ,2.4  ,0.029289
8942  ,5.974e+07   ,2.5  ,2.3  ,0.1
8945  ,2.764e+07   ,-2.5  ,0.1  ,4.9
8950  ,5.677e+07   ,2.4707  ,2.4707  ,0.1
8951  ,4.374e+07   ,2.4  ,2.4707  ,0.029289
8959  ,4.196e+08   ,2.4  ,0.26073  ,5
8965  ,3.968e+08   ,0.45782  ,2.4  ,5
8978  ,5.869e+08   ,2.4  ,0.852  ,5
8983  ,1.846e+07   ,2.5  ,-1.1  ,0.1
8991  ,9.980e+06   ,-2.5  ,2.4  ,0.6
9008  ,5.620e+08   ,2.5  ,0.852  ,4.9
9011  ,2.210e+06   ,-2.4  ,-0.5  ,0
9025  ,8.409e+05   ,-1.5  ,-2.5  ,0.1
9038  ,4.123e+07   ,2.4  ,-2.5  ,2
9041  ,6.123e+07   ,2.5  ,0.9  ,0.1
9050  ,4.814e+07   ,2.5  ,0.5  ,0.1
9054  ,2.270e+06   ,0.9  ,-2.4  ,0
9060  ,5.541e+06   ,2.4  ,-2.5  ,0.4
9062  ,1.061e+07   ,2.3  ,-2.5  ,0.56701
9064  ,9.162e+06   ,2.5  ,-2.4  ,0.4
9069  ,1.115e+07   ,2.4  ,-2.5  ,0.6
9071  ,1.317e+06   ,1.4531  ,-2.5  ,0.2
9082  ,1.728e+05   ,-2.3  ,-2.5  ,1.2915
9086  ,1.138e+05   ,-2.4  ,-2.5  ,1.4
9091  ,1.009e+05   ,-2.5  ,-2.4  ,1.4
9094  ,3.812e+07   ,1.3  ,-2.5  ,4.9
9097  ,8.416e+05   ,-0.7  ,-2.5  ,0.1
9137  ,1.785e+07   ,-2.5  ,-0.7  ,4.9
9143  ,3.115e+07   ,-2.5  ,-0.1  ,4.9
9146  ,1.529e+07   ,-2.1  ,2.4  ,0
9148  ,5.466e+07   ,-2.5  ,1.7  ,4.9
9173  ,4.573e+07   ,-2.5  ,2.4  ,3
9192  ,7.720e+07   ,-0.7  ,-2.4  ,5
9195  ,1.133e+06   ,0.72263  ,-2.5  ,0.2
9209  ,2.539e+07   ,2.5  ,-2.4  ,3.4
9215  ,1.907e+06   ,0.9636  ,-2.5  ,0.2
9217  ,4.093e+07   ,2.4  ,-2.5  ,3.2
9218  ,2.598e+07   ,-0.96359  ,-2.5  ,4.8
9229  ,3.648e+07   ,-2.4  ,2.5  ,2.8
9248  ,5.569e+07   ,2.3  ,-2.5  ,4.433
9255  ,6.390e+07   ,2.5  ,1.3  ,0.1
9257  ,5.572e+07   ,2.4  ,1.5  ,0
9262  ,3.648e+07   ,0.5  ,-2.4  ,5
9264  ,2.998e+08   ,2.4  ,-0.13345  ,5
9272  ,3.501e+08   ,0.063638  ,2.4  ,5
9277  ,1.081e+07   ,-2.5  ,2.4  ,1.2
9279  ,4.331e+08   ,2.5  ,0.26073  ,4.9
9282  ,2.570e+07   ,1.2085  ,-2.5  ,4.8
9286  ,3.723e+07   ,0.9  ,-2.5  ,4.9
9292  ,5.284e+07   ,-2.4  ,2.4707  ,4.9707
9293  ,6.950e+07   ,-2.3015  ,2.4  ,5
9296  ,5.475e+06   ,-2.4  ,-2.1  ,5
9303  ,8.318e+06   ,-2.4  ,-1.9  ,5
9311  ,6.178e+07   ,-2.4  ,2.3  ,5
9313  ,5.121e+07   ,-2.4  ,0.1  ,5
9319  ,7.854e+05   ,-0.5  ,-2.4  ,0
9328  ,1.463e+05   ,-2.3  ,-2.5  ,1.5364
9334  ,6.065e+06   ,-2.3  ,2.5  ,0.1
9338  ,1.990e+05   ,-2.5  ,-2.4  ,2.4
9339  ,1.088e+07   ,-2.5  ,1.3  ,0.1
9341  ,1.611e+05   ,-2.3  ,-2.5  ,2.7424
9344  ,1.755e+05   ,-2.5  ,-2.4  ,2.2
9358  ,1.268e+08   ,-2.3  ,2.3  ,2.5
9364  ,4.204e+06   ,-2.5  ,-2.1  ,4.9
9367  ,6.407e+06   ,-2.4  ,-2.3  ,5
9374  ,1.441e+07   ,-2.4  ,-1.3  ,5
9378  ,3.055e+07   ,-2.5  ,2.4  ,1.8
9384  ,2.750e+07   ,2.3  ,-2.5  ,2.0162
9385  ,5.172e+07   ,-2.5  ,2.4  ,4.4
9389  ,3.151e+07   ,-2.5  ,2.4  ,2
9395  ,2.633e+07   ,2.4  ,-2.3015  ,5
9396  ,4.310e+05   ,-2.4  ,-1.7  ,0
9407  ,1.116e+07   ,-2.3  ,-1.4729  ,4.8
9411  ,1.042e+07   ,-2.5  ,-1.7  ,4.9
9423  ,1.444e+06   ,-2.4  ,-2.5  ,3.6
9432  ,4.118e+07   ,0.7  ,-2.4  ,5
9438  ,9.066e+06   ,-2.5  ,-0.9  ,4.9
9443  ,6.577e+07   ,-2.5  ,-0.3  ,4.9
9445  ,4.198e+07   ,-2.4707  ,2.4  ,4.9707
9448  ,9.956e+07   ,2.4  ,-1.1189  ,5
9453  ,5.183e+07   ,2.4  ,0.7  ,0
9455  ,5.319e+07   ,2.5  ,-2.4  ,2.6
9457  ,4.687e+07   ,2.3  ,-2.5  ,2.9838
9494  ,1.598e+07   ,-2.4  ,2.5  ,1
9500  ,5.735e+07   ,0.3  ,-2.5  ,4.9
9504  ,4.405e+07   ,0.3  ,-2.4  ,5
9506  ,3.267e+06   ,2.1  ,-2.5  ,0.1
9518  ,2.938e+05   ,-1.9  ,-2.5  ,0.1
9528  ,2.286e+06   ,2.3  ,-2.5  ,0.1
9531  ,2.550e+06   ,2.4707  ,-2.4707  ,0.1
9533  ,2.772e+06   ,2.4707  ,-2.4  ,0.029289
9534  ,1.826e+06   ,2.4  ,-2.4707  ,0.029289
9541  ,5.955e+07   ,0.5  ,-2.5  ,4.9
9544  ,6.445e+05   ,-0.5  ,-2.5  ,0.1
9559  ,8.347e+06   ,-2.5  ,-1.9  ,4.9
9562  ,4.408e+07   ,-2.5  ,2.4  ,4.6
9565  ,5.302e+07   ,-2.4  ,2.5  ,2
9571  ,1.734e+06   ,-2.5  ,-2.4  ,3.8
9574  ,1.689e+06   ,-2.4  ,-2.5  ,3.8
9577  ,1.876e+06   ,1.3  ,-2.5  ,0.1
9582  ,1.299e+06   ,-2.5  ,-0.9  ,0.1
9596  ,5.924e+07   ,2.1  ,2.4  ,0
9598  ,5.770e+07   ,-2.4  ,2.5  ,3.2
9602  ,4.035e+07   ,1.5  ,2.5  ,0.1
9610  ,1.579e+08   ,2.4  ,2.5  ,0.39564
9612  ,5.154e+07   ,-0.72473  ,2.5  ,4.9
9614  ,4.504e+07   ,1.7  ,2.5  ,0.1
9635  ,5.326e+07   ,2.5  ,1.7  ,0.1
9646  ,5.602e+07   ,2.3  ,2.5  ,0.1
9651  ,1.235e+10   ,2.1656  ,2.4888  ,4.9325
9653  ,2.157e+08   ,2.5  ,-1.316  ,4.9
9656  ,2.134e+07   ,-2.4  ,-1.7  ,5
9659  ,4.968e+07   ,2.3  ,-2.5  ,4.6765
9661  ,3.461e+07   ,2.3  ,-2.5  ,3.9531
9664  ,9.873e+06   ,-2.3  ,-2.4  ,5
9666  ,4.527e+06   ,1.9  ,-2.4  ,0
9677  ,4.537e+07   ,2.4  ,0.5  ,0
9678  ,1.285e+06   ,-2.5  ,-1.1  ,0.1
9680  ,1.742e+08   ,2.5  ,2.4  ,1.184
9681  ,6.702e+07   ,2.5  ,2.4  ,0.19855
9696  ,1.357e+05   ,-2.3  ,-2.5  ,2.0162
9698  ,3.365e+06   ,2.4  ,-2.3  ,0
9699  ,2.077e+05   ,-0.24243  ,-2.5  ,0.2
9701  ,7.367e+05   ,0.1  ,-2.4  ,0
9704  ,6.932e+05   ,-0.4838  ,-2.5  ,0.2
9718  ,9.132e+05   ,-0.72262  ,-2.5  ,0.2
9726  ,7.491e+07   ,2.3  ,-0.76628  ,0.2
9727  ,1.394e+07   ,-2.5  ,2.4  ,0.4
9730  ,4.770e+07   ,1.9433E-06  ,-2.5  ,4.8
9731  ,3.417e+07   ,-0.24243  ,-2.5  ,4.8
9732  ,3.790e+07   ,-2.5  ,2.4  ,2.2
9738  ,1.726e+06   ,-2.5  ,-2.4  ,4
9743  ,2.350e+07   ,-1.6937  ,-2.5  ,4.8
9744  ,2.373e+06   ,-2.4  ,-2.5  ,4
9750  ,1.130e+05   ,-1.7  ,-2.5  ,0.1
9752  ,1.997e+05   ,-1.6937  ,-2.5  ,0.2
9754  ,9.649e+05   ,-1.3  ,-2.4  ,0
9759  ,1.146e+07   ,-2.4707  ,2.4  ,0.029289
9760  ,3.504e+06   ,-2.4  ,2.4707  ,0.029289
9768  ,4.394e+07   ,2.3  ,-2.5  ,4.1937
9770  ,3.876e+05   ,1.9433E-06  ,-2.5  ,0.2
9771  ,5.429e+05   ,0.4838  ,-2.5  ,0.2
9772  ,4.129e+06   ,2.4  ,-2.5  ,0.2
9773  ,4.780e+07   ,2.4  ,-2.5  ,4.6
9776  ,3.685e+08   ,2.4  ,0.063638  ,5
9780  ,5.117e+08   ,0.65491  ,2.5  ,4.9
9781  ,7.362e+07   ,2.4  ,2.5  ,0.19855
9782  ,2.775e+05   ,-2.3  ,-2.5  ,2.9838
9786  ,7.414e+05   ,-1.2085  ,-2.5  ,0.2
9787  ,9.076e+05   ,-1.4531  ,-2.5  ,0.2
9790  ,2.570e+06   ,2.3  ,-2.4  ,0
9793  ,3.533e+09   ,2.0345  ,2.4  ,5
9797  ,1.817e+07   ,2.3  ,-2.5  ,1.5364
9798  ,6.711e+08   ,2.4  ,1.0491  ,5
9809  ,6.560e+08   ,2.4  ,2.5  ,3.352
