Date:  11:23, Monday, July 10, 2023
Model name: Hollow_DropBox
Study name: Drop Test_hollow_draft1(-Default-)
Plot type:  Stress1
Plot step: 16   time : 83.9584 Microseconds
Result Type: von Mises 


Node  ,Value (N/m^2)  ,X (in)  ,Y (in)  ,Z (in)
1  ,5.905e+09   ,2.5  ,2.1331  ,4.9
2  ,2.212e+10   ,2.4577  ,2.1908  ,4.9577
3  ,1.200e+10   ,2.4894  ,2.1331  ,4.9447
4  ,6.911e+09   ,2.1331  ,2.5  ,4.9
5  ,1.500e+10   ,2.1331  ,2.4894  ,4.9447
6  ,2.086e+10   ,2.1908  ,2.4577  ,4.9577
7  ,1.276e+08   ,-2.4  ,2.4  ,5
8  ,7.119e+08   ,-2.4  ,-2.4  ,5
9  ,1.198e+09   ,2.4  ,-2.4  ,5
10  ,5.578e+09   ,2.4  ,2.1331  ,5
11  ,6.162e+09   ,2.1331  ,2.4  ,5
12  ,1.275e+09   ,2.5  ,-2.4  ,4.9
13  ,6.613e+08   ,2.5  ,-2.4  ,0.1
14  ,1.524e+08   ,2.5  ,2.4  ,0.1
15  ,6.588e+09   ,2.5  ,2.4  ,4.6331
16  ,1.146e+08   ,2.4  ,2.5  ,0.1
17  ,1.291e+08   ,-2.4  ,2.5  ,0.1
18  ,1.306e+08   ,-2.4  ,2.5  ,4.9
19  ,6.661e+09   ,2.4  ,2.5  ,4.6331
20  ,4.720e+07   ,-2.5  ,2.4  ,0.1
21  ,4.384e+08   ,-2.5  ,-2.4  ,0.1
22  ,4.893e+08   ,-2.5  ,-2.4  ,4.9
23  ,1.535e+08   ,-2.5  ,2.4  ,4.9
24  ,7.191e+08   ,-2.3  ,-2.5  ,0.2
25  ,6.688e+08   ,-2.3  ,-2.5  ,4.8
26  ,1.071e+09   ,2.3  ,-2.5  ,4.8
27  ,6.530e+08   ,2.3  ,-2.5  ,0.2
28  ,7.041e+08   ,-2.4  ,-2.5  ,4.9
29  ,1.364e+09   ,2.4  ,-2.5  ,4.9
30  ,4.190e+08   ,-2.4  ,-2.5  ,0.1
31  ,6.946e+08   ,2.4  ,-2.5  ,0.1
32  ,5.272e+08   ,2.4  ,-2.4  ,0
33  ,1.564e+08   ,2.4  ,2.4  ,0
34  ,4.882e+08   ,-2.4  ,-2.4  ,0
35  ,6.980e+07   ,-2.4  ,2.4  ,0
36  ,2.501e+10   ,2.4577  ,2.4577  ,4.6908
37  ,4.088e+08   ,-2.3  ,2.3  ,4.8
38  ,7.292e+09   ,2.1599  ,2.3  ,4.8
39  ,7.056e+09   ,2.3  ,2.1599  ,4.8
40  ,7.088e+09   ,2.3  ,2.3  ,4.6599
41  ,4.245e+08   ,2.3  ,2.3  ,0.2
42  ,1.201e+08   ,-2.3  ,2.3  ,0.2
43  ,2.041e+08   ,-2.4  ,2.2  ,5
44  ,2.932e+08   ,-2.4  ,2  ,5
45  ,2.902e+08   ,-2.4  ,1.8  ,5
46  ,3.169e+08   ,-2.4  ,1.6  ,5
47  ,3.399e+08   ,-2.4  ,1.4  ,5
48  ,4.363e+08   ,-2.4  ,1.2  ,5
49  ,4.851e+08   ,-2.4  ,1  ,5
50  ,6.674e+08   ,-2.4  ,0.8  ,5
51  ,5.482e+08   ,-2.4  ,0.6  ,5
52  ,4.464e+08   ,-2.4  ,0.4  ,5
53  ,4.147e+08   ,-2.4  ,0.2  ,5
54  ,3.606e+08   ,-2.4  ,5.8879E-16  ,5
55  ,3.323e+08   ,-2.4  ,-0.2  ,5
56  ,3.510e+08   ,-2.4  ,-0.4  ,5
57  ,3.306e+08   ,-2.4  ,-0.6  ,5
58  ,3.396e+08   ,-2.4  ,-0.8  ,5
59  ,3.895e+08   ,-2.4  ,-1  ,5
60  ,3.330e+08   ,-2.4  ,-1.2  ,5
61  ,4.905e+08   ,-2.4  ,-1.4  ,5
62  ,4.063e+08   ,-2.4  ,-1.6  ,5
63  ,3.499e+08   ,-2.4  ,-1.8  ,5
64  ,4.592e+08   ,-2.4  ,-2  ,5
65  ,4.570e+08   ,-2.4  ,-2.2  ,5
66  ,9.924e+08   ,-2.2  ,-2.4  ,5
67  ,1.014e+09   ,-2  ,-2.4  ,5
68  ,9.764e+08   ,-1.8  ,-2.4  ,5
69  ,7.246e+08   ,-1.6  ,-2.4  ,5
70  ,4.631e+08   ,-1.4  ,-2.4  ,5
71  ,3.234e+08   ,-1.2  ,-2.4  ,5
72  ,2.778e+08   ,-1  ,-2.4  ,5
73  ,3.059e+08   ,-0.8  ,-2.4  ,5
74  ,3.634e+08   ,-0.6  ,-2.4  ,5
75  ,3.403e+08   ,-0.4  ,-2.4  ,5
76  ,1.463e+08   ,-0.2  ,-2.4  ,5
77  ,3.083e+08   ,-5.8879E-16  ,-2.4  ,5
78  ,7.032e+08   ,0.2  ,-2.4  ,5
79  ,1.004e+09   ,0.4  ,-2.4  ,5
80  ,1.402e+09   ,0.6  ,-2.4  ,5
81  ,1.437e+09   ,0.8  ,-2.4  ,5
82  ,1.353e+09   ,1  ,-2.4  ,5
83  ,1.196e+09   ,1.2  ,-2.4  ,5
84  ,1.029e+09   ,1.4  ,-2.4  ,5
85  ,5.804e+08   ,1.6  ,-2.4  ,5
86  ,2.666e+08   ,1.8  ,-2.4  ,5
87  ,6.896e+08   ,2  ,-2.4  ,5
88  ,1.989e+09   ,2.2  ,-2.4  ,5
89  ,1.042e+09   ,2.4  ,-2.2029  ,5
90  ,1.171e+09   ,2.4  ,-2.0058  ,5
91  ,9.009e+08   ,2.4  ,-1.8087  ,5
92  ,8.146e+08   ,2.4  ,-1.6116  ,5
93  ,8.871e+08   ,2.4  ,-1.4145  ,5
94  ,7.328e+08   ,2.4  ,-1.2175  ,5
95  ,7.777e+08   ,2.4  ,-1.0204  ,5
96  ,8.251e+08   ,2.4  ,-0.82327  ,5
97  ,8.063e+08   ,2.4  ,-0.62618  ,5
98  ,6.526e+08   ,2.4  ,-0.42909  ,5
99  ,6.478e+08   ,2.4  ,-0.232  ,5
100  ,6.231e+08   ,2.4  ,-0.034907  ,5
101  ,6.532e+08   ,2.4  ,0.16218  ,5
102  ,7.113e+08   ,2.4  ,0.35927  ,5
103  ,8.827e+08   ,2.4  ,0.55637  ,5
104  ,8.948e+08   ,2.4  ,0.75346  ,5
105  ,7.689e+08   ,2.4  ,0.95055  ,5
106  ,8.578e+08   ,2.4  ,1.1476  ,5
107  ,1.387e+09   ,2.4  ,1.3447  ,5
108  ,2.078e+09   ,2.4  ,1.5418  ,5
109  ,2.749e+09   ,2.4  ,1.7389  ,5
110  ,4.487e+09   ,2.4  ,1.936  ,5
111  ,6.164e+09   ,2.2665  ,2.2665  ,5
112  ,4.852e+09   ,1.936  ,2.4  ,5
113  ,2.981e+09   ,1.7389  ,2.4  ,5
114  ,2.420e+09   ,1.5418  ,2.4  ,5
115  ,1.743e+09   ,1.3447  ,2.4  ,5
116  ,1.477e+09   ,1.1476  ,2.4  ,5
117  ,1.415e+09   ,0.95055  ,2.4  ,5
118  ,1.362e+09   ,0.75346  ,2.4  ,5
119  ,1.354e+09   ,0.55637  ,2.4  ,5
120  ,1.099e+09   ,0.35927  ,2.4  ,5
121  ,1.026e+09   ,0.16218  ,2.4  ,5
122  ,9.551e+08   ,-0.034907  ,2.4  ,5
123  ,9.632e+08   ,-0.232  ,2.4  ,5
124  ,9.226e+08   ,-0.42909  ,2.4  ,5
125  ,8.552e+08   ,-0.62618  ,2.4  ,5
126  ,9.949e+08   ,-0.82327  ,2.4  ,5
127  ,8.565e+08   ,-1.0204  ,2.4  ,5
128  ,7.829e+08   ,-1.2175  ,2.4  ,5
129  ,6.534e+08   ,-1.4145  ,2.4  ,5
130  ,4.387e+08   ,-1.6116  ,2.4  ,5
131  ,2.862e+08   ,-1.8087  ,2.4  ,5
132  ,2.245e+08   ,-2.0058  ,2.4  ,5
133  ,1.845e+08   ,-2.2029  ,2.4  ,5
294  ,9.181e+08   ,2.5  ,-2.2029  ,4.9
295  ,1.133e+09   ,2.5  ,-2.0058  ,4.9
296  ,9.235e+08   ,2.5  ,-1.8087  ,4.9
297  ,9.195e+08   ,2.5  ,-1.6116  ,4.9
298  ,7.445e+08   ,2.5  ,-1.4145  ,4.9
299  ,7.418e+08   ,2.5  ,-1.2175  ,4.9
300  ,8.109e+08   ,2.5  ,-1.0204  ,4.9
301  ,6.283e+08   ,2.5  ,-0.82327  ,4.9
302  ,7.045e+08   ,2.5  ,-0.62618  ,4.9
303  ,6.593e+08   ,2.5  ,-0.42909  ,4.9
304  ,7.952e+08   ,2.5  ,-0.232  ,4.9
305  ,9.116e+08   ,2.5  ,-0.034907  ,4.9
306  ,8.076e+08   ,2.5  ,0.16218  ,4.9
307  ,7.222e+08   ,2.5  ,0.35927  ,4.9
308  ,8.339e+08   ,2.5  ,0.55637  ,4.9
309  ,8.253e+08   ,2.5  ,0.75346  ,4.9
310  ,8.367e+08   ,2.5  ,0.95055  ,4.9
311  ,1.119e+09   ,2.5  ,1.1476  ,4.9
312  ,1.512e+09   ,2.5  ,1.3447  ,4.9
313  ,2.033e+09   ,2.5  ,1.5418  ,4.9
314  ,3.230e+09   ,2.5  ,1.7389  ,4.9
315  ,4.810e+09   ,2.5  ,1.936  ,4.9
316  ,1.984e+09   ,2.5  ,-2.4  ,4.7
317  ,6.724e+08   ,2.5  ,-2.4  ,4.5
318  ,3.141e+08   ,2.5  ,-2.4  ,4.3
319  ,6.182e+08   ,2.5  ,-2.4  ,4.1
320  ,9.634e+08   ,2.5  ,-2.4  ,3.9
321  ,1.217e+09   ,2.5  ,-2.4  ,3.7
322  ,1.384e+09   ,2.5  ,-2.4  ,3.5
323  ,1.448e+09   ,2.5  ,-2.4  ,3.3
324  ,1.370e+09   ,2.5  ,-2.4  ,3.1
325  ,1.039e+09   ,2.5  ,-2.4  ,2.9
326  ,6.812e+08   ,2.5  ,-2.4  ,2.7
327  ,2.437e+08   ,2.5  ,-2.4  ,2.5
328  ,5.777e+07   ,2.5  ,-2.4  ,2.3
329  ,3.258e+08   ,2.5  ,-2.4  ,2.1
330  ,3.429e+08   ,2.5  ,-2.4  ,1.9
331  ,2.858e+08   ,2.5  ,-2.4  ,1.7
332  ,2.817e+08   ,2.5  ,-2.4  ,1.5
333  ,3.280e+08   ,2.5  ,-2.4  ,1.3
334  ,4.169e+08   ,2.5  ,-2.4  ,1.1
335  ,6.386e+08   ,2.5  ,-2.4  ,0.9
336  ,9.229e+08   ,2.5  ,-2.4  ,0.7
337  ,9.348e+08   ,2.5  ,-2.4  ,0.5
338  ,9.346e+08   ,2.5  ,-2.4  ,0.3
339  ,4.331e+08   ,2.5  ,-2.2  ,0.1
340  ,4.705e+08   ,2.5  ,-2  ,0.1
341  ,3.656e+08   ,2.5  ,-1.8  ,0.1
342  ,3.640e+08   ,2.5  ,-1.6  ,0.1
343  ,3.129e+08   ,2.5  ,-1.4  ,0.1
344  ,3.374e+08   ,2.5  ,-1.2  ,0.1
345  ,3.721e+08   ,2.5  ,-1  ,0.1
346  ,3.043e+08   ,2.5  ,-0.8  ,0.1
347  ,3.473e+08   ,2.5  ,-0.6  ,0.1
348  ,3.796e+08   ,2.5  ,-0.4  ,0.1
349  ,3.539e+08   ,2.5  ,-0.2  ,0.1
350  ,3.622e+08   ,2.5  ,-1.7664E-15  ,0.1
351  ,3.756e+08   ,2.5  ,0.2  ,0.1
352  ,4.601e+08   ,2.5  ,0.4  ,0.1
353  ,4.738e+08   ,2.5  ,0.6  ,0.1
354  ,5.515e+08   ,2.5  ,0.8  ,0.1
355  ,4.090e+08   ,2.5  ,1  ,0.1
356  ,3.856e+08   ,2.5  ,1.2  ,0.1
357  ,3.597e+08   ,2.5  ,1.4  ,0.1
358  ,3.434e+08   ,2.5  ,1.6  ,0.1
359  ,2.459e+08   ,2.5  ,1.8  ,0.1
360  ,2.247e+08   ,2.5  ,2  ,0.1
361  ,2.354e+08   ,2.5  ,2.2  ,0.1
362  ,4.836e+09   ,2.5  ,2.4  ,4.436
363  ,3.334e+09   ,2.5  ,2.4  ,4.2389
364  ,2.298e+09   ,2.5  ,2.4  ,4.0418
365  ,1.821e+09   ,2.5  ,2.4  ,3.8447
366  ,1.437e+09   ,2.5  ,2.4  ,3.6476
367  ,1.369e+09   ,2.5  ,2.4  ,3.4505
368  ,1.420e+09   ,2.5  ,2.4  ,3.2535
369  ,1.349e+09   ,2.5  ,2.4  ,3.0564
370  ,1.173e+09   ,2.5  ,2.4  ,2.8593
371  ,1.083e+09   ,2.5  ,2.4  ,2.6622
372  ,1.071e+09   ,2.5  ,2.4  ,2.4651
373  ,9.495e+08   ,2.5  ,2.4  ,2.268
374  ,9.470e+08   ,2.5  ,2.4  ,2.0709
375  ,9.296e+08   ,2.5  ,2.4  ,1.8738
376  ,9.466e+08   ,2.5  ,2.4  ,1.6767
377  ,6.378e+08   ,2.5  ,2.4  ,1.4796
378  ,6.490e+08   ,2.5  ,2.4  ,1.2825
379  ,5.980e+08   ,2.5  ,2.4  ,1.0855
380  ,5.593e+08   ,2.5  ,2.4  ,0.88836
381  ,4.343e+08   ,2.5  ,2.4  ,0.69127
382  ,2.449e+08   ,2.5  ,2.4  ,0.49418
383  ,1.982e+08   ,2.5  ,2.4  ,0.29709
384  ,6.234e+09   ,2.5  ,2.2665  ,4.7665
544  ,1.953e+08   ,2.2  ,2.5  ,0.1
545  ,2.738e+08   ,2  ,2.5  ,0.1
546  ,2.992e+08   ,1.8  ,2.5  ,0.1
547  ,3.385e+08   ,1.6  ,2.5  ,0.1
548  ,3.477e+08   ,1.4  ,2.5  ,0.1
549  ,4.429e+08   ,1.2  ,2.5  ,0.1
550  ,5.473e+08   ,1  ,2.5  ,0.1
551  ,7.747e+08   ,0.8  ,2.5  ,0.1
552  ,7.716e+08   ,0.6  ,2.5  ,0.1
553  ,7.544e+08   ,0.4  ,2.5  ,0.1
554  ,7.833e+08   ,0.2  ,2.5  ,0.1
555  ,6.962e+08   ,5.8879E-16  ,2.5  ,0.1
556  ,4.086e+08   ,-0.2  ,2.5  ,0.1
557  ,5.143e+08   ,-0.4  ,2.5  ,0.1
558  ,5.918e+08   ,-0.6  ,2.5  ,0.1
559  ,7.041e+08   ,-0.8  ,2.5  ,0.1
560  ,7.115e+08   ,-1  ,2.5  ,0.1
561  ,6.915e+08   ,-1.2  ,2.5  ,0.1
562  ,6.322e+08   ,-1.4  ,2.5  ,0.1
563  ,6.112e+08   ,-1.6  ,2.5  ,0.1
564  ,5.651e+08   ,-1.8  ,2.5  ,0.1
565  ,4.838e+08   ,-2  ,2.5  ,0.1
566  ,4.027e+08   ,-2.2  ,2.5  ,0.1
567  ,2.084e+08   ,-2.4  ,2.5  ,4.7
568  ,2.935e+08   ,-2.4  ,2.5  ,4.5
569  ,3.103e+08   ,-2.4  ,2.5  ,4.3
570  ,3.418e+08   ,-2.4  ,2.5  ,4.1
571  ,3.627e+08   ,-2.4  ,2.5  ,3.9
572  ,4.055e+08   ,-2.4  ,2.5  ,3.7
573  ,5.038e+08   ,-2.4  ,2.5  ,3.5
574  ,7.291e+08   ,-2.4  ,2.5  ,3.3
575  ,6.754e+08   ,-2.4  ,2.5  ,3.1
576  ,6.261e+08   ,-2.4  ,2.5  ,2.9
577  ,6.298e+08   ,-2.4  ,2.5  ,2.7
578  ,6.123e+08   ,-2.4  ,2.5  ,2.5
579  ,5.895e+08   ,-2.4  ,2.5  ,2.3
580  ,6.016e+08   ,-2.4  ,2.5  ,2.1
581  ,6.193e+08   ,-2.4  ,2.5  ,1.9
582  ,6.739e+08   ,-2.4  ,2.5  ,1.7
583  ,6.918e+08   ,-2.4  ,2.5  ,1.5
584  ,6.942e+08   ,-2.4  ,2.5  ,1.3
585  ,6.559e+08   ,-2.4  ,2.5  ,1.1
586  ,6.326e+08   ,-2.4  ,2.5  ,0.9
587  ,5.574e+08   ,-2.4  ,2.5  ,0.7
588  ,4.994e+08   ,-2.4  ,2.5  ,0.5
589  ,4.147e+08   ,-2.4  ,2.5  ,0.3
590  ,5.404e+09   ,1.936  ,2.5  ,4.9
591  ,2.822e+09   ,1.7389  ,2.5  ,4.9
592  ,2.243e+09   ,1.5418  ,2.5  ,4.9
593  ,1.828e+09   ,1.3447  ,2.5  ,4.9
594  ,1.381e+09   ,1.1476  ,2.5  ,4.9
595  ,1.443e+09   ,0.95055  ,2.5  ,4.9
596  ,1.471e+09   ,0.75346  ,2.5  ,4.9
597  ,1.296e+09   ,0.55637  ,2.5  ,4.9
598  ,1.184e+09   ,0.35927  ,2.5  ,4.9
599  ,1.011e+09   ,0.16218  ,2.5  ,4.9
600  ,9.288e+08   ,-0.034907  ,2.5  ,4.9
601  ,8.626e+08   ,-0.232  ,2.5  ,4.9
602  ,9.973e+08   ,-0.42909  ,2.5  ,4.9
603  ,1.060e+09   ,-0.62618  ,2.5  ,4.9
604  ,1.004e+09   ,-0.82327  ,2.5  ,4.9
605  ,9.425e+08   ,-1.0204  ,2.5  ,4.9
606  ,8.563e+08   ,-1.2175  ,2.5  ,4.9
607  ,6.522e+08   ,-1.4145  ,2.5  ,4.9
608  ,4.915e+08   ,-1.6116  ,2.5  ,4.9
609  ,3.314e+08   ,-1.8087  ,2.5  ,4.9
610  ,1.876e+08   ,-2.0058  ,2.5  ,4.9
611  ,1.278e+08   ,-2.2029  ,2.5  ,4.9
612  ,6.758e+09   ,2.2665  ,2.5  ,4.7665
613  ,4.650e+09   ,2.4  ,2.5  ,4.436
614  ,3.058e+09   ,2.4  ,2.5  ,4.2389
615  ,2.277e+09   ,2.4  ,2.5  ,4.0418
616  ,1.749e+09   ,2.4  ,2.5  ,3.8447
617  ,1.493e+09   ,2.4  ,2.5  ,3.6476
618  ,1.355e+09   ,2.4  ,2.5  ,3.4505
619  ,1.405e+09   ,2.4  ,2.5  ,3.2535
620  ,1.379e+09   ,2.4  ,2.5  ,3.0564
621  ,1.160e+09   ,2.4  ,2.5  ,2.8593
622  ,1.073e+09   ,2.4  ,2.5  ,2.6622
623  ,9.595e+08   ,2.4  ,2.5  ,2.4651
624  ,9.009e+08   ,2.4  ,2.5  ,2.268
625  ,9.096e+08   ,2.4  ,2.5  ,2.0709
626  ,9.507e+08   ,2.4  ,2.5  ,1.8738
627  ,9.578e+08   ,2.4  ,2.5  ,1.6767
628  ,9.696e+08   ,2.4  ,2.5  ,1.4796
629  ,9.395e+08   ,2.4  ,2.5  ,1.2825
630  ,6.616e+08   ,2.4  ,2.5  ,1.0855
631  ,5.033e+08   ,2.4  ,2.5  ,0.88836
632  ,3.385e+08   ,2.4  ,2.5  ,0.69127
633  ,2.569e+08   ,2.4  ,2.5  ,0.49418
634  ,1.692e+08   ,2.4  ,2.5  ,0.29709
796  ,1.997e+08   ,-2.5  ,2.2  ,0.1
797  ,3.758e+08   ,-2.5  ,2  ,0.1
798  ,4.778e+08   ,-2.5  ,1.8  ,0.1
799  ,5.550e+08   ,-2.5  ,1.6  ,0.1
800  ,6.135e+08   ,-2.5  ,1.4  ,0.1
801  ,6.528e+08   ,-2.5  ,1.2  ,0.1
802  ,6.988e+08   ,-2.5  ,1  ,0.1
803  ,6.935e+08   ,-2.5  ,0.8  ,0.1
804  ,6.705e+08   ,-2.5  ,0.6  ,0.1
805  ,6.712e+08   ,-2.5  ,0.4  ,0.1
806  ,6.377e+08   ,-2.5  ,0.2  ,0.1
807  ,6.525e+08   ,-2.5  ,5.8879E-16  ,0.1
808  ,7.085e+08   ,-2.5  ,-0.2  ,0.1
809  ,7.462e+08   ,-2.5  ,-0.4  ,0.1
810  ,6.366e+08   ,-2.5  ,-0.6  ,0.1
811  ,4.961e+08   ,-2.5  ,-0.8  ,0.1
812  ,4.005e+08   ,-2.5  ,-1  ,0.1
813  ,2.701e+08   ,-2.5  ,-1.2  ,0.1
814  ,2.304e+08   ,-2.5  ,-1.4  ,0.1
815  ,1.648e+08   ,-2.5  ,-1.6  ,0.1
816  ,1.484e+08   ,-2.5  ,-1.8  ,0.1
817  ,2.544e+08   ,-2.5  ,-2  ,0.1
818  ,3.252e+08   ,-2.5  ,-2.2  ,0.1
819  ,6.437e+08   ,-2.5  ,-2.4  ,4.7
820  ,4.321e+08   ,-2.5  ,-2.4  ,4.5
821  ,5.975e+08   ,-2.5  ,-2.4  ,4.3
822  ,8.835e+08   ,-2.5  ,-2.4  ,4.1
823  ,9.879e+08   ,-2.5  ,-2.4  ,3.9
824  ,1.012e+09   ,-2.5  ,-2.4  ,3.7
825  ,1.105e+09   ,-2.5  ,-2.4  ,3.5
826  ,1.009e+09   ,-2.5  ,-2.4  ,3.3
827  ,9.799e+08   ,-2.5  ,-2.4  ,3.1
828  ,7.425e+08   ,-2.5  ,-2.4  ,2.9
829  ,5.131e+08   ,-2.5  ,-2.4  ,2.7
830  ,2.863e+08   ,-2.5  ,-2.4  ,2.5
831  ,1.113e+08   ,-2.5  ,-2.4  ,2.3
832  ,9.601e+07   ,-2.5  ,-2.4  ,2.1
833  ,2.195e+08   ,-2.5  ,-2.4  ,1.9
834  ,3.005e+08   ,-2.5  ,-2.4  ,1.7
835  ,4.244e+08   ,-2.5  ,-2.4  ,1.5
836  ,4.954e+08   ,-2.5  ,-2.4  ,1.3
837  ,5.370e+08   ,-2.5  ,-2.4  ,1.1
838  ,5.628e+08   ,-2.5  ,-2.4  ,0.9
839  ,5.168e+08   ,-2.5  ,-2.4  ,0.7
840  ,4.103e+08   ,-2.5  ,-2.4  ,0.5
841  ,5.842e+08   ,-2.5  ,-2.4  ,0.3
842  ,1.873e+08   ,-2.5  ,2.2  ,4.9
843  ,2.709e+08   ,-2.5  ,2  ,4.9
844  ,2.980e+08   ,-2.5  ,1.8  ,4.9
845  ,3.159e+08   ,-2.5  ,1.6  ,4.9
846  ,3.147e+08   ,-2.5  ,1.4  ,4.9
847  ,3.606e+08   ,-2.5  ,1.2  ,4.9
848  ,4.017e+08   ,-2.5  ,1  ,4.9
849  ,5.703e+08   ,-2.5  ,0.8  ,4.9
850  ,4.680e+08   ,-2.5  ,0.6  ,4.9
851  ,4.207e+08   ,-2.5  ,0.4  ,4.9
852  ,4.034e+08   ,-2.5  ,0.2  ,4.9
853  ,3.690e+08   ,-2.5  ,5.8879E-16  ,4.9
854  ,3.132e+08   ,-2.5  ,-0.2  ,4.9
855  ,2.700e+08   ,-2.5  ,-0.4  ,4.9
856  ,2.466e+08   ,-2.5  ,-0.6  ,4.9
857  ,2.762e+08   ,-2.5  ,-0.8  ,4.9
858  ,3.196e+08   ,-2.5  ,-1  ,4.9
859  ,3.100e+08   ,-2.5  ,-1.2  ,4.9
860  ,2.847e+08   ,-2.5  ,-1.4  ,4.9
861  ,2.583e+08   ,-2.5  ,-1.6  ,4.9
862  ,3.068e+08   ,-2.5  ,-1.8  ,4.9
863  ,4.154e+08   ,-2.5  ,-2  ,4.9
864  ,4.558e+08   ,-2.5  ,-2.2  ,4.9
865  ,2.137e+08   ,-2.5  ,2.4  ,4.7
866  ,3.110e+08   ,-2.5  ,2.4  ,4.5
867  ,3.690e+08   ,-2.5  ,2.4  ,4.3
868  ,3.444e+08   ,-2.5  ,2.4  ,4.1
869  ,4.483e+08   ,-2.5  ,2.4  ,3.9
870  ,4.856e+08   ,-2.5  ,2.4  ,3.7
871  ,5.594e+08   ,-2.5  ,2.4  ,3.5
872  ,6.797e+08   ,-2.5  ,2.4  ,3.3
873  ,6.402e+08   ,-2.5  ,2.4  ,3.1
874  ,5.921e+08   ,-2.5  ,2.4  ,2.9
875  ,5.891e+08   ,-2.5  ,2.4  ,2.7
876  ,5.966e+08   ,-2.5  ,2.4  ,2.5
877  ,5.897e+08   ,-2.5  ,2.4  ,2.3
878  ,5.995e+08   ,-2.5  ,2.4  ,2.1
879  ,6.044e+08   ,-2.5  ,2.4  ,1.9
880  ,6.263e+08   ,-2.5  ,2.4  ,1.7
881  ,6.052e+08   ,-2.5  ,2.4  ,1.5
882  ,6.174e+08   ,-2.5  ,2.4  ,1.3
883  ,5.731e+08   ,-2.5  ,2.4  ,1.1
884  ,5.516e+08   ,-2.5  ,2.4  ,0.9
885  ,4.674e+08   ,-2.5  ,2.4  ,0.7
886  ,4.067e+08   ,-2.5  ,2.4  ,0.5
887  ,2.686e+08   ,-2.5  ,2.4  ,0.3
1044  ,5.791e+08   ,-2.3  ,-2.5  ,0.44697
1045  ,1.385e+08   ,-2.3  ,-2.5  ,0.68705
1046  ,4.474e+07   ,-2.3  ,-2.5  ,0.92554
1047  ,3.026e+07   ,-2.3  ,-2.5  ,1.1682
1048  ,1.513e+08   ,-2.3  ,-2.5  ,1.4148
1049  ,3.595e+08   ,-2.3  ,-2.5  ,1.6581
1050  ,5.633e+08   ,-2.3  ,-2.5  ,1.8967
1051  ,6.389e+08   ,-2.3  ,-2.5  ,2.1357
1052  ,5.245e+08   ,-2.3  ,-2.5  ,2.3794
1053  ,2.980e+08   ,-2.3  ,-2.5  ,2.6206
1054  ,7.799e+07   ,-2.3  ,-2.5  ,2.8643
1055  ,2.228e+08   ,-2.3  ,-2.5  ,3.1033
1056  ,4.036e+08   ,-2.3  ,-2.5  ,3.342
1057  ,5.366e+08   ,-2.3  ,-2.5  ,3.5852
1058  ,6.205e+08   ,-2.3  ,-2.5  ,3.8318
1059  ,5.971e+08   ,-2.3  ,-2.5  ,4.0745
1060  ,4.419e+08   ,-2.3  ,-2.5  ,4.3129
1061  ,3.564e+08   ,-2.3  ,-2.5  ,4.553
1062  ,1.229e+09   ,-2.053  ,-2.5  ,4.8
1063  ,9.825e+08   ,-1.8129  ,-2.5  ,4.8
1064  ,6.975e+08   ,-1.5745  ,-2.5  ,4.8
1065  ,2.538e+08   ,-1.3318  ,-2.5  ,4.8
1066  ,1.006e+08   ,-1.0852  ,-2.5  ,4.8
1067  ,2.914e+08   ,-0.84195  ,-2.5  ,4.8
1068  ,6.016e+08   ,-0.60329  ,-2.5  ,4.8
1069  ,7.972e+08   ,-0.3643  ,-2.5  ,4.8
1070  ,6.973e+08   ,-0.12055  ,-2.5  ,4.8
1071  ,3.591e+08   ,0.12056  ,-2.5  ,4.8
1072  ,1.743e+08   ,0.3643  ,-2.5  ,4.8
1073  ,3.667e+08   ,0.6033  ,-2.5  ,4.8
1074  ,3.324e+08   ,0.84195  ,-2.5  ,4.8
1075  ,2.278e+08   ,1.0852  ,-2.5  ,4.8
1076  ,1.489e+08   ,1.3318  ,-2.5  ,4.8
1077  ,2.435e+08   ,1.5745  ,-2.5  ,4.8
1078  ,6.882e+08   ,1.8129  ,-2.5  ,4.8
1079  ,1.663e+09   ,2.053  ,-2.5  ,4.8
1080  ,1.678e+09   ,2.3  ,-2.5  ,4.553
1081  ,6.865e+08   ,2.3  ,-2.5  ,4.3129
1082  ,2.311e+08   ,2.3  ,-2.5  ,4.0745
1083  ,1.986e+08   ,2.3  ,-2.5  ,3.8318
1084  ,2.653e+08   ,2.3  ,-2.5  ,3.5852
1085  ,3.321e+08   ,2.3  ,-2.5  ,3.3419
1086  ,3.063e+08   ,2.3  ,-2.5  ,3.1033
1087  ,1.854e+08   ,2.3  ,-2.5  ,2.8643
1088  ,4.310e+08   ,2.3  ,-2.5  ,2.6206
1089  ,7.076e+08   ,2.3  ,-2.5  ,2.3794
1090  ,7.664e+08   ,2.3  ,-2.5  ,2.1357
1091  ,5.404e+08   ,2.3  ,-2.5  ,1.8967
1092  ,2.214e+08   ,2.3  ,-2.5  ,1.658
1093  ,6.214e+07   ,2.3  ,-2.5  ,1.4148
1094  ,2.287e+08   ,2.3  ,-2.5  ,1.1682
1095  ,6.374e+08   ,2.3  ,-2.5  ,0.92554
1096  ,9.808e+08   ,2.3  ,-2.5  ,0.68705
1097  ,1.162e+09   ,2.3  ,-2.5  ,0.44697
1098  ,4.526e+08   ,-2.053  ,-2.5  ,0.2
1099  ,2.106e+08   ,-1.8129  ,-2.5  ,0.2
1100  ,9.877e+07   ,-1.5745  ,-2.5  ,0.2
1101  ,4.085e+07   ,-1.3318  ,-2.5  ,0.2
1102  ,1.369e+08   ,-1.0852  ,-2.5  ,0.2
1103  ,3.977e+08   ,-0.84195  ,-2.5  ,0.2
1104  ,5.732e+08   ,-0.60329  ,-2.5  ,0.2
1105  ,6.185e+08   ,-0.3643  ,-2.5  ,0.2
1106  ,5.259e+08   ,-0.12055  ,-2.5  ,0.2
1107  ,3.215e+08   ,0.12056  ,-2.5  ,0.2
1108  ,1.462e+08   ,0.3643  ,-2.5  ,0.2
1109  ,2.745e+08   ,0.6033  ,-2.5  ,0.2
1110  ,4.490e+08   ,0.84195  ,-2.5  ,0.2
1111  ,5.352e+08   ,1.0852  ,-2.5  ,0.2
1112  ,5.831e+08   ,1.3318  ,-2.5  ,0.2
1113  ,5.982e+08   ,1.5745  ,-2.5  ,0.2
1114  ,4.466e+08   ,1.8129  ,-2.5  ,0.2
1115  ,4.369e+08   ,2.053  ,-2.5  ,0.2
1116  ,4.307e+08   ,-2.2  ,-2.5  ,4.9
1117  ,6.834e+07   ,-2  ,-2.5  ,4.9
1118  ,1.573e+08   ,-1.8  ,-2.5  ,4.9
1119  ,2.456e+08   ,-1.6  ,-2.5  ,4.9
1120  ,2.537e+08   ,-1.4  ,-2.5  ,4.9
1121  ,2.078e+08   ,-1.2  ,-2.5  ,4.9
1122  ,2.397e+08   ,-1  ,-2.5  ,4.9
1123  ,3.324e+08   ,-0.8  ,-2.5  ,4.9
1124  ,2.715e+08   ,-0.6  ,-2.5  ,4.9
1125  ,2.696e+08   ,-0.4  ,-2.5  ,4.9
1126  ,3.271e+08   ,-0.2  ,-2.5  ,4.9
1127  ,5.152e+08   ,-1.7664E-15  ,-2.5  ,4.9
1128  ,5.343e+08   ,0.2  ,-2.5  ,4.9
1129  ,5.919e+08   ,0.4  ,-2.5  ,4.9
1130  ,5.202e+08   ,0.6  ,-2.5  ,4.9
1131  ,6.477e+08   ,0.8  ,-2.5  ,4.9
1132  ,6.498e+08   ,1  ,-2.5  ,4.9
1133  ,6.874e+08   ,1.2  ,-2.5  ,4.9
1134  ,5.289e+08   ,1.4  ,-2.5  ,4.9
1135  ,5.321e+08   ,1.6  ,-2.5  ,4.9
1136  ,5.355e+08   ,1.8  ,-2.5  ,4.9
1137  ,5.009e+08   ,2  ,-2.5  ,4.9
1138  ,4.242e+08   ,2.2  ,-2.5  ,4.9
1139  ,6.982e+08   ,-2.4  ,-2.5  ,4.7
1140  ,5.714e+08   ,-2.4  ,-2.5  ,4.5
1141  ,4.217e+08   ,-2.4  ,-2.5  ,4.3
1142  ,2.412e+08   ,-2.4  ,-2.5  ,4.1
1143  ,2.316e+08   ,-2.4  ,-2.5  ,3.9
1144  ,3.421e+08   ,-2.4  ,-2.5  ,3.7
1145  ,2.635e+08   ,-2.4  ,-2.5  ,3.5
1146  ,4.204e+08   ,-2.4  ,-2.5  ,3.3
1147  ,3.739e+08   ,-2.4  ,-2.5  ,3.1
1148  ,4.298e+08   ,-2.4  ,-2.5  ,2.9
1149  ,4.226e+08   ,-2.4  ,-2.5  ,2.7
1150  ,3.963e+08   ,-2.4  ,-2.5  ,2.5
1151  ,2.970e+08   ,-2.4  ,-2.5  ,2.3
1152  ,3.439e+08   ,-2.4  ,-2.5  ,2.1
1153  ,3.464e+08   ,-2.4  ,-2.5  ,1.9
1154  ,3.863e+08   ,-2.4  ,-2.5  ,1.7
1155  ,3.438e+08   ,-2.4  ,-2.5  ,1.5
1156  ,3.550e+08   ,-2.4  ,-2.5  ,1.3
1157  ,2.990e+08   ,-2.4  ,-2.5  ,1.1
1158  ,2.991e+08   ,-2.4  ,-2.5  ,0.9
1159  ,3.781e+08   ,-2.4  ,-2.5  ,0.7
1160  ,4.748e+08   ,-2.4  ,-2.5  ,0.5
1161  ,5.343e+08   ,-2.4  ,-2.5  ,0.3
1162  ,5.287e+08   ,-2.2  ,-2.5  ,0.1
1163  ,5.182e+08   ,-2  ,-2.5  ,0.1
1164  ,4.054e+08   ,-1.8  ,-2.5  ,0.1
1165  ,3.074e+08   ,-1.6  ,-2.5  ,0.1
1166  ,2.886e+08   ,-1.4  ,-2.5  ,0.1
1167  ,3.321e+08   ,-1.2  ,-2.5  ,0.1
1168  ,3.610e+08   ,-1  ,-2.5  ,0.1
1169  ,3.921e+08   ,-0.8  ,-2.5  ,0.1
1170  ,3.392e+08   ,-0.6  ,-2.5  ,0.1
1171  ,3.007e+08   ,-0.4  ,-2.5  ,0.1
1172  ,3.011e+08   ,-0.2  ,-2.5  ,0.1
1173  ,3.650e+08   ,-1.7664E-15  ,-2.5  ,0.1
1174  ,4.178e+08   ,0.2  ,-2.5  ,0.1
1175  ,4.336e+08   ,0.4  ,-2.5  ,0.1
1176  ,4.766e+08   ,0.6  ,-2.5  ,0.1
1177  ,3.451e+08   ,0.8  ,-2.5  ,0.1
1178  ,3.554e+08   ,1  ,-2.5  ,0.1
1179  ,3.411e+08   ,1.2  ,-2.5  ,0.1
1180  ,2.632e+08   ,1.4  ,-2.5  ,0.1
1181  ,3.072e+08   ,1.6  ,-2.5  ,0.1
1182  ,4.465e+08   ,1.8  ,-2.5  ,0.1
1183  ,5.394e+08   ,2  ,-2.5  ,0.1
1184  ,6.242e+08   ,2.2  ,-2.5  ,0.1
1185  ,4.232e+08   ,2.4  ,-2.5  ,4.7
1186  ,5.089e+08   ,2.4  ,-2.5  ,4.5
1187  ,5.547e+08   ,2.4  ,-2.5  ,4.3
1188  ,5.604e+08   ,2.4  ,-2.5  ,4.1
1189  ,5.571e+08   ,2.4  ,-2.5  ,3.9
1190  ,5.842e+08   ,2.4  ,-2.5  ,3.7
1191  ,5.499e+08   ,2.4  ,-2.5  ,3.5
1192  ,6.432e+08   ,2.4  ,-2.5  ,3.3
1193  ,6.348e+08   ,2.4  ,-2.5  ,3.1
1194  ,6.362e+08   ,2.4  ,-2.5  ,2.9
1195  ,5.557e+08   ,2.4  ,-2.5  ,2.7
1196  ,4.850e+08   ,2.4  ,-2.5  ,2.5
1197  ,3.185e+08   ,2.4  ,-2.5  ,2.3
1198  ,2.571e+08   ,2.4  ,-2.5  ,2.1
1199  ,2.712e+08   ,2.4  ,-2.5  ,1.9
1200  ,3.040e+08   ,2.4  ,-2.5  ,1.7
1201  ,2.212e+08   ,2.4  ,-2.5  ,1.5
1202  ,1.967e+08   ,2.4  ,-2.5  ,1.3
1203  ,2.054e+08   ,2.4  ,-2.5  ,1.1
1204  ,2.080e+08   ,2.4  ,-2.5  ,0.9
1205  ,1.429e+08   ,2.4  ,-2.5  ,0.7
1206  ,1.579e+08   ,2.4  ,-2.5  ,0.5
1207  ,3.030e+08   ,2.4  ,-2.5  ,0.3
1208  ,4.310e+08   ,2.4  ,-2.2  ,0
1209  ,4.168e+08   ,2.4  ,-2  ,0
1210  ,3.298e+08   ,2.4  ,-1.8  ,0
1211  ,2.936e+08   ,2.4  ,-1.6  ,0
1212  ,3.356e+08   ,2.4  ,-1.4  ,0
1213  ,3.180e+08   ,2.4  ,-1.2  ,0
1214  ,3.358e+08   ,2.4  ,-1  ,0
1215  ,3.358e+08   ,2.4  ,-0.8  ,0
1216  ,2.637e+08   ,2.4  ,-0.6  ,0
1217  ,3.210e+08   ,2.4  ,-0.4  ,0
1218  ,3.230e+08   ,2.4  ,-0.2  ,0
1219  ,3.368e+08   ,2.4  ,-1.7664E-15  ,0
1220  ,4.050e+08   ,2.4  ,0.2  ,0
1221  ,3.850e+08   ,2.4  ,0.4  ,0
1222  ,4.248e+08   ,2.4  ,0.6  ,0
1223  ,4.614e+08   ,2.4  ,0.8  ,0
1224  ,3.759e+08   ,2.4  ,1  ,0
1225  ,3.470e+08   ,2.4  ,1.2  ,0
1226  ,3.241e+08   ,2.4  ,1.4  ,0
1227  ,2.607e+08   ,2.4  ,1.6  ,0
1228  ,3.149e+08   ,2.4  ,1.8  ,0
1229  ,2.924e+08   ,2.4  ,2  ,0
1230  ,2.353e+08   ,2.4  ,2.2  ,0
1231  ,5.079e+08   ,-2.2  ,-2.4  ,0
1232  ,3.199e+08   ,-2  ,-2.4  ,0
1233  ,5.047e+08   ,-1.8  ,-2.4  ,0
1234  ,5.596e+08   ,-1.6  ,-2.4  ,0
1235  ,5.438e+08   ,-1.4  ,-2.4  ,0
1236  ,5.157e+08   ,-1.2  ,-2.4  ,0
1237  ,3.912e+08   ,-1  ,-2.4  ,0
1238  ,3.035e+08   ,-0.8  ,-2.4  ,0
1239  ,2.288e+08   ,-0.6  ,-2.4  ,0
1240  ,1.044e+08   ,-0.4  ,-2.4  ,0
1241  ,8.519e+07   ,-0.2  ,-2.4  ,0
1242  ,2.733e+08   ,5.8879E-16  ,-2.4  ,0
1243  ,5.178e+08   ,0.2  ,-2.4  ,0
1244  ,7.853e+08   ,0.4  ,-2.4  ,0
1245  ,9.291e+08   ,0.6  ,-2.4  ,0
1246  ,1.135e+09   ,0.8  ,-2.4  ,0
1247  ,1.123e+09   ,1  ,-2.4  ,0
1248  ,1.131e+09   ,1.2  ,-2.4  ,0
1249  ,1.011e+09   ,1.4  ,-2.4  ,0
1250  ,8.360e+08   ,1.6  ,-2.4  ,0
1251  ,5.872e+08   ,1.8  ,-2.4  ,0
1252  ,4.782e+08   ,2  ,-2.4  ,0
1253  ,7.218e+08   ,2.2  ,-2.4  ,0
1254  ,2.059e+08   ,-2.4  ,2.2  ,0
1255  ,3.734e+08   ,-2.4  ,2  ,0
1256  ,4.934e+08   ,-2.4  ,1.8  ,0
1257  ,5.435e+08   ,-2.4  ,1.6  ,0
1258  ,6.084e+08   ,-2.4  ,1.4  ,0
1259  ,6.604e+08   ,-2.4  ,1.2  ,0
1260  ,6.866e+08   ,-2.4  ,1  ,0
1261  ,7.073e+08   ,-2.4  ,0.8  ,0
1262  ,6.628e+08   ,-2.4  ,0.6  ,0
1263  ,6.411e+08   ,-2.4  ,0.4  ,0
1264  ,6.366e+08   ,-2.4  ,0.2  ,0
1265  ,6.680e+08   ,-2.4  ,5.8879E-16  ,0
1266  ,7.102e+08   ,-2.4  ,-0.2  ,0
1267  ,7.394e+08   ,-2.4  ,-0.4  ,0
1268  ,6.565e+08   ,-2.4  ,-0.6  ,0
1269  ,5.238e+08   ,-2.4  ,-0.8  ,0
1270  ,4.130e+08   ,-2.4  ,-1  ,0
1271  ,2.808e+08   ,-2.4  ,-1.2  ,0
1272  ,1.951e+08   ,-2.4  ,-1.4  ,0
1273  ,1.616e+08   ,-2.4  ,-1.6  ,0
1274  ,1.758e+08   ,-2.4  ,-1.8  ,0
1275  ,2.697e+08   ,-2.4  ,-2  ,0
1276  ,3.018e+08   ,-2.4  ,-2.2  ,0
1277  ,2.219e+08   ,2.2  ,2.4  ,0
1278  ,3.239e+08   ,2  ,2.4  ,0
1279  ,3.725e+08   ,1.8  ,2.4  ,0
1280  ,3.468e+08   ,1.6  ,2.4  ,0
1281  ,3.935e+08   ,1.4  ,2.4  ,0
1282  ,5.109e+08   ,1.2  ,2.4  ,0
1283  ,6.085e+08   ,1  ,2.4  ,0
1284  ,6.839e+08   ,0.8  ,2.4  ,0
1285  ,6.861e+08   ,0.6  ,2.4  ,0
1286  ,6.113e+08   ,0.4  ,2.4  ,0
1287  ,6.300e+08   ,0.2  ,2.4  ,0
1288  ,5.859e+08   ,5.8879E-16  ,2.4  ,0
1289  ,6.463e+08   ,-0.2  ,2.4  ,0
1290  ,5.626e+08   ,-0.4  ,2.4  ,0
1291  ,6.172e+08   ,-0.6  ,2.4  ,0
1292  ,6.838e+08   ,-0.8  ,2.4  ,0
1293  ,6.141e+08   ,-1  ,2.4  ,0
1294  ,5.768e+08   ,-1.2  ,2.4  ,0
1295  ,5.509e+08   ,-1.4  ,2.4  ,0
1296  ,5.069e+08   ,-1.6  ,2.4  ,0
1297  ,4.496e+08   ,-1.8  ,2.4  ,0
1298  ,3.780e+08   ,-2  ,2.4  ,0
1299  ,2.814e+08   ,-2.2  ,2.4  ,0
1460  ,8.816e+09   ,2.3243  ,2.3243  ,4.9577
1461  ,8.357e+09   ,2.4577  ,2.3243  ,4.8243
1462  ,7.111e+09   ,2.3243  ,2.4577  ,4.8243
1463  ,6.344e+08   ,-2.3  ,-2.1759  ,4.8
1464  ,5.714e+08   ,-2.3  ,-1.7631  ,4.8
1465  ,6.010e+08   ,-2.3  ,-1.1827  ,4.8
1466  ,8.111e+08   ,-2.3  ,-0.34986  ,4.8
1467  ,1.054e+09   ,-2.3  ,0.80545  ,4.8
1468  ,9.986e+08   ,-0.81337  ,2.3  ,4.8
1469  ,1.754e+09   ,0.67326  ,2.3  ,4.8
1470  ,9.311e+08   ,2.3  ,-2.1824  ,4.8
1471  ,6.919e+08   ,2.3  ,-1.7784  ,4.8
1472  ,7.140e+08   ,2.3  ,-1.2138  ,4.8
1473  ,8.638e+08   ,2.3  ,-0.40752  ,4.8
1474  ,1.418e+09   ,2.3  ,0.70532  ,4.8
1516  ,1.005e+09   ,2.3  ,2.3  ,1.6866
1517  ,1.778e+09   ,2.3  ,2.3  ,3.1733
1518  ,6.527e+08   ,2.3  ,-2.1759  ,0.2
1519  ,5.730e+08   ,2.3  ,-1.7631  ,0.2
1520  ,6.072e+08   ,2.3  ,-1.1827  ,0.2
1521  ,7.985e+08   ,2.3  ,-0.34986  ,0.2
1522  ,1.060e+09   ,2.3  ,0.80545  ,0.2
1564  ,9.443e+08   ,-0.76667  ,2.3  ,0.2
1565  ,1.131e+09   ,0.76667  ,2.3  ,0.2
1566  ,9.194e+08   ,-2.3  ,2.3  ,1.7333
1567  ,1.135e+09   ,-2.3  ,2.3  ,3.2667
1574  ,3.154e+08   ,-2.3  ,-2.1759  ,0.2
1575  ,1.041e+08   ,-2.3  ,-1.7631  ,0.2
1576  ,1.698e+08   ,-2.3  ,-1.1827  ,0.2
1577  ,3.048e+08   ,-2.3  ,-0.34986  ,0.2
1578  ,2.634e+08   ,-2.3  ,0.80545  ,0.2
1777  ,1.043e+09   ,-0.52764  ,2.5  ,4.9
1801  ,3.312e+08   ,-2.3  ,1.5527  ,0.2
1825  ,6.077e+08   ,-1.5333  ,2.3  ,0.2
1841  ,9.752e+08   ,0.063638  ,2.5  ,4.9
1876  ,5.669e+08   ,-0.5  ,2.4  ,0
1894  ,1.028e+09   ,2.3  ,1.5527  ,0.2
1907  ,2.312e+08   ,2.1  ,2.5  ,0.1
1928  ,3.302e+08   ,1.9  ,2.4  ,0
1974  ,3.410e+08   ,2.4  ,1.1  ,0
1981  ,3.111e+08   ,2.4  ,2.5  ,0.59273
1987  ,4.180e+08   ,-2.5  ,2.4  ,4
2004  ,2.498e+08   ,-2.4  ,2.5  ,4.6
2009  ,3.133e+08   ,2.4  ,1.3  ,0
2020  ,3.649e+08   ,2.5  ,1.1  ,0.1
2035  ,3.672e+08   ,-2.3  ,-0.76628  ,0.2
2070  ,2.708e+09   ,1.6404  ,2.4  ,5
2081  ,9.325e+08   ,2.4  ,2.5  ,1.9724
2095  ,4.572e+08   ,2.4  ,2.5  ,0.78982
2138  ,6.650e+08   ,-2.4  ,-0.1  ,0
2146  ,8.936e+08   ,-0.92182  ,2.4  ,5
2174  ,7.487e+08   ,2.4  ,2.5  ,1.184
2190  ,5.810e+08   ,2.5  ,2.4  ,0.98691
2203  ,9.237e+08   ,2.5  ,-0.13345  ,4.9
2232  ,1.643e+09   ,2.3  ,0.1489  ,4.8
2242  ,1.264e+09   ,2.4  ,2.5  ,2.9578
2293  ,6.869e+08   ,-2.5  ,0.5  ,0.1
2311  ,1.792e+09   ,2.3  ,2.3  ,2.4299
2313  ,5.220e+08   ,2.5  ,2.4  ,0.78982
2329  ,9.014e+08   ,2.4  ,2.5  ,2.1695
2355  ,2.980e+08   ,-2.4  ,2.5  ,4.4
2380  ,1.913e+08   ,-2.5  ,-1.5  ,0.1
2383  ,1.227e+09   ,0.45782  ,2.5  ,4.9
2408  ,1.012e+09   ,2.3  ,-1.4961  ,4.8
2445  ,7.951e+08   ,2.5  ,-1.5131  ,4.9
2484  ,3.439e+08   ,-2.5  ,-2.4  ,1.6
2495  ,2.928e+08   ,-2.4  ,1.7  ,5
2508  ,3.874e+08   ,2.4  ,0.3  ,0
2514  ,1.199e+09   ,2.3  ,0.2278  ,0.2
2570  ,3.296e+08   ,-2.4  ,1.5  ,5
2580  ,2.555e+09   ,1.6404  ,2.5  ,4.9
2603  ,9.439e+08   ,-1.1189  ,2.5  ,4.9
2695  ,7.525e+08   ,2.3  ,2.3  ,0.94331
2705  ,9.760e+08   ,2.4  ,2.5  ,1.3811
2714  ,7.885e+08   ,2.5  ,0.45782  ,4.9
2734  ,3.117e+08   ,2.4  ,-0.9  ,0
2775  ,3.521e+08   ,2.5  ,-0.1  ,0.1
2779  ,3.286e+08   ,2.4  ,-0.1  ,0
2801  ,3.299e+09   ,1.4166  ,2.3  ,4.8
2814  ,2.073e+09   ,1.4433  ,2.5  ,4.9
2863  ,5.096e+08   ,-2.4  ,2.5  ,0.6
2884  ,5.973e+08   ,-2.4  ,2.5  ,0.8
2886  ,6.775e+08   ,-2.4  ,2.5  ,1.2
2967  ,2.538e+08   ,2.4  ,1.7  ,0
2973  ,3.394e+08   ,2.5  ,1.5  ,0.1
2987  ,4.465e+08   ,-0.3  ,2.5  ,0.1
3008  ,6.576e+08   ,-2.3  ,2.3  ,0.96667
3012  ,5.887e+08   ,-2.5  ,2.4  ,2.6
3021  ,5.712e+08   ,-2.5  ,2.4  ,2.8
3025  ,5.846e+08   ,-2.5  ,2.4  ,2.4
3030  ,5.988e+08   ,-2.4  ,2.5  ,2.4
3033  ,5.780e+08   ,-2.4  ,2.5  ,2.2
3047  ,9.090e+08   ,2.4  ,2.5  ,2.3665
3052  ,1.049e+09   ,2.5  ,2.4  ,2.5636
3061  ,1.034e+09   ,2.4  ,2.5  ,2.5636
3081  ,3.918e+08   ,-2.4  ,1.3  ,5
3088  ,2.329e+08   ,-1.9073  ,2.4  ,5
3099  ,2.854e+08   ,-2.4  ,1.9  ,5
3107  ,3.691e+08   ,-2.4  ,2.5  ,3.8
3139  ,5.415e+08   ,-1.5131  ,2.4  ,5
3145  ,5.730e+08   ,-1.5131  ,2.5  ,4.9
3148  ,4.102e+08   ,-1.7102  ,2.5  ,4.9
3168  ,5.743e+08   ,-2.4  ,1.5  ,0
3188  ,5.513e+08   ,-2.5  ,-2.4  ,1
3202  ,1.088e+09   ,0.26073  ,2.5  ,4.9
3212  ,2.390e+09   ,2.5  ,1.6404  ,4.9
3247  ,3.808e+09   ,2.5  ,1.8375  ,4.9
3265  ,3.153e+09   ,2.3  ,1.4326  ,4.8
3271  ,7.129e+09   ,2.2299  ,2.2299  ,4.8
3284  ,1.689e+09   ,2.4  ,1.4433  ,5
3291  ,1.734e+09   ,2.5  ,1.4433  ,4.9
3296  ,7.301e+08   ,-2.3  ,-0.76628  ,4.8
3303  ,3.772e+08   ,-2.4  ,-0.9  ,5
3311  ,3.045e+08   ,-2.4  ,-0.7  ,5
3315  ,2.837e+08   ,1.9  ,2.5  ,0.1
3336  ,6.317e+08   ,-2.4  ,0.3  ,0
3340  ,6.307e+08   ,-2.5  ,0.1  ,0.1
3344  ,6.423e+08   ,-2.4  ,0.1  ,0
3356  ,5.836e+08   ,-0.3  ,2.4  ,0
3361  ,8.638e+08   ,-0.33054  ,2.5  ,4.9
3364  ,8.945e+08   ,-0.13345  ,2.5  ,4.9
3383  ,1.435e+09   ,2.4  ,2.5  ,3.5491
3402  ,5.547e+09   ,2.4  ,2.5  ,4.5345
3421  ,7.295e+08   ,-1.316  ,2.5  ,4.9
3439  ,1.967e+09   ,2.5  ,2.4  ,3.9433
3447  ,1.998e+09   ,2.4  ,2.5  ,3.9433
3451  ,1.593e+09   ,2.4  ,2.5  ,3.7462
3468  ,2.002e+09   ,1.4433  ,2.4  ,5
3480  ,1.455e+09   ,1.0491  ,2.4  ,5
3519  ,3.800e+08   ,1.5  ,2.4  ,0
3527  ,7.432e+08   ,2.3  ,-1.4729  ,0.2
3550  ,4.700e+08   ,-1.7  ,2.4  ,0
3554  ,5.710e+08   ,-1.7  ,2.5  ,0.1
3558  ,5.269e+08   ,-1.5  ,2.4  ,0
3562  ,6.141e+08   ,-1.5  ,2.5  ,0.1
3574  ,2.360e+08   ,-2.4  ,2.1  ,5
3581  ,5.078e+08   ,-2.5  ,1.7  ,0.1
3583  ,4.320e+08   ,-2.5  ,1.9  ,0.1
3584  ,2.380e+08   ,-1.9073  ,2.5  ,4.9
3591  ,4.153e+08   ,2.5  ,0.3  ,0.1
3595  ,3.682e+08   ,2.5  ,0.1  ,0.1
3603  ,1.312e+10   ,2.4577  ,2.391  ,4.7576
3663  ,2.811e+08   ,-1.933  ,-2.5  ,0.2
3669  ,8.730e+08   ,-2.1765  ,-2.5  ,0.2
3672  ,6.238e+08   ,-2.3  ,-2.3379  ,0.2
3682  ,4.178e+08   ,-1.9  ,-2.4  ,0
3700  ,2.549e+08   ,2.3  ,-2.5  ,2.7424
3712  ,3.710e+08   ,-2.1  ,-2.5  ,4.9
3715  ,5.523e+07   ,-1.9  ,-2.5  ,4.9
3740  ,3.464e+08   ,-1.3  ,-2.4  ,5
3746  ,1.326e+08   ,-1.2085  ,-2.5  ,4.8
3755  ,5.531e+08   ,-1.5  ,-2.4  ,5
3760  ,1.309e+08   ,-1.7  ,-2.5  ,4.9
3786  ,9.476e+08   ,2.4  ,2.5  ,1.5782
3813  ,1.054e+09   ,0.26073  ,2.4  ,5
3858  ,2.597e+08   ,-0.9  ,-2.4  ,5
3863  ,4.824e+08   ,-2.5  ,0.9  ,4.9
3875  ,9.247e+08   ,-1.9  ,-2.4  ,5
3885  ,7.858e+08   ,2.4  ,-0.72473  ,5
3910  ,3.191e+08   ,-2.4  ,-2.5  ,3.4
3959  ,2.731e+09   ,2.5  ,2.4  ,4.1404
3969  ,9.437e+08   ,2.5  ,1.0491  ,4.9
3992  ,1.418e+10   ,2.391  ,2.2576  ,4.9577
3993  ,1.258e+10   ,2.4577  ,2.2576  ,4.891
4016  ,1.159e+08   ,-2.3015  ,2.5  ,4.9
4018  ,1.675e+08   ,-2.4  ,2.5  ,4.8
4021  ,1.608e+09   ,1.2462  ,2.4  ,5
4042  ,3.263e+08   ,2.4  ,-1.1  ,0
4046  ,6.239e+08   ,-0.9  ,2.4  ,0
4055  ,5.138e+08   ,1.7  ,-2.5  ,4.9
4087  ,3.843e+08   ,1.7  ,2.4  ,0
4114  ,7.021e+08   ,2.5  ,-0.33054  ,4.9
4120  ,3.275e+08   ,2.4  ,-2.5  ,1.8
4125  ,4.679e+08   ,2.4  ,2.5  ,0.98691
4144  ,3.850e+09   ,2.4  ,2.5  ,4.3375
4161  ,4.526e+08   ,-2.4  ,0.3  ,5
4201  ,3.625e+08   ,1.933  ,-2.5  ,0.2
4225  ,4.411e+08   ,-2.3  ,-2.4  ,0
4230  ,2.452e+08   ,-2.3  ,-2.5  ,0.56701
4269  ,3.073e+08   ,-0.9  ,-2.5  ,4.9
4277  ,2.798e+08   ,-1.1  ,-2.4  ,5
4288  ,1.497e+09   ,-0.070055  ,2.3  ,4.8
4328  ,7.178e+08   ,-2.5  ,-2.4  ,4.2
4336  ,4.962e+08   ,-2.5  ,-2.4  ,4.4
4342  ,4.421e+08   ,-2.5  ,-2.4  ,4.6
4348  ,6.556e+08   ,-2.4  ,-2.4707  ,4.9707
4352  ,5.342e+08   ,-2.3  ,-2.5  ,4.9
4354  ,1.325e+09   ,-2.1765  ,-2.5  ,4.8
4355  ,7.809e+08   ,-2.3  ,-2.3379  ,4.8
4362  ,2.895e+08   ,2.5  ,2.4  ,0.59273
4364  ,6.926e+07   ,2.5  ,-2.4  ,2.4
4366  ,1.964e+08   ,2.5  ,-2.4  ,2.2
4372  ,2.784e+08   ,2.4  ,-2.5  ,2.2
4385  ,2.034e+08   ,-2.5  ,-1.9  ,0.1
4399  ,2.744e+08   ,-2.5  ,2.1  ,0.1
4407  ,2.424e+08   ,-0.7  ,-2.4  ,0
4436  ,6.581e+08   ,-2.5  ,-0.1  ,0.1
4462  ,9.170e+08   ,-2.3  ,2.3  ,4.0333
4491  ,6.426e+08   ,2.5  ,-0.52764  ,4.9
4494  ,3.004e+08   ,2.5  ,-2.4  ,1.4
4503  ,2.048e+08   ,2.4  ,-2.5  ,1.4
4508  ,1.972e+08   ,2.4  ,-2.5  ,1.2
4515  ,3.062e+08   ,2.5  ,-2.4  ,1.8
4517  ,2.692e+08   ,2.4  ,-2.5  ,1.6
4522  ,1.005e+09   ,0.7  ,-2.4  ,0
4538  ,7.969e+08   ,-1.1189  ,2.4  ,5
4546  ,2.570e+09   ,2.4  ,2.5  ,4.1404
4559  ,7.015e+08   ,1.7  ,-2.4  ,0
4590  ,8.632e+08   ,0.5  ,-2.4  ,0
4631  ,5.307e+08   ,2.4  ,-2.5  ,2.6
4634  ,8.920e+08   ,2.5  ,-2.4  ,2.8
4657  ,1.778e+08   ,-2.5  ,-2.4  ,2
4660  ,2.383e+08   ,-2.5  ,-2.4  ,1.8
4664  ,3.008e+07   ,-0.3  ,-2.4  ,0
4675  ,5.204e+08   ,-2.4  ,-2.5  ,4.8
4681  ,7.319e+08   ,-2.5  ,-0.3  ,0.1
4684  ,3.223e+08   ,1.7  ,-2.4  ,5
4703  ,6.116e+08   ,-2.4  ,0.7  ,5
4707  ,4.144e+08   ,-2.5  ,0.3  ,4.9
4714  ,6.396e+08   ,2.4  ,-0.33054  ,5
4723  ,9.587e+08   ,-1.5567  ,2.3  ,4.8
4739  ,1.192e+08   ,-2.1044  ,2.5  ,4.9
4763  ,4.066e+08   ,-1.9  ,2.4  ,0
4780  ,1.574e+08   ,-2.3  ,-1.9695  ,0.2
4782  ,3.567e+08   ,-2.4707  ,-2.4  ,0.029289
4784  ,2.058e+08   ,-2.4  ,-1.9  ,0
4791  ,3.738e+08   ,-2.4  ,-2.5  ,1.8
4796  ,1.207e+09   ,2.4707  ,-2.4707  ,4.9
4799  ,1.393e+09   ,2.5  ,-2.4  ,4.8
4806  ,8.799e+08   ,2.3  ,-2.5  ,4.9
4809  ,3.366e+09   ,2.3  ,2.3  ,3.9166
4833  ,4.417e+08   ,-2.4  ,2.5  ,0.4
4841  ,6.099e+08   ,-2.4  ,2.5  ,2.6
4846  ,2.039e+08   ,-2.5  ,2.1  ,4.9
4848  ,1.669e+08   ,-2.5  ,2.3  ,4.9
4849  ,1.731e+08   ,-2.5  ,2.4  ,4.8
4893  ,3.341e+08   ,-2.4  ,2.5  ,4.2
4897  ,5.378e+09   ,2.3333  ,2.1998  ,5
4900  ,1.311e+10   ,2.391  ,2.4577  ,4.7576
4908  ,1.275e+10   ,2.2576  ,2.391  ,4.9577
4911  ,1.324e+10   ,2.2576  ,2.4577  ,4.891
4926  ,5.591e+08   ,-2.5  ,2.4  ,1
4932  ,6.771e+08   ,-2.4  ,2.5  ,1.6
4937  ,7.066e+08   ,-1.1  ,2.5  ,0.1
4939  ,6.874e+09   ,2.3  ,2.2299  ,4.7299
4944  ,9.958e+08   ,2.5  ,-1.9073  ,4.9
4987  ,9.495e+08   ,-2.3  ,1.5527  ,4.8
5010  ,9.419e+09   ,2.4973  ,2.1331  ,4.923
5013  ,5.189e+09   ,2.5  ,2.0345  ,4.9
5017  ,5.482e+09   ,2.4  ,2.0345  ,5
5035  ,1.034e+09   ,1.3  ,-2.4  ,0
5038  ,5.551e+08   ,1.2085  ,-2.5  ,0.2
5092  ,3.080e+08   ,-2.4  ,-2.5  ,1.2
5123  ,9.243e+08   ,2.5  ,-2.4  ,0.6
5151  ,6.914e+08   ,-2.5  ,-0.5  ,0.1
5160  ,5.566e+08   ,-2.5  ,-0.7  ,0.1
5164  ,5.604e+08   ,-2.4  ,0.9  ,5
5168  ,4.869e+08   ,-2.4  ,0.5  ,5
5176  ,3.012e+08   ,2.5  ,-0.7  ,0.1
5179  ,2.725e+08   ,2.4  ,-0.5  ,0
5189  ,4.129e+08   ,2.4  ,-2.5  ,2.4
5194  ,7.665e+08   ,2.3  ,-2.5  ,2.2576
5198  ,9.026e+08   ,-2.3  ,-2.5  ,0.32348
5205  ,2.362e+08   ,-2.4  ,-2.5  ,0.2
5207  ,5.045e+08   ,-2.1  ,-2.5  ,0.1
5246  ,6.541e+08   ,-2.5  ,2.4  ,3.2
5257  ,3.177e+08   ,-2.5  ,1.5  ,4.9
5263  ,4.319e+08   ,-2.3  ,0.2278  ,0.2
5272  ,6.269e+08   ,-2.5  ,0.3  ,0.1
5275  ,4.121e+08   ,-2.5  ,0.5  ,4.9
5281  ,3.309e+09   ,1.8375  ,2.5  ,4.9
5297  ,6.854e+08   ,-0.9  ,2.5  ,0.1
5306  ,6.540e+08   ,-0.7  ,2.4  ,0
5309  ,5.430e+08   ,-0.5  ,2.5  ,0.1
5324  ,1.064e+09   ,2.4  ,2.5  ,2.7607
5332  ,7.340e+08   ,2.5  ,-2.4  ,0.8
5334  ,2.551e+08   ,2.4  ,-2.5  ,1
5360  ,8.479e+08   ,2.4  ,-1.7102  ,5
5362  ,8.457e+08   ,2.4  ,-1.5131  ,5
5368  ,3.387e+09   ,2.4  ,1.8375  ,5
5371  ,2.261e+10   ,2.4325  ,2.4888  ,4.6656
5372  ,6.153e+09   ,2.3333  ,2.5  ,4.6998
5376  ,4.632e+09   ,2.4707  ,2.4707  ,4.6331
5377  ,5.784e+09   ,2.5  ,2.4  ,4.5345
5379  ,2.570e+08   ,-1.5  ,-2.5  ,4.9
5406  ,1.023e+09   ,-2.5  ,-2.4  ,3.4
5420  ,3.185e+08   ,-2.3  ,-2.5  ,3.2226
5423  ,9.004e+08   ,1.5  ,-2.4  ,0
5502  ,3.646e+08   ,-2.5  ,-2.3  ,0.1
5504  ,4.100e+08   ,-2.5  ,-2.4  ,0.2
5506  ,4.045e+08   ,-2.4  ,-2.3  ,0
5511  ,2.675e+08   ,-2.5  ,-2.1  ,0.1
5513  ,6.349e+08   ,-2.4  ,0.5  ,0
5517  ,3.975e+08   ,-0.9  ,-2.5  ,0.1
5532  ,1.026e+08   ,-2.4707  ,2.4707  ,4.9
5534  ,2.895e+08   ,2.4  ,-0.7  ,0
5551  ,1.092e+09   ,2.5  ,-2.4  ,3.8
5566  ,6.865e+08   ,2.5  ,2.4  ,1.3811
5603  ,3.250e+08   ,2.4  ,-0.3  ,0
5617  ,4.361e+08   ,-2.1  ,2.5  ,0.1
5637  ,5.931e+08   ,-2.3  ,-1.9695  ,4.8
5641  ,3.022e+08   ,2.3  ,-2.5  ,3.4636
5645  ,3.634e+08   ,-2.4  ,-2.5  ,2
5649  ,3.068e+08   ,-2.4  ,-2.5  ,2.2
5659  ,4.754e+08   ,-2.3  ,-2.5  ,1.7774
5662  ,1.870e+09   ,2.1765  ,-2.5  ,4.8
5666  ,8.669e+08   ,2.4  ,-2.5  ,4.8
5669  ,1.084e+09   ,2.3  ,-2.3412  ,4.8
5695  ,6.730e+08   ,-2.4  ,0.7  ,0
5701  ,6.081e+08   ,-2.5  ,2.4  ,1.6
5715  ,6.286e+08   ,-2.4  ,2.5  ,1.8
5726  ,6.274e+08   ,-0.7  ,2.5  ,0.1
5727  ,5.912e+08   ,-1.1  ,2.4  ,0
5730  ,3.734e+08   ,2.3  ,-2.5  ,1.7774
5746  ,9.159e+08   ,2.5  ,2.4  ,1.7753
5755  ,4.259e+08   ,2.5  ,-2.4  ,4.4
5763  ,4.757e+08   ,2.4  ,-2.5  ,4.4
5773  ,1.430e+09   ,1.0491  ,2.5  ,4.9
5791  ,9.262e+08   ,-0.72473  ,2.4  ,5
5795  ,3.533e+09   ,1.8375  ,2.4  ,5
5803  ,2.265e+08   ,-0.3  ,-2.4  ,5
5810  ,2.310e+09   ,2.4  ,1.6404  ,5
5836  ,3.162e+08   ,-2.5  ,1.3  ,4.9
5860  ,2.781e+08   ,2.5  ,-2.4  ,1.6
5866  ,2.868e+08   ,1.5  ,-2.5  ,0.1
5884  ,3.299e+08   ,-2.4  ,-0.3  ,5
5888  ,2.469e+08   ,-2.5  ,-0.5  ,4.9
5901  ,5.866e+08   ,2.3  ,-2.5  ,2.5
5908  ,3.645e+08   ,2.5  ,-2.4  ,1.2
5909  ,3.369e+08   ,2.5  ,-2.4  ,2
5934  ,4.853e+08   ,1.9  ,-2.5  ,4.9
5938  ,1.050e+09   ,1.933  ,-2.5  ,4.8
5948  ,6.131e+08   ,-2.4  ,-2.5  ,4.6
5950  ,5.543e+08   ,-2.4707  ,-2.4707  ,4.9
5951  ,5.477e+08   ,-2.5  ,-2.4  ,4.8
5952  ,4.646e+08   ,-2.5  ,-2.3  ,4.9
5986  ,2.391e+08   ,2.3  ,-2.5  ,3.7085
5990  ,8.961e+08   ,-0.92182  ,2.5  ,4.9
6019  ,2.432e+08   ,2.5  ,1.9  ,0.1
6025  ,2.981e+08   ,2.4  ,-1.3  ,0
6035  ,2.973e+08   ,-2.5  ,1.9  ,4.9
6044  ,8.379e+08   ,0.1  ,2.5  ,0.1
6054  ,3.660e+08   ,2.4  ,0.1  ,0
6070  ,1.207e+08   ,-2.4  ,2.3  ,0
6071  ,1.577e+08   ,-2.3  ,2.4  ,0
6076  ,3.014e+08   ,-2.4  ,2.1  ,0
6083  ,5.355e+08   ,2.1  ,-2.4  ,0
6084  ,1.755e+08   ,2.4  ,2.3  ,0
6087  ,1.731e+08   ,2.3  ,2.4  ,0
6092  ,5.353e+08   ,-2.4  ,-2.5  ,0.4
6096  ,2.007e+08   ,-2.3  ,-2.5  ,0.1
6099  ,4.106e+08   ,0.7  ,-2.5  ,0.1
6149  ,4.706e+08   ,-2.4  ,-0.9  ,0
6159  ,4.212e+08   ,-2.5  ,-2.4  ,2.6
6183  ,1.555e+09   ,1.2462  ,2.5  ,4.9
6224  ,8.036e+08   ,2.5  ,-2.4  ,4
6228  ,5.450e+08   ,2.4  ,-2.5  ,3.8
6237  ,5.074e+08   ,2.5  ,0.7  ,0.1
6241  ,5.822e+09   ,2.5  ,2.3333  ,4.6998
6245  ,7.483e+08   ,2.5  ,2.4  ,1.5782
6259  ,1.036e+09   ,2.5  ,-2.1044  ,4.9
6265  ,9.098e+08   ,2.3  ,-1.9804  ,4.8
6267  ,1.059e+09   ,2.5  ,-2.3015  ,4.9
6268  ,9.630e+08   ,2.4707  ,-2.4  ,4.9707
6270  ,1.037e+09   ,2.4  ,-2.1044  ,5
6317  ,1.035e+09   ,-2.3  ,0.2278  ,4.8
6349  ,9.835e+08   ,-0.52764  ,2.4  ,5
6391  ,9.353e+08   ,2.4  ,2.5  ,1.7753
6440  ,4.717e+08   ,-2.5  ,2.4  ,3.8
6471  ,7.299e+08   ,2.5  ,-0.92182  ,4.9
6489  ,1.297e+09   ,2.5  ,1.2462  ,4.9
6523  ,4.450e+08   ,-1.1  ,-2.4  ,0
6528  ,3.496e+08   ,-1.1  ,-2.5  ,0.1
6535  ,3.268e+08   ,-0.9  ,-2.4  ,0
6538  ,7.798e+08   ,1.5  ,-2.4  ,5
6541  ,5.539e+08   ,1.5  ,-2.5  ,4.9
6551  ,6.680e+08   ,2.5  ,-0.72473  ,4.9
6564  ,1.166e+10   ,2.1331  ,2.4973  ,4.923
6565  ,5.794e+09   ,2.0345  ,2.5  ,4.9
6572  ,2.917e+08   ,2.4  ,-1.7  ,0
6581  ,1.249e+09   ,0  ,2.3  ,0.2
6592  ,6.267e+08   ,2.3  ,-1.9695  ,0.2
6594  ,6.143e+08   ,0.3  ,2.4  ,0
6601  ,7.476e+08   ,0.5  ,2.5  ,0.1
6605  ,2.314e+08   ,-2.4  ,-1.3  ,0
6606  ,3.246e+08   ,-2.4  ,-1.1  ,0
6615  ,7.383e+08   ,-2.4  ,-0.3  ,0
6634  ,5.932e+08   ,2.1  ,-2.5  ,4.9
6635  ,1.216e+09   ,2.4  ,-2.4707  ,4.9707
6636  ,1.400e+09   ,2.3  ,-2.4  ,5
6647  ,4.037e+08   ,0.5  ,-2.5  ,0.1
6704  ,5.640e+07   ,-2.4707  ,2.4707  ,0.1
6708  ,1.554e+08   ,-2.5  ,2.4  ,0.2
6712  ,4.554e+08   ,-2.4  ,2.5  ,3.6
6715  ,6.003e+08   ,-2.4  ,2.5  ,3.4
6728  ,5.116e+08   ,-2.5  ,0.7  ,4.9
6753  ,2.077e+08   ,-2.1044  ,2.4  ,5
6788  ,3.901e+09   ,2.5  ,2.4  ,4.3375
6791  ,1.150e+09   ,-1.933  ,-2.5  ,4.8
6795  ,5.669e+09   ,2.1998  ,2.5  ,4.8333
6837  ,6.289e+07   ,-2.3  ,-2.5  ,0.8063
6869  ,9.037e+08   ,2.5  ,-1.7102  ,4.9
6873  ,1.062e+09   ,2.4  ,-1.9073  ,5
6880  ,7.695e+08   ,2.4  ,-0.92182  ,5
6885  ,7.077e+08   ,2.4  ,-0.52764  ,5
6893  ,1.224e+09   ,2.4  ,1.2462  ,5
6914  ,7.482e+08   ,0.7  ,2.5  ,0.1
6920  ,6.511e+08   ,0.9  ,2.4  ,0
6923  ,6.818e+08   ,0.7  ,2.4  ,0
6936  ,5.775e+08   ,2.4  ,-2.5  ,3.4
6939  ,3.404e+08   ,2.3  ,-2.5  ,3.2226
6961  ,4.410e+08   ,-0.1  ,-2.5  ,4.9
6967  ,3.086e+08   ,-2.5  ,-1.5  ,4.9
6975  ,4.268e+08   ,-2.4  ,1.1  ,5
6978  ,2.664e+08   ,-2.4  ,2.5  ,0.2
6987  ,7.898e+08   ,2.4  ,-1.316  ,5
6994  ,3.481e+08   ,2.4  ,-1.5  ,0
7004  ,5.617e+08   ,2.4  ,-2.5  ,3.6
7011  ,8.828e+08   ,2.4  ,0.65491  ,5
7016  ,7.966e+08   ,2.4  ,0.45782  ,5
7019  ,9.161e+08   ,2.5  ,2.4  ,2.1695
7021  ,9.364e+08   ,2.5  ,2.4  ,1.9724
7052  ,6.345e+08   ,-1.3  ,2.5  ,0.1
7054  ,3.075e+08   ,-2.4  ,-2.5  ,0.8
7057  ,4.222e+08   ,0.3  ,-2.5  ,0.1
7065  ,2.013e+08   ,0.24243  ,-2.5  ,0.2
7075  ,2.244e+10   ,2.4888  ,2.4325  ,4.6656
7113  ,4.171e+08   ,-2.4  ,-2.5  ,2.6
7121  ,4.178e+08   ,-2.4  ,-2.5  ,2.8
7126  ,6.425e+08   ,-2.5  ,-2.4  ,2.8
7128  ,4.164e+08   ,-2.4707  ,-2.4707  ,0.1
7129  ,4.235e+08   ,-2.4  ,-2.4707  ,0.029289
7141  ,8.202e+08   ,-1.7  ,-2.4  ,5
7145  ,5.492e+08   ,1.1  ,2.4  ,0
7163  ,3.283e+08   ,-1.7102  ,2.4  ,5
7172  ,1.387e+09   ,2.5  ,-2.4  ,3.2
7174  ,5.134e+08   ,-2.5  ,2.4  ,3.6
7183  ,4.844e+08   ,-1.4531  ,-2.5  ,4.8
7204  ,1.597e+09   ,2.3  ,-0.81068  ,4.8
7220  ,7.623e+08   ,2.5  ,0.063638  ,4.9
7227  ,3.887e+08   ,2.5  ,-1.9  ,0.1
7256  ,1.588e+08   ,-0.1  ,-2.4  ,5
7280  ,9.204e+08   ,-0.33054  ,2.4  ,5
7299  ,7.551e+08   ,2.5  ,-1.1189  ,4.9
7316  ,5.319e+08   ,-2.5  ,-2.4  ,0.8
7323  ,2.870e+08   ,-2.4  ,-2.5  ,1
7396  ,1.276e+09   ,1.1  ,-2.4  ,5
7400  ,6.729e+08   ,-2.5  ,0.7  ,0.1
7409  ,1.110e+09   ,1.3  ,-2.4  ,5
7420  ,2.442e+08   ,2.5  ,2.1  ,0.1
7429  ,2.954e+08   ,2.4  ,1.9  ,0
7436  ,3.512e+08   ,2.5  ,-1.7  ,0.1
7438  ,5.643e+08   ,2.4  ,-2.5  ,2.8
7445  ,1.754e+10   ,2.4325  ,2.1656  ,4.9888
7464  ,2.821e+08   ,2.5  ,-1.5  ,0.1
7480  ,6.462e+08   ,2.5  ,-2.4  ,0.2
7482  ,4.474e+08   ,1.9  ,-2.5  ,0.1
7483  ,3.863e+08   ,1.7  ,-2.5  ,0.1
7486  ,4.107e+08   ,1.9  ,-2.4  ,5
7488  ,4.871e+08   ,1.6937  ,-2.5  ,4.8
7492  ,1.439e+09   ,2.1  ,-2.4  ,5
7495  ,4.009e+08   ,0.1  ,-2.5  ,0.1
7504  ,6.398e+08   ,0.3  ,-2.4  ,0
7507  ,3.341e+08   ,0.9  ,-2.5  ,0.1
7533  ,6.936e+08   ,-2.5  ,0.9  ,0.1
7536  ,3.622e+08   ,-2.4  ,-2.5  ,3.2
7540  ,4.087e+08   ,-2.4  ,-2.5  ,3
7545  ,8.292e+08   ,-2.5  ,-2.4  ,3
7582  ,3.699e+08   ,1.3  ,2.5  ,0.1
7588  ,1.034e+09   ,2.5  ,2.4  ,2.3665
7598  ,3.733e+08   ,-2.5  ,2.4  ,4.2
7607  ,9.426e+08   ,1.5333  ,2.3  ,0.2
7627  ,3.597e+08   ,-2.5  ,1.1  ,4.9
7651  ,3.529e+08   ,2.4  ,-1.9  ,0
7656  ,2.054e+08   ,2.5  ,2.4  ,0.39564
7660  ,6.967e+09   ,2.2299  ,2.3  ,4.7299
7668  ,1.376e+08   ,1.4531  ,-2.5  ,4.8
7676  ,5.379e+08   ,0.1  ,-2.5  ,4.9
7683  ,4.886e+08   ,0.1  ,-2.4  ,5
7686  ,3.416e+08   ,-2.4  ,-1.1  ,5
7702  ,3.791e+08   ,-2.3  ,-2.5  ,4.433
7710  ,5.802e+08   ,-2.3  ,-2.5  ,4.6765
7752  ,1.377e+09   ,0.9  ,-2.4  ,5
7763  ,1.887e+08   ,0.24243  ,-2.5  ,4.8
7767  ,9.803e+08   ,-2.5  ,-2.4  ,3.2
7768  ,2.902e+08   ,-2.4  ,-2.1  ,0
7776  ,6.941e+08   ,-2.4  ,0.9  ,0
7786  ,7.181e+08   ,-0.4838  ,-2.5  ,4.8
7800  ,1.431e+09   ,2.5  ,-2.4  ,4.6
7805  ,2.908e+08   ,-2.5  ,-1.3  ,4.9
7811  ,3.134e+08   ,-2.5  ,-1.1  ,4.9
7820  ,4.163e+08   ,2.5  ,-2.1  ,0.1
7824  ,3.959e+08   ,2.4  ,-2.1  ,0
7828  ,5.653e+08   ,2.4  ,-2.5  ,4.2
7831  ,5.356e+08   ,2.4  ,-2.5  ,4
7838  ,3.209e+08   ,2.5  ,-2.4  ,4.2
7839  ,1.126e+09   ,2.5  ,2.4  ,2.7607
7840  ,1.259e+09   ,2.5  ,2.4  ,2.9578
7863  ,1.775e+08   ,-2.4  ,-1.5  ,0
7890  ,3.827e+08   ,2.4  ,0.9  ,0
7897  ,5.814e+08   ,-2.4  ,-0.7  ,0
7912  ,5.543e+08   ,-1.5  ,-2.4  ,0
7917  ,3.017e+08   ,-1.3  ,-2.5  ,0.1
7931  ,6.410e+08   ,0.5  ,2.4  ,0
7934  ,1.100e+09   ,1.1  ,-2.4  ,0
7937  ,2.238e+08   ,2.4  ,-2.5  ,0.8
7941  ,3.781e+08   ,-2.4  ,-2.5  ,0.6
7969  ,1.143e+08   ,-2.5  ,2.3  ,0.1
7971  ,4.286e+08   ,-2.4  ,1.9  ,0
7972  ,5.301e+08   ,-1.9  ,2.5  ,0.1
7978  ,6.558e+08   ,-2.4  ,1.1  ,0
7996  ,3.314e+08   ,-2.4  ,-0.5  ,5
8000  ,4.256e+08   ,-2.5  ,-2.4  ,0.6
8003  ,3.614e+08   ,-2.5  ,-2.4  ,0.4
8025  ,6.316e+08   ,0.9  ,2.5  ,0.1
8035  ,7.647e+08   ,0.3  ,2.5  ,0.1
8039  ,1.270e+09   ,2.3  ,-2.5  ,0.32348
8041  ,7.637e+08   ,2.3  ,-2.3379  ,0.2
8043  ,6.283e+08   ,2.1765  ,-2.5  ,0.2
8045  ,2.684e+08   ,-0.96359  ,-2.5  ,0.2
8054  ,4.502e+08   ,1.3  ,2.4  ,0
8058  ,4.953e+08   ,1.1  ,2.5  ,0.1
8062  ,5.970e+08   ,-2.5  ,2.4  ,1.4
8067  ,4.908e+08   ,-2.5  ,2.4  ,0.8
8087  ,5.732e+08   ,-2.5  ,1.5  ,0.1
8132  ,9.686e+08   ,-0.13345  ,2.4  ,5
8183  ,3.500e+08   ,2.5  ,-0.9  ,0.1
8184  ,5.853e+08   ,1.6937  ,-2.5  ,0.2
8214  ,4.097e+08   ,-2.4707  ,-2.4  ,4.9707
8217  ,1.044e+09   ,-2.1  ,-2.4  ,5
8219  ,4.864e+08   ,-2.4  ,-2.5  ,4.4
8227  ,1.396e+09   ,2.5  ,2.4  ,3.1549
8242  ,5.712e+08   ,0.7  ,-2.5  ,4.9
8248  ,1.239e+09   ,2.5  ,-2.4  ,3.6
8254  ,3.631e+08   ,2.5  ,-0.3  ,0.1
8256  ,3.565e+08   ,2.5  ,-0.5  ,0.1
8258  ,2.833e+08   ,-0.3  ,-2.5  ,4.9
8263  ,2.651e+08   ,-0.5  ,-2.5  ,4.9
8268  ,5.832e+08   ,-2.3  ,-2.5  ,3.7085
8277  ,3.435e+08   ,-0.1  ,-2.5  ,0.1
8285  ,6.140e+08   ,1.1  ,-2.5  ,4.9
8307  ,5.925e+08   ,0.1  ,2.4  ,0
8308  ,3.832e+08   ,-0.1  ,2.5  ,0.1
8309  ,5.905e+08   ,-0.1  ,2.4  ,0
8313  ,4.229e+08   ,2.5  ,-2.3  ,0.1
8318  ,1.219e+09   ,2.5  ,-2.4  ,3
8338  ,1.364e+09   ,2.5  ,2.4  ,3.352
8339  ,1.402e+09   ,2.4  ,2.5  ,3.1549
8344  ,6.249e+08   ,-2.5  ,2.4  ,3.4
8357  ,1.672e+10   ,2.4888  ,2.1656  ,4.9325
8358  ,5.182e+09   ,2.5  ,2.1998  ,4.8333
8383  ,5.240e+08   ,-1.7  ,-2.4  ,0
8396  ,3.139e+08   ,1.1  ,-2.5  ,0.1
8399  ,6.417e+09   ,2.4526  ,2.1331  ,4.9851
8405  ,5.283e+08   ,2.5  ,-2.4  ,1
8412  ,8.476e+08   ,2.3  ,-2.5  ,0.8063
8417  ,4.189e+08   ,-2.3  ,-2.5  ,2.5
8434  ,2.705e+08   ,0.9636  ,-2.5  ,4.8
8438  ,2.934e+08   ,-0.3  ,-2.5  ,0.1
8452  ,3.382e+08   ,-2.4  ,-0.1  ,5
8468  ,1.561e+09   ,2.5  ,2.4  ,3.7462
8471  ,2.159e+08   ,-1.3  ,-2.5  ,4.9
8493  ,2.268e+08   ,-1.1  ,-2.5  ,4.9
8509  ,1.496e+08   ,-2.5  ,-1.7  ,0.1
8517  ,6.480e+08   ,-2.4  ,2.5  ,3
8531  ,5.135e+08   ,-2.4  ,1.7  ,0
8556  ,1.477e+09   ,2.5  ,2.4  ,3.5491
8573  ,6.818e+08   ,-1.316  ,2.4  ,5
8576  ,6.203e+08   ,-2.4  ,1.3  ,0
8611  ,1.069e+08   ,2.3  ,-2.5  ,1.2915
8618  ,3.453e+08   ,-2.4  ,2.5  ,4
8646  ,6.803e+08   ,-2.5  ,1.1  ,0.1
8656  ,3.670e+08   ,2.5  ,-1.3  ,0.1
8657  ,2.498e+08   ,2.4  ,2.1  ,0
8673  ,5.362e+08   ,-1.3  ,2.4  ,0
8692  ,3.698e+08   ,0.72263  ,-2.5  ,4.8
8696  ,4.414e+08   ,2.3  ,-2.5  ,1.0469
8706  ,8.426e+08   ,2.5  ,0.65491  ,4.9
8721  ,3.845e+08   ,-2.4  ,-2.5  ,1.6
8725  ,1.388e+09   ,0.65491  ,2.4  ,5
8739  ,1.902e+10   ,2.1656  ,2.4325  ,4.9888
8741  ,5.828e+09   ,2.1998  ,2.3333  ,5
8746  ,2.684e+08   ,-2.1  ,-2.4  ,0
8748  ,5.227e+08   ,-2.5  ,-2.4  ,1.2
8752  ,8.854e+09   ,2.1331  ,2.4526  ,4.9851
8759  ,2.301e+07   ,-2.3  ,-2.5  ,1.0469
8787  ,1.570e+08   ,-0.1  ,-2.4  ,0
8793  ,6.012e+08   ,-2.3  ,-2.5  ,2.2576
8795  ,3.481e+08   ,-2.4  ,-2.5  ,2.4
8798  ,5.535e+08   ,-2.3  ,-2.5  ,4.1937
8808  ,6.199e+08   ,-2.3  ,-2.5  ,3.9531
8814  ,4.922e+08   ,-2.4  ,-1.5  ,5
8849  ,2.813e+08   ,0.4838  ,-2.5  ,4.8
8851  ,3.573e+08   ,-2.4  ,-2.5  ,4.2
8868  ,5.993e+08   ,2.4  ,-2.5  ,3
8874  ,1.397e+09   ,0.852  ,2.4  ,5
8883  ,3.720e+08   ,-0.5  ,-2.4  ,5
8886  ,4.532e+08   ,-0.72262  ,-2.5  ,4.8
8893  ,3.300e+08   ,-0.7  ,-2.5  ,4.9
8897  ,1.026e+09   ,-2.5  ,-2.4  ,3.6
8899  ,4.697e+08   ,-2.3  ,-2.5  ,3.4636
8900  ,1.198e+08   ,-2.3  ,-1.4729  ,0.2
8906  ,2.513e+08   ,-2.5  ,-1.3  ,0.1
8910  ,1.410e+09   ,0.852  ,2.5  ,4.9
8925  ,6.627e+08   ,-2.4  ,2.5  ,1.4
8941  ,1.197e+08   ,2.4707  ,2.4  ,0.029289
8942  ,1.921e+08   ,2.5  ,2.3  ,0.1
8945  ,4.031e+08   ,-2.5  ,0.1  ,4.9
8950  ,1.164e+08   ,2.4707  ,2.4707  ,0.1
8951  ,9.689e+07   ,2.4  ,2.4707  ,0.029289
8959  ,6.649e+08   ,2.4  ,0.26073  ,5
8965  ,1.235e+09   ,0.45782  ,2.4  ,5
8978  ,8.159e+08   ,2.4  ,0.852  ,5
8983  ,3.486e+08   ,2.5  ,-1.1  ,0.1
8991  ,4.098e+08   ,-2.5  ,2.4  ,0.6
9008  ,7.975e+08   ,2.5  ,0.852  ,4.9
9011  ,6.896e+08   ,-2.4  ,-0.5  ,0
9025  ,2.928e+08   ,-1.5  ,-2.5  ,0.1
9038  ,2.531e+08   ,2.4  ,-2.5  ,2
9041  ,4.596e+08   ,2.5  ,0.9  ,0.1
9050  ,4.294e+08   ,2.5  ,0.5  ,0.1
9054  ,1.079e+09   ,0.9  ,-2.4  ,0
9060  ,1.968e+08   ,2.4  ,-2.5  ,0.4
9062  ,1.091e+09   ,2.3  ,-2.5  ,0.56701
9064  ,9.043e+08   ,2.5  ,-2.4  ,0.4
9069  ,8.422e+07   ,2.4  ,-2.5  ,0.6
9071  ,6.063e+08   ,1.4531  ,-2.5  ,0.2
9082  ,8.241e+07   ,-2.3  ,-2.5  ,1.2915
9086  ,3.419e+08   ,-2.4  ,-2.5  ,1.4
9091  ,4.619e+08   ,-2.5  ,-2.4  ,1.4
9094  ,5.620e+08   ,1.3  ,-2.5  ,4.9
9097  ,3.598e+08   ,-0.7  ,-2.5  ,0.1
9137  ,2.531e+08   ,-2.5  ,-0.7  ,4.9
9143  ,3.068e+08   ,-2.5  ,-0.1  ,4.9
9146  ,3.263e+08   ,-2.1  ,2.4  ,0
9148  ,3.046e+08   ,-2.5  ,1.7  ,4.9
9173  ,6.076e+08   ,-2.5  ,2.4  ,3
9192  ,3.437e+08   ,-0.7  ,-2.4  ,5
9195  ,3.713e+08   ,0.72263  ,-2.5  ,0.2
9209  ,1.363e+09   ,2.5  ,-2.4  ,3.4
9215  ,4.965e+08   ,0.9636  ,-2.5  ,0.2
9217  ,6.040e+08   ,2.4  ,-2.5  ,3.2
9218  ,1.851e+08   ,-0.96359  ,-2.5  ,4.8
9229  ,6.519e+08   ,-2.4  ,2.5  ,2.8
9248  ,1.058e+09   ,2.3  ,-2.5  ,4.433
9255  ,3.702e+08   ,2.5  ,1.3  ,0.1
9257  ,2.748e+08   ,2.4  ,1.5  ,0
9262  ,1.181e+09   ,0.5  ,-2.4  ,5
9264  ,6.045e+08   ,2.4  ,-0.13345  ,5
9272  ,9.417e+08   ,0.063638  ,2.4  ,5
9277  ,5.861e+08   ,-2.5  ,2.4  ,1.2
9279  ,7.276e+08   ,2.5  ,0.26073  ,4.9
9282  ,1.946e+08   ,1.2085  ,-2.5  ,4.8
9286  ,6.216e+08   ,0.9  ,-2.5  ,4.9
9292  ,1.193e+08   ,-2.4  ,2.4707  ,4.9707
9293  ,1.272e+08   ,-2.3015  ,2.4  ,5
9296  ,4.200e+08   ,-2.4  ,-2.1  ,5
9303  ,4.267e+08   ,-2.4  ,-1.9  ,5
9311  ,1.508e+08   ,-2.4  ,2.3  ,5
9313  ,3.569e+08   ,-2.4  ,0.1  ,5
9319  ,1.655e+08   ,-0.5  ,-2.4  ,0
9328  ,2.515e+08   ,-2.3  ,-2.5  ,1.5364
9334  ,2.720e+08   ,-2.3  ,2.5  ,0.1
9338  ,1.618e+08   ,-2.5  ,-2.4  ,2.4
9339  ,6.196e+08   ,-2.5  ,1.3  ,0.1
9341  ,1.584e+08   ,-2.3  ,-2.5  ,2.7424
9344  ,4.820e+07   ,-2.5  ,-2.4  ,2.2
9358  ,1.599e+09   ,-2.3  ,2.3  ,2.5
9364  ,4.505e+08   ,-2.5  ,-2.1  ,4.9
9367  ,5.090e+08   ,-2.4  ,-2.3  ,5
9374  ,3.764e+08   ,-2.4  ,-1.3  ,5
9378  ,6.154e+08   ,-2.5  ,2.4  ,1.8
9384  ,6.659e+08   ,2.3  ,-2.5  ,2.0162
9385  ,3.245e+08   ,-2.5  ,2.4  ,4.4
9389  ,5.955e+08   ,-2.5  ,2.4  ,2
9395  ,9.909e+08   ,2.4  ,-2.3015  ,5
9396  ,1.529e+08   ,-2.4  ,-1.7  ,0
9407  ,6.851e+08   ,-2.3  ,-1.4729  ,4.8
9411  ,2.874e+08   ,-2.5  ,-1.7  ,4.9
9423  ,2.519e+08   ,-2.4  ,-2.5  ,3.6
9432  ,1.382e+09   ,0.7  ,-2.4  ,5
9438  ,2.802e+08   ,-2.5  ,-0.9  ,4.9
9443  ,2.920e+08   ,-2.5  ,-0.3  ,4.9
9445  ,1.094e+08   ,-2.4707  ,2.4  ,4.9707
9448  ,7.197e+08   ,2.4  ,-1.1189  ,5
9453  ,4.390e+08   ,2.4  ,0.7  ,0
9455  ,4.506e+08   ,2.5  ,-2.4  ,2.6
9457  ,2.436e+08   ,2.3  ,-2.5  ,2.9838
9494  ,6.227e+08   ,-2.4  ,2.5  ,1
9500  ,5.152e+08   ,0.3  ,-2.5  ,4.9
9504  ,8.853e+08   ,0.3  ,-2.4  ,5
9506  ,5.321e+08   ,2.1  ,-2.5  ,0.1
9518  ,4.187e+08   ,-1.9  ,-2.5  ,0.1
9528  ,5.051e+08   ,2.3  ,-2.5  ,0.1
9531  ,6.521e+08   ,2.4707  ,-2.4707  ,0.1
9533  ,4.281e+08   ,2.4707  ,-2.4  ,0.029289
9534  ,5.623e+08   ,2.4  ,-2.4707  ,0.029289
9541  ,5.464e+08   ,0.5  ,-2.5  ,4.9
9544  ,3.069e+08   ,-0.5  ,-2.5  ,0.1
9559  ,3.442e+08   ,-2.5  ,-1.9  ,4.9
9562  ,2.483e+08   ,-2.5  ,2.4  ,4.6
9565  ,6.122e+08   ,-2.4  ,2.5  ,2
9571  ,1.007e+09   ,-2.5  ,-2.4  ,3.8
9574  ,2.338e+08   ,-2.4  ,-2.5  ,3.8
9577  ,2.830e+08   ,1.3  ,-2.5  ,0.1
9582  ,4.469e+08   ,-2.5  ,-0.9  ,0.1
9596  ,2.604e+08   ,2.1  ,2.4  ,0
9598  ,7.018e+08   ,-2.4  ,2.5  ,3.2
9602  ,3.322e+08   ,1.5  ,2.5  ,0.1
9610  ,1.992e+08   ,2.4  ,2.5  ,0.39564
9612  ,1.012e+09   ,-0.72473  ,2.5  ,4.9
9614  ,3.187e+08   ,1.7  ,2.5  ,0.1
9635  ,3.236e+08   ,2.5  ,1.7  ,0.1
9646  ,1.415e+08   ,2.3  ,2.5  ,0.1
9651  ,1.805e+10   ,2.1656  ,2.4888  ,4.9325
9653  ,7.378e+08   ,2.5  ,-1.316  ,4.9
9656  ,3.507e+08   ,-2.4  ,-1.7  ,5
9659  ,1.869e+09   ,2.3  ,-2.5  ,4.6765
9661  ,1.448e+08   ,2.3  ,-2.5  ,3.9531
9664  ,6.580e+08   ,-2.3  ,-2.4  ,5
9666  ,4.852e+08   ,1.9  ,-2.4  ,0
9677  ,4.447e+08   ,2.4  ,0.5  ,0
9678  ,3.288e+08   ,-2.5  ,-1.1  ,0.1
9680  ,6.191e+08   ,2.5  ,2.4  ,1.184
9681  ,1.704e+08   ,2.5  ,2.4  ,0.19855
9696  ,6.245e+08   ,-2.3  ,-2.5  ,2.0162
9698  ,4.767e+08   ,2.4  ,-2.3  ,0
9699  ,5.906e+08   ,-0.24243  ,-2.5  ,0.2
9701  ,3.746e+08   ,0.1  ,-2.4  ,0
9704  ,6.137e+08   ,-0.4838  ,-2.5  ,0.2
9718  ,5.077e+08   ,-0.72262  ,-2.5  ,0.2
9726  ,8.800e+08   ,2.3  ,-0.76628  ,0.2
9727  ,3.520e+08   ,-2.5  ,2.4  ,0.4
9730  ,5.320e+08   ,1.9433E-06  ,-2.5  ,4.8
9731  ,7.934e+08   ,-0.24243  ,-2.5  ,4.8
9732  ,5.679e+08   ,-2.5  ,2.4  ,2.2
9738  ,8.959e+08   ,-2.5  ,-2.4  ,4
9743  ,8.814e+08   ,-1.6937  ,-2.5  ,4.8
9744  ,1.996e+08   ,-2.4  ,-2.5  ,4
9750  ,3.217e+08   ,-1.7  ,-2.5  ,0.1
9752  ,1.154e+08   ,-1.6937  ,-2.5  ,0.2
9754  ,5.371e+08   ,-1.3  ,-2.4  ,0
9759  ,4.369e+07   ,-2.4707  ,2.4  ,0.029289
9760  ,4.302e+07   ,-2.4  ,2.4707  ,0.029289
9768  ,4.924e+08   ,2.3  ,-2.5  ,4.1937
9770  ,4.329e+08   ,1.9433E-06  ,-2.5  ,0.2
9771  ,2.025e+08   ,0.4838  ,-2.5  ,0.2
9772  ,4.882e+08   ,2.4  ,-2.5  ,0.2
9773  ,5.980e+08   ,2.4  ,-2.5  ,4.6
9776  ,6.309e+08   ,2.4  ,0.063638  ,5
9780  ,1.389e+09   ,0.65491  ,2.5  ,4.9
9781  ,1.089e+08   ,2.4  ,2.5  ,0.19855
9782  ,1.270e+08   ,-2.3  ,-2.5  ,2.9838
9786  ,4.892e+07   ,-1.2085  ,-2.5  ,0.2
9787  ,8.099e+07   ,-1.4531  ,-2.5  ,0.2
9790  ,5.587e+08   ,2.3  ,-2.4  ,0
9793  ,5.717e+09   ,2.0345  ,2.4  ,5
9797  ,1.301e+08   ,2.3  ,-2.5  ,1.5364
9798  ,8.876e+08   ,2.4  ,1.0491  ,5
9809  ,1.340e+09   ,2.4  ,2.5  ,3.352
