Date:  11:18, Monday, July 10, 2023
Model name: Hollow_DropBox
Study name: Drop Test_hollow_draft1(-Default-)
Plot type:  Stress1
Plot step: 8   time : 41.9687 Microseconds
Result Type: von Mises 


Node  ,Value (N/m^2)  ,X (in)  ,Y (in)  ,Z (in)
1  ,5.170e+09   ,2.5  ,2.1331  ,4.9
2  ,2.125e+10   ,2.4577  ,2.1908  ,4.9577
3  ,9.382e+09   ,2.4894  ,2.1331  ,4.9447
4  ,5.211e+09   ,2.1331  ,2.5  ,4.9
5  ,9.216e+09   ,2.1331  ,2.4894  ,4.9447
6  ,1.945e+10   ,2.1908  ,2.4577  ,4.9577
7  ,4.277e+07   ,-2.4  ,2.4  ,5
8  ,1.559e+08   ,-2.4  ,-2.4  ,5
9  ,9.589e+07   ,2.4  ,-2.4  ,5
10  ,4.918e+09   ,2.4  ,2.1331  ,5
11  ,5.187e+09   ,2.1331  ,2.4  ,5
12  ,1.054e+08   ,2.5  ,-2.4  ,4.9
13  ,1.442e+08   ,2.5  ,-2.4  ,0.1
14  ,9.355e+07   ,2.5  ,2.4  ,0.1
15  ,5.674e+09   ,2.5  ,2.4  ,4.6331
16  ,7.738e+07   ,2.4  ,2.5  ,0.1
17  ,7.375e+07   ,-2.4  ,2.5  ,0.1
18  ,4.498e+07   ,-2.4  ,2.5  ,4.9
19  ,5.654e+09   ,2.4  ,2.5  ,4.6331
20  ,6.945e+07   ,-2.5  ,2.4  ,0.1
21  ,1.664e+06   ,-2.5  ,-2.4  ,0.1
22  ,1.052e+08   ,-2.5  ,-2.4  ,4.9
23  ,7.865e+07   ,-2.5  ,2.4  ,4.9
24  ,6.090e+06   ,-2.3  ,-2.5  ,0.2
25  ,1.830e+08   ,-2.3  ,-2.5  ,4.8
26  ,1.064e+08   ,2.3  ,-2.5  ,4.8
27  ,1.894e+08   ,2.3  ,-2.5  ,0.2
28  ,1.742e+08   ,-2.4  ,-2.5  ,4.9
29  ,1.259e+08   ,2.4  ,-2.5  ,4.9
30  ,2.943e+06   ,-2.4  ,-2.5  ,0.1
31  ,1.717e+08   ,2.4  ,-2.5  ,0.1
32  ,1.126e+08   ,2.4  ,-2.4  ,0
33  ,6.517e+07   ,2.4  ,2.4  ,0
34  ,1.847e+06   ,-2.4  ,-2.4  ,0
35  ,7.506e+07   ,-2.4  ,2.4  ,0
36  ,2.048e+10   ,2.4577  ,2.4577  ,4.6908
37  ,1.683e+08   ,-2.3  ,2.3  ,4.8
38  ,6.076e+09   ,2.1599  ,2.3  ,4.8
39  ,6.111e+09   ,2.3  ,2.1599  ,4.8
40  ,5.916e+09   ,2.3  ,2.3  ,4.6599
41  ,1.756e+08   ,2.3  ,2.3  ,0.2
42  ,6.113e+07   ,-2.3  ,2.3  ,0.2
43  ,1.177e+08   ,-2.4  ,2.2  ,5
44  ,1.512e+08   ,-2.4  ,2  ,5
45  ,1.541e+08   ,-2.4  ,1.8  ,5
46  ,1.684e+08   ,-2.4  ,1.6  ,5
47  ,1.775e+08   ,-2.4  ,1.4  ,5
48  ,2.073e+08   ,-2.4  ,1.2  ,5
49  ,1.913e+08   ,-2.4  ,1  ,5
50  ,2.593e+08   ,-2.4  ,0.8  ,5
51  ,2.682e+08   ,-2.4  ,0.6  ,5
52  ,2.405e+08   ,-2.4  ,0.4  ,5
53  ,2.495e+08   ,-2.4  ,0.2  ,5
54  ,1.939e+08   ,-2.4  ,5.8879E-16  ,5
55  ,1.821e+08   ,-2.4  ,-0.2  ,5
56  ,1.583e+08   ,-2.4  ,-0.4  ,5
57  ,1.762e+08   ,-2.4  ,-0.6  ,5
58  ,1.608e+08   ,-2.4  ,-0.8  ,5
59  ,1.510e+08   ,-2.4  ,-1  ,5
60  ,1.444e+08   ,-2.4  ,-1.2  ,5
61  ,1.393e+08   ,-2.4  ,-1.4  ,5
62  ,1.201e+08   ,-2.4  ,-1.6  ,5
63  ,1.336e+08   ,-2.4  ,-1.8  ,5
64  ,1.464e+08   ,-2.4  ,-2  ,5
65  ,1.072e+08   ,-2.4  ,-2.2  ,5
66  ,1.991e+08   ,-2.2  ,-2.4  ,5
67  ,1.912e+08   ,-2  ,-2.4  ,5
68  ,1.562e+08   ,-1.8  ,-2.4  ,5
69  ,9.434e+07   ,-1.6  ,-2.4  ,5
70  ,1.454e+08   ,-1.4  ,-2.4  ,5
71  ,2.153e+08   ,-1.2  ,-2.4  ,5
72  ,2.838e+08   ,-1  ,-2.4  ,5
73  ,3.003e+08   ,-0.8  ,-2.4  ,5
74  ,2.167e+08   ,-0.6  ,-2.4  ,5
75  ,1.125e+08   ,-0.4  ,-2.4  ,5
76  ,1.178e+08   ,-0.2  ,-2.4  ,5
77  ,2.000e+08   ,-5.8879E-16  ,-2.4  ,5
78  ,2.411e+08   ,0.2  ,-2.4  ,5
79  ,2.200e+08   ,0.4  ,-2.4  ,5
80  ,2.065e+08   ,0.6  ,-2.4  ,5
81  ,2.373e+08   ,0.8  ,-2.4  ,5
82  ,3.125e+08   ,1  ,-2.4  ,5
83  ,3.702e+08   ,1.2  ,-2.4  ,5
84  ,3.513e+08   ,1.4  ,-2.4  ,5
85  ,2.803e+08   ,1.6  ,-2.4  ,5
86  ,1.841e+08   ,1.8  ,-2.4  ,5
87  ,2.009e+08   ,2  ,-2.4  ,5
88  ,2.196e+08   ,2.2  ,-2.4  ,5
89  ,1.641e+08   ,2.4  ,-2.2029  ,5
90  ,2.404e+08   ,2.4  ,-2.0058  ,5
91  ,1.942e+08   ,2.4  ,-1.8087  ,5
92  ,1.414e+08   ,2.4  ,-1.6116  ,5
93  ,1.644e+08   ,2.4  ,-1.4145  ,5
94  ,1.521e+08   ,2.4  ,-1.2175  ,5
95  ,2.014e+08   ,2.4  ,-1.0204  ,5
96  ,2.989e+08   ,2.4  ,-0.82327  ,5
97  ,2.954e+08   ,2.4  ,-0.62618  ,5
98  ,3.260e+08   ,2.4  ,-0.42909  ,5
99  ,3.085e+08   ,2.4  ,-0.232  ,5
100  ,3.085e+08   ,2.4  ,-0.034907  ,5
101  ,3.613e+08   ,2.4  ,0.16218  ,5
102  ,4.869e+08   ,2.4  ,0.35927  ,5
103  ,6.322e+08   ,2.4  ,0.55637  ,5
104  ,8.707e+08   ,2.4  ,0.75346  ,5
105  ,8.065e+08   ,2.4  ,0.95055  ,5
106  ,8.475e+08   ,2.4  ,1.1476  ,5
107  ,1.287e+09   ,2.4  ,1.3447  ,5
108  ,1.851e+09   ,2.4  ,1.5418  ,5
109  ,2.383e+09   ,2.4  ,1.7389  ,5
110  ,4.017e+09   ,2.4  ,1.936  ,5
111  ,5.251e+09   ,2.2665  ,2.2665  ,5
112  ,4.092e+09   ,1.936  ,2.4  ,5
113  ,2.459e+09   ,1.7389  ,2.4  ,5
114  ,1.951e+09   ,1.5418  ,2.4  ,5
115  ,1.324e+09   ,1.3447  ,2.4  ,5
116  ,1.038e+09   ,1.1476  ,2.4  ,5
117  ,8.619e+08   ,0.95055  ,2.4  ,5
118  ,9.161e+08   ,0.75346  ,2.4  ,5
119  ,6.901e+08   ,0.55637  ,2.4  ,5
120  ,6.088e+08   ,0.35927  ,2.4  ,5
121  ,5.294e+08   ,0.16218  ,2.4  ,5
122  ,4.933e+08   ,-0.034907  ,2.4  ,5
123  ,4.684e+08   ,-0.232  ,2.4  ,5
124  ,3.386e+08   ,-0.42909  ,2.4  ,5
125  ,3.001e+08   ,-0.62618  ,2.4  ,5
126  ,2.938e+08   ,-0.82327  ,2.4  ,5
127  ,2.877e+08   ,-1.0204  ,2.4  ,5
128  ,2.271e+08   ,-1.2175  ,2.4  ,5
129  ,1.919e+08   ,-1.4145  ,2.4  ,5
130  ,1.327e+08   ,-1.6116  ,2.4  ,5
131  ,1.106e+08   ,-1.8087  ,2.4  ,5
132  ,1.324e+08   ,-2.0058  ,2.4  ,5
133  ,6.312e+07   ,-2.2029  ,2.4  ,5
294  ,1.542e+08   ,2.5  ,-2.2029  ,4.9
295  ,2.272e+08   ,2.5  ,-2.0058  ,4.9
296  ,2.251e+08   ,2.5  ,-1.8087  ,4.9
297  ,1.854e+08   ,2.5  ,-1.6116  ,4.9
298  ,1.622e+08   ,2.5  ,-1.4145  ,4.9
299  ,1.782e+08   ,2.5  ,-1.2175  ,4.9
300  ,2.180e+08   ,2.5  ,-1.0204  ,4.9
301  ,2.538e+08   ,2.5  ,-0.82327  ,4.9
302  ,2.785e+08   ,2.5  ,-0.62618  ,4.9
303  ,3.117e+08   ,2.5  ,-0.42909  ,4.9
304  ,3.216e+08   ,2.5  ,-0.232  ,4.9
305  ,3.715e+08   ,2.5  ,-0.034907  ,4.9
306  ,4.534e+08   ,2.5  ,0.16218  ,4.9
307  ,5.027e+08   ,2.5  ,0.35927  ,4.9
308  ,6.149e+08   ,2.5  ,0.55637  ,4.9
309  ,7.871e+08   ,2.5  ,0.75346  ,4.9
310  ,7.574e+08   ,2.5  ,0.95055  ,4.9
311  ,1.044e+09   ,2.5  ,1.1476  ,4.9
312  ,1.334e+09   ,2.5  ,1.3447  ,4.9
313  ,1.857e+09   ,2.5  ,1.5418  ,4.9
314  ,2.796e+09   ,2.5  ,1.7389  ,4.9
315  ,4.239e+09   ,2.5  ,1.936  ,4.9
316  ,2.186e+08   ,2.5  ,-2.4  ,4.7
317  ,2.067e+08   ,2.5  ,-2.4  ,4.5
318  ,1.961e+08   ,2.5  ,-2.4  ,4.3
319  ,2.975e+08   ,2.5  ,-2.4  ,4.1
320  ,3.495e+08   ,2.5  ,-2.4  ,3.9
321  ,3.877e+08   ,2.5  ,-2.4  ,3.7
322  ,3.112e+08   ,2.5  ,-2.4  ,3.5
323  ,2.414e+08   ,2.5  ,-2.4  ,3.3
324  ,2.105e+08   ,2.5  ,-2.4  ,3.1
325  ,1.979e+08   ,2.5  ,-2.4  ,2.9
326  ,2.126e+08   ,2.5  ,-2.4  ,2.7
327  ,1.590e+08   ,2.5  ,-2.4  ,2.5
328  ,1.255e+08   ,2.5  ,-2.4  ,2.3
329  ,1.765e+08   ,2.5  ,-2.4  ,2.1
330  ,2.525e+08   ,2.5  ,-2.4  ,1.9
331  ,2.776e+08   ,2.5  ,-2.4  ,1.7
332  ,2.176e+08   ,2.5  ,-2.4  ,1.5
333  ,1.294e+08   ,2.5  ,-2.4  ,1.3
334  ,1.023e+08   ,2.5  ,-2.4  ,1.1
335  ,6.734e+07   ,2.5  ,-2.4  ,0.9
336  ,1.288e+08   ,2.5  ,-2.4  ,0.7
337  ,1.830e+08   ,2.5  ,-2.4  ,0.5
338  ,1.990e+08   ,2.5  ,-2.4  ,0.3
339  ,1.037e+08   ,2.5  ,-2.2  ,0.1
340  ,1.508e+08   ,2.5  ,-2  ,0.1
341  ,1.414e+08   ,2.5  ,-1.8  ,0.1
342  ,1.287e+08   ,2.5  ,-1.6  ,0.1
343  ,1.027e+08   ,2.5  ,-1.4  ,0.1
344  ,1.517e+08   ,2.5  ,-1.2  ,0.1
345  ,1.554e+08   ,2.5  ,-1  ,0.1
346  ,1.446e+08   ,2.5  ,-0.8  ,0.1
347  ,1.573e+08   ,2.5  ,-0.6  ,0.1
348  ,1.565e+08   ,2.5  ,-0.4  ,0.1
349  ,1.573e+08   ,2.5  ,-0.2  ,0.1
350  ,1.699e+08   ,2.5  ,-1.7664E-15  ,0.1
351  ,2.024e+08   ,2.5  ,0.2  ,0.1
352  ,2.723e+08   ,2.5  ,0.4  ,0.1
353  ,2.404e+08   ,2.5  ,0.6  ,0.1
354  ,2.686e+08   ,2.5  ,0.8  ,0.1
355  ,2.326e+08   ,2.5  ,1  ,0.1
356  ,2.169e+08   ,2.5  ,1.2  ,0.1
357  ,2.225e+08   ,2.5  ,1.4  ,0.1
358  ,2.153e+08   ,2.5  ,1.6  ,0.1
359  ,1.489e+08   ,2.5  ,1.8  ,0.1
360  ,1.358e+08   ,2.5  ,2  ,0.1
361  ,1.232e+08   ,2.5  ,2.2  ,0.1
362  ,4.131e+09   ,2.5  ,2.4  ,4.436
363  ,2.779e+09   ,2.5  ,2.4  ,4.2389
364  ,1.934e+09   ,2.5  ,2.4  ,4.0418
365  ,1.415e+09   ,2.5  ,2.4  ,3.8447
366  ,9.779e+08   ,2.5  ,2.4  ,3.6476
367  ,8.756e+08   ,2.5  ,2.4  ,3.4505
368  ,8.656e+08   ,2.5  ,2.4  ,3.2535
369  ,6.713e+08   ,2.5  ,2.4  ,3.0564
370  ,5.794e+08   ,2.5  ,2.4  ,2.8593
371  ,5.413e+08   ,2.5  ,2.4  ,2.6622
372  ,5.731e+08   ,2.5  ,2.4  ,2.4651
373  ,4.536e+08   ,2.5  ,2.4  ,2.268
374  ,4.142e+08   ,2.5  ,2.4  ,2.0709
375  ,3.507e+08   ,2.5  ,2.4  ,1.8738
376  ,2.920e+08   ,2.5  ,2.4  ,1.6767
377  ,1.630e+08   ,2.5  ,2.4  ,1.4796
378  ,1.670e+08   ,2.5  ,2.4  ,1.2825
379  ,1.591e+08   ,2.5  ,2.4  ,1.0855
380  ,1.516e+08   ,2.5  ,2.4  ,0.88836
381  ,1.178e+08   ,2.5  ,2.4  ,0.69127
382  ,1.044e+08   ,2.5  ,2.4  ,0.49418
383  ,1.356e+08   ,2.5  ,2.4  ,0.29709
384  ,5.357e+09   ,2.5  ,2.2665  ,4.7665
544  ,1.212e+08   ,2.2  ,2.5  ,0.1
545  ,1.314e+08   ,2  ,2.5  ,0.1
546  ,1.206e+08   ,1.8  ,2.5  ,0.1
547  ,1.459e+08   ,1.6  ,2.5  ,0.1
548  ,1.359e+08   ,1.4  ,2.5  ,0.1
549  ,1.551e+08   ,1.2  ,2.5  ,0.1
550  ,1.379e+08   ,1  ,2.5  ,0.1
551  ,2.199e+08   ,0.8  ,2.5  ,0.1
552  ,2.414e+08   ,0.6  ,2.5  ,0.1
553  ,1.678e+08   ,0.4  ,2.5  ,0.1
554  ,1.636e+08   ,0.2  ,2.5  ,0.1
555  ,2.209e+08   ,5.8879E-16  ,2.5  ,0.1
556  ,3.390e+08   ,-0.2  ,2.5  ,0.1
557  ,2.616e+08   ,-0.4  ,2.5  ,0.1
558  ,2.081e+08   ,-0.6  ,2.5  ,0.1
559  ,1.537e+08   ,-0.8  ,2.5  ,0.1
560  ,1.926e+08   ,-1  ,2.5  ,0.1
561  ,1.737e+08   ,-1.2  ,2.5  ,0.1
562  ,1.421e+08   ,-1.4  ,2.5  ,0.1
563  ,1.172e+08   ,-1.6  ,2.5  ,0.1
564  ,1.143e+08   ,-1.8  ,2.5  ,0.1
565  ,1.015e+08   ,-2  ,2.5  ,0.1
566  ,1.192e+08   ,-2.2  ,2.5  ,0.1
567  ,1.113e+08   ,-2.4  ,2.5  ,4.7
568  ,1.229e+08   ,-2.4  ,2.5  ,4.5
569  ,1.257e+08   ,-2.4  ,2.5  ,4.3
570  ,1.398e+08   ,-2.4  ,2.5  ,4.1
571  ,1.593e+08   ,-2.4  ,2.5  ,3.9
572  ,1.702e+08   ,-2.4  ,2.5  ,3.7
573  ,1.804e+08   ,-2.4  ,2.5  ,3.5
574  ,2.561e+08   ,-2.4  ,2.5  ,3.3
575  ,2.131e+08   ,-2.4  ,2.5  ,3.1
576  ,1.922e+08   ,-2.4  ,2.5  ,2.9
577  ,1.879e+08   ,-2.4  ,2.5  ,2.7
578  ,2.044e+08   ,-2.4  ,2.5  ,2.5
579  ,2.059e+08   ,-2.4  ,2.5  ,2.3
580  ,2.090e+08   ,-2.4  ,2.5  ,2.1
581  ,1.661e+08   ,-2.4  ,2.5  ,1.9
582  ,1.363e+08   ,-2.4  ,2.5  ,1.7
583  ,1.792e+08   ,-2.4  ,2.5  ,1.5
584  ,1.516e+08   ,-2.4  ,2.5  ,1.3
585  ,1.324e+08   ,-2.4  ,2.5  ,1.1
586  ,1.186e+08   ,-2.4  ,2.5  ,0.9
587  ,1.030e+08   ,-2.4  ,2.5  ,0.7
588  ,1.134e+08   ,-2.4  ,2.5  ,0.5
589  ,1.327e+08   ,-2.4  ,2.5  ,0.3
590  ,4.327e+09   ,1.936  ,2.5  ,4.9
591  ,2.410e+09   ,1.7389  ,2.5  ,4.9
592  ,1.740e+09   ,1.5418  ,2.5  ,4.9
593  ,1.462e+09   ,1.3447  ,2.5  ,4.9
594  ,1.076e+09   ,1.1476  ,2.5  ,4.9
595  ,9.202e+08   ,0.95055  ,2.5  ,4.9
596  ,8.617e+08   ,0.75346  ,2.5  ,4.9
597  ,7.415e+08   ,0.55637  ,2.5  ,4.9
598  ,6.651e+08   ,0.35927  ,2.5  ,4.9
599  ,4.932e+08   ,0.16218  ,2.5  ,4.9
600  ,4.357e+08   ,-0.034907  ,2.5  ,4.9
601  ,3.689e+08   ,-0.232  ,2.5  ,4.9
602  ,3.725e+08   ,-0.42909  ,2.5  ,4.9
603  ,3.362e+08   ,-0.62618  ,2.5  ,4.9
604  ,2.866e+08   ,-0.82327  ,2.5  ,4.9
605  ,2.886e+08   ,-1.0204  ,2.5  ,4.9
606  ,2.530e+08   ,-1.2175  ,2.5  ,4.9
607  ,1.925e+08   ,-1.4145  ,2.5  ,4.9
608  ,1.543e+08   ,-1.6116  ,2.5  ,4.9
609  ,1.240e+08   ,-1.8087  ,2.5  ,4.9
610  ,1.073e+08   ,-2.0058  ,2.5  ,4.9
611  ,9.780e+07   ,-2.2029  ,2.5  ,4.9
612  ,5.558e+09   ,2.2665  ,2.5  ,4.7665
613  ,3.970e+09   ,2.4  ,2.5  ,4.436
614  ,2.559e+09   ,2.4  ,2.5  ,4.2389
615  ,1.824e+09   ,2.4  ,2.5  ,4.0418
616  ,1.435e+09   ,2.4  ,2.5  ,3.8447
617  ,1.069e+09   ,2.4  ,2.5  ,3.6476
618  ,9.321e+08   ,2.4  ,2.5  ,3.4505
619  ,8.347e+08   ,2.4  ,2.5  ,3.2535
620  ,6.760e+08   ,2.4  ,2.5  ,3.0564
621  ,6.294e+08   ,2.4  ,2.5  ,2.8593
622  ,5.475e+08   ,2.4  ,2.5  ,2.6622
623  ,4.809e+08   ,2.4  ,2.5  ,2.4651
624  ,4.327e+08   ,2.4  ,2.5  ,2.268
625  ,3.764e+08   ,2.4  ,2.5  ,2.0709
626  ,3.381e+08   ,2.4  ,2.5  ,1.8738
627  ,2.968e+08   ,2.4  ,2.5  ,1.6767
628  ,2.791e+08   ,2.4  ,2.5  ,1.4796
629  ,2.220e+08   ,2.4  ,2.5  ,1.2825
630  ,1.441e+08   ,2.4  ,2.5  ,1.0855
631  ,1.122e+08   ,2.4  ,2.5  ,0.88836
632  ,1.047e+08   ,2.4  ,2.5  ,0.69127
633  ,1.185e+08   ,2.4  ,2.5  ,0.49418
634  ,1.229e+08   ,2.4  ,2.5  ,0.29709
796  ,1.484e+08   ,-2.5  ,2.2  ,0.1
797  ,1.814e+08   ,-2.5  ,2  ,0.1
798  ,1.848e+08   ,-2.5  ,1.8  ,0.1
799  ,1.940e+08   ,-2.5  ,1.6  ,0.1
800  ,1.963e+08   ,-2.5  ,1.4  ,0.1
801  ,2.016e+08   ,-2.5  ,1.2  ,0.1
802  ,2.170e+08   ,-2.5  ,1  ,0.1
803  ,2.092e+08   ,-2.5  ,0.8  ,0.1
804  ,1.536e+08   ,-2.5  ,0.6  ,0.1
805  ,1.168e+08   ,-2.5  ,0.4  ,0.1
806  ,8.519e+07   ,-2.5  ,0.2  ,0.1
807  ,6.037e+07   ,-2.5  ,5.8879E-16  ,0.1
808  ,5.151e+07   ,-2.5  ,-0.2  ,0.1
809  ,4.412e+07   ,-2.5  ,-0.4  ,0.1
810  ,1.390e+07   ,-2.5  ,-0.6  ,0.1
811  ,1.077e+07   ,-2.5  ,-0.8  ,0.1
812  ,9.527e+06   ,-2.5  ,-1  ,0.1
813  ,5.253e+06   ,-2.5  ,-1.2  ,0.1
814  ,8.943e+06   ,-2.5  ,-1.4  ,0.1
815  ,8.178e+06   ,-2.5  ,-1.6  ,0.1
816  ,1.648e+06   ,-2.5  ,-1.8  ,0.1
817  ,2.694e+06   ,-2.5  ,-2  ,0.1
818  ,3.310e+06   ,-2.5  ,-2.2  ,0.1
819  ,9.722e+07   ,-2.5  ,-2.4  ,4.7
820  ,1.595e+08   ,-2.5  ,-2.4  ,4.5
821  ,2.802e+08   ,-2.5  ,-2.4  ,4.3
822  ,3.388e+08   ,-2.5  ,-2.4  ,4.1
823  ,1.920e+08   ,-2.5  ,-2.4  ,3.9
824  ,7.076e+07   ,-2.5  ,-2.4  ,3.7
825  ,6.752e+07   ,-2.5  ,-2.4  ,3.5
826  ,1.007e+08   ,-2.5  ,-2.4  ,3.3
827  ,1.020e+08   ,-2.5  ,-2.4  ,3.1
828  ,7.622e+07   ,-2.5  ,-2.4  ,2.9
829  ,5.636e+07   ,-2.5  ,-2.4  ,2.7
830  ,4.996e+07   ,-2.5  ,-2.4  ,2.5
831  ,3.919e+07   ,-2.5  ,-2.4  ,2.3
832  ,2.972e+07   ,-2.5  ,-2.4  ,2.1
833  ,1.777e+07   ,-2.5  ,-2.4  ,1.9
834  ,1.848e+07   ,-2.5  ,-2.4  ,1.7
835  ,2.060e+07   ,-2.5  ,-2.4  ,1.5
836  ,1.592e+07   ,-2.5  ,-2.4  ,1.3
837  ,1.214e+07   ,-2.5  ,-2.4  ,1.1
838  ,7.460e+06   ,-2.5  ,-2.4  ,0.9
839  ,8.088e+06   ,-2.5  ,-2.4  ,0.7
840  ,8.005e+06   ,-2.5  ,-2.4  ,0.5
841  ,5.083e+06   ,-2.5  ,-2.4  ,0.3
842  ,1.479e+08   ,-2.5  ,2.2  ,4.9
843  ,1.429e+08   ,-2.5  ,2  ,4.9
844  ,1.547e+08   ,-2.5  ,1.8  ,4.9
845  ,1.535e+08   ,-2.5  ,1.6  ,4.9
846  ,1.637e+08   ,-2.5  ,1.4  ,4.9
847  ,1.785e+08   ,-2.5  ,1.2  ,4.9
848  ,1.881e+08   ,-2.5  ,1  ,4.9
849  ,2.497e+08   ,-2.5  ,0.8  ,4.9
850  ,1.922e+08   ,-2.5  ,0.6  ,4.9
851  ,1.915e+08   ,-2.5  ,0.4  ,4.9
852  ,2.079e+08   ,-2.5  ,0.2  ,4.9
853  ,2.061e+08   ,-2.5  ,5.8879E-16  ,4.9
854  ,1.653e+08   ,-2.5  ,-0.2  ,4.9
855  ,1.389e+08   ,-2.5  ,-0.4  ,4.9
856  ,1.311e+08   ,-2.5  ,-0.6  ,4.9
857  ,1.301e+08   ,-2.5  ,-0.8  ,4.9
858  ,1.170e+08   ,-2.5  ,-1  ,4.9
859  ,1.281e+08   ,-2.5  ,-1.2  ,4.9
860  ,1.330e+08   ,-2.5  ,-1.4  ,4.9
861  ,1.184e+08   ,-2.5  ,-1.6  ,4.9
862  ,1.171e+08   ,-2.5  ,-1.8  ,4.9
863  ,1.134e+08   ,-2.5  ,-2  ,4.9
864  ,1.020e+08   ,-2.5  ,-2.2  ,4.9
865  ,1.303e+08   ,-2.5  ,2.4  ,4.7
866  ,1.493e+08   ,-2.5  ,2.4  ,4.5
867  ,1.745e+08   ,-2.5  ,2.4  ,4.3
868  ,1.501e+08   ,-2.5  ,2.4  ,4.1
869  ,2.071e+08   ,-2.5  ,2.4  ,3.9
870  ,2.003e+08   ,-2.5  ,2.4  ,3.7
871  ,2.061e+08   ,-2.5  ,2.4  ,3.5
872  ,2.484e+08   ,-2.5  ,2.4  ,3.3
873  ,2.051e+08   ,-2.5  ,2.4  ,3.1
874  ,2.205e+08   ,-2.5  ,2.4  ,2.9
875  ,2.008e+08   ,-2.5  ,2.4  ,2.7
876  ,1.978e+08   ,-2.5  ,2.4  ,2.5
877  ,1.547e+08   ,-2.5  ,2.4  ,2.3
878  ,1.429e+08   ,-2.5  ,2.4  ,2.1
879  ,1.265e+08   ,-2.5  ,2.4  ,1.9
880  ,1.448e+08   ,-2.5  ,2.4  ,1.7
881  ,1.045e+08   ,-2.5  ,2.4  ,1.5
882  ,1.053e+08   ,-2.5  ,2.4  ,1.3
883  ,8.970e+07   ,-2.5  ,2.4  ,1.1
884  ,7.562e+07   ,-2.5  ,2.4  ,0.9
885  ,6.388e+07   ,-2.5  ,2.4  ,0.7
886  ,8.423e+07   ,-2.5  ,2.4  ,0.5
887  ,1.049e+08   ,-2.5  ,2.4  ,0.3
1044  ,4.287e+06   ,-2.3  ,-2.5  ,0.44697
1045  ,6.559e+06   ,-2.3  ,-2.5  ,0.68705
1046  ,8.391e+06   ,-2.3  ,-2.5  ,0.92554
1047  ,6.077e+06   ,-2.3  ,-2.5  ,1.1682
1048  ,1.064e+07   ,-2.3  ,-2.5  ,1.4148
1049  ,2.128e+07   ,-2.3  ,-2.5  ,1.6581
1050  ,2.677e+07   ,-2.3  ,-2.5  ,1.8967
1051  ,3.191e+07   ,-2.3  ,-2.5  ,2.1357
1052  ,3.928e+07   ,-2.3  ,-2.5  ,2.3794
1053  ,5.620e+07   ,-2.3  ,-2.5  ,2.6206
1054  ,7.875e+07   ,-2.3  ,-2.5  ,2.8643
1055  ,9.023e+07   ,-2.3  ,-2.5  ,3.1033
1056  ,1.418e+08   ,-2.3  ,-2.5  ,3.342
1057  ,2.083e+08   ,-2.3  ,-2.5  ,3.5852
1058  ,1.112e+08   ,-2.3  ,-2.5  ,3.8318
1059  ,1.612e+08   ,-2.3  ,-2.5  ,4.0745
1060  ,2.202e+08   ,-2.3  ,-2.5  ,4.3129
1061  ,9.871e+07   ,-2.3  ,-2.5  ,4.553
1062  ,2.983e+08   ,-2.053  ,-2.5  ,4.8
1063  ,2.029e+08   ,-1.8129  ,-2.5  ,4.8
1064  ,1.166e+08   ,-1.5745  ,-2.5  ,4.8
1065  ,8.959e+07   ,-1.3318  ,-2.5  ,4.8
1066  ,1.382e+08   ,-1.0852  ,-2.5  ,4.8
1067  ,2.044e+08   ,-0.84195  ,-2.5  ,4.8
1068  ,1.759e+08   ,-0.60329  ,-2.5  ,4.8
1069  ,1.905e+08   ,-0.3643  ,-2.5  ,4.8
1070  ,2.098e+08   ,-0.12055  ,-2.5  ,4.8
1071  ,2.149e+08   ,0.12056  ,-2.5  ,4.8
1072  ,2.564e+08   ,0.3643  ,-2.5  ,4.8
1073  ,3.067e+08   ,0.6033  ,-2.5  ,4.8
1074  ,2.802e+08   ,0.84195  ,-2.5  ,4.8
1075  ,1.616e+08   ,1.0852  ,-2.5  ,4.8
1076  ,2.103e+08   ,1.3318  ,-2.5  ,4.8
1077  ,2.414e+08   ,1.5745  ,-2.5  ,4.8
1078  ,1.905e+08   ,1.8129  ,-2.5  ,4.8
1079  ,2.244e+08   ,2.053  ,-2.5  ,4.8
1080  ,2.317e+08   ,2.3  ,-2.5  ,4.553
1081  ,2.138e+08   ,2.3  ,-2.5  ,4.3129
1082  ,2.739e+08   ,2.3  ,-2.5  ,4.0745
1083  ,2.160e+08   ,2.3  ,-2.5  ,3.8318
1084  ,1.375e+08   ,2.3  ,-2.5  ,3.5852
1085  ,2.607e+08   ,2.3  ,-2.5  ,3.3419
1086  ,3.110e+08   ,2.3  ,-2.5  ,3.1033
1087  ,2.598e+08   ,2.3  ,-2.5  ,2.8643
1088  ,1.771e+08   ,2.3  ,-2.5  ,2.6206
1089  ,1.820e+08   ,2.3  ,-2.5  ,2.3794
1090  ,1.829e+08   ,2.3  ,-2.5  ,2.1357
1091  ,1.782e+08   ,2.3  ,-2.5  ,1.8967
1092  ,1.603e+08   ,2.3  ,-2.5  ,1.658
1093  ,5.724e+07   ,2.3  ,-2.5  ,1.4148
1094  ,2.187e+07   ,2.3  ,-2.5  ,1.1682
1095  ,6.821e+07   ,2.3  ,-2.5  ,0.92554
1096  ,1.995e+08   ,2.3  ,-2.5  ,0.68705
1097  ,2.935e+08   ,2.3  ,-2.5  ,0.44697
1098  ,3.445e+06   ,-2.053  ,-2.5  ,0.2
1099  ,4.756e+06   ,-1.8129  ,-2.5  ,0.2
1100  ,3.837e+06   ,-1.5745  ,-2.5  ,0.2
1101  ,6.632e+06   ,-1.3318  ,-2.5  ,0.2
1102  ,8.052e+06   ,-1.0852  ,-2.5  ,0.2
1103  ,9.032e+06   ,-0.84195  ,-2.5  ,0.2
1104  ,1.478e+07   ,-0.60329  ,-2.5  ,0.2
1105  ,2.935e+07   ,-0.3643  ,-2.5  ,0.2
1106  ,4.169e+07   ,-0.12055  ,-2.5  ,0.2
1107  ,6.067e+07   ,0.12056  ,-2.5  ,0.2
1108  ,8.990e+07   ,0.3643  ,-2.5  ,0.2
1109  ,1.025e+08   ,0.6033  ,-2.5  ,0.2
1110  ,1.579e+08   ,0.84195  ,-2.5  ,0.2
1111  ,2.310e+08   ,1.0852  ,-2.5  ,0.2
1112  ,1.165e+08   ,1.3318  ,-2.5  ,0.2
1113  ,1.746e+08   ,1.5745  ,-2.5  ,0.2
1114  ,2.247e+08   ,1.8129  ,-2.5  ,0.2
1115  ,9.546e+07   ,2.053  ,-2.5  ,0.2
1116  ,1.174e+08   ,-2.2  ,-2.5  ,4.9
1117  ,6.900e+07   ,-2  ,-2.5  ,4.9
1118  ,4.628e+07   ,-1.8  ,-2.5  ,4.9
1119  ,9.588e+07   ,-1.6  ,-2.5  ,4.9
1120  ,1.270e+08   ,-1.4  ,-2.5  ,4.9
1121  ,1.326e+08   ,-1.2  ,-2.5  ,4.9
1122  ,1.743e+08   ,-1  ,-2.5  ,4.9
1123  ,2.097e+08   ,-0.8  ,-2.5  ,4.9
1124  ,1.477e+08   ,-0.6  ,-2.5  ,4.9
1125  ,1.298e+08   ,-0.4  ,-2.5  ,4.9
1126  ,1.622e+08   ,-0.2  ,-2.5  ,4.9
1127  ,2.354e+08   ,-1.7664E-15  ,-2.5  ,4.9
1128  ,2.578e+08   ,0.2  ,-2.5  ,4.9
1129  ,2.605e+08   ,0.4  ,-2.5  ,4.9
1130  ,2.642e+08   ,0.6  ,-2.5  ,4.9
1131  ,2.797e+08   ,0.8  ,-2.5  ,4.9
1132  ,2.735e+08   ,1  ,-2.5  ,4.9
1133  ,3.043e+08   ,1.2  ,-2.5  ,4.9
1134  ,2.819e+08   ,1.4  ,-2.5  ,4.9
1135  ,2.583e+08   ,1.6  ,-2.5  ,4.9
1136  ,1.858e+08   ,1.8  ,-2.5  ,4.9
1137  ,1.479e+08   ,2  ,-2.5  ,4.9
1138  ,2.216e+08   ,2.2  ,-2.5  ,4.9
1139  ,1.577e+08   ,-2.4  ,-2.5  ,4.7
1140  ,1.211e+08   ,-2.4  ,-2.5  ,4.5
1141  ,8.826e+07   ,-2.4  ,-2.5  ,4.3
1142  ,1.003e+08   ,-2.4  ,-2.5  ,4.1
1143  ,1.760e+08   ,-2.4  ,-2.5  ,3.9
1144  ,1.286e+08   ,-2.4  ,-2.5  ,3.7
1145  ,1.422e+08   ,-2.4  ,-2.5  ,3.5
1146  ,1.259e+08   ,-2.4  ,-2.5  ,3.3
1147  ,9.789e+07   ,-2.4  ,-2.5  ,3.1
1148  ,8.009e+07   ,-2.4  ,-2.5  ,2.9
1149  ,6.342e+07   ,-2.4  ,-2.5  ,2.7
1150  ,5.229e+07   ,-2.4  ,-2.5  ,2.5
1151  ,4.126e+07   ,-2.4  ,-2.5  ,2.3
1152  ,3.006e+07   ,-2.4  ,-2.5  ,2.1
1153  ,2.087e+07   ,-2.4  ,-2.5  ,1.9
1154  ,1.997e+07   ,-2.4  ,-2.5  ,1.7
1155  ,1.665e+07   ,-2.4  ,-2.5  ,1.5
1156  ,1.223e+07   ,-2.4  ,-2.5  ,1.3
1157  ,9.636e+06   ,-2.4  ,-2.5  ,1.1
1158  ,7.444e+06   ,-2.4  ,-2.5  ,0.9
1159  ,7.838e+06   ,-2.4  ,-2.5  ,0.7
1160  ,7.593e+06   ,-2.4  ,-2.5  ,0.5
1161  ,5.781e+06   ,-2.4  ,-2.5  ,0.3
1162  ,4.354e+06   ,-2.2  ,-2.5  ,0.1
1163  ,5.934e+06   ,-2  ,-2.5  ,0.1
1164  ,6.245e+06   ,-1.8  ,-2.5  ,0.1
1165  ,4.149e+06   ,-1.6  ,-2.5  ,0.1
1166  ,5.385e+06   ,-1.4  ,-2.5  ,0.1
1167  ,7.742e+06   ,-1.2  ,-2.5  ,0.1
1168  ,5.696e+06   ,-1  ,-2.5  ,0.1
1169  ,1.137e+07   ,-0.8  ,-2.5  ,0.1
1170  ,1.672e+07   ,-0.6  ,-2.5  ,0.1
1171  ,2.507e+07   ,-0.4  ,-2.5  ,0.1
1172  ,3.786e+07   ,-0.2  ,-2.5  ,0.1
1173  ,5.645e+07   ,-1.7664E-15  ,-2.5  ,0.1
1174  ,7.259e+07   ,0.2  ,-2.5  ,0.1
1175  ,9.090e+07   ,0.4  ,-2.5  ,0.1
1176  ,1.121e+08   ,0.6  ,-2.5  ,0.1
1177  ,1.393e+08   ,0.8  ,-2.5  ,0.1
1178  ,1.556e+08   ,1  ,-2.5  ,0.1
1179  ,1.493e+08   ,1.2  ,-2.5  ,0.1
1180  ,1.757e+08   ,1.4  ,-2.5  ,0.1
1181  ,1.049e+08   ,1.6  ,-2.5  ,0.1
1182  ,9.300e+07   ,1.8  ,-2.5  ,0.1
1183  ,1.010e+08   ,2  ,-2.5  ,0.1
1184  ,1.481e+08   ,2.2  ,-2.5  ,0.1
1185  ,2.096e+08   ,2.4  ,-2.5  ,4.7
1186  ,1.688e+08   ,2.4  ,-2.5  ,4.5
1187  ,2.070e+08   ,2.4  ,-2.5  ,4.3
1188  ,2.742e+08   ,2.4  ,-2.5  ,4.1
1189  ,3.057e+08   ,2.4  ,-2.5  ,3.9
1190  ,2.914e+08   ,2.4  ,-2.5  ,3.7
1191  ,2.518e+08   ,2.4  ,-2.5  ,3.5
1192  ,2.835e+08   ,2.4  ,-2.5  ,3.3
1193  ,2.690e+08   ,2.4  ,-2.5  ,3.1
1194  ,2.528e+08   ,2.4  ,-2.5  ,2.9
1195  ,2.248e+08   ,2.4  ,-2.5  ,2.7
1196  ,1.848e+08   ,2.4  ,-2.5  ,2.5
1197  ,1.258e+08   ,2.4  ,-2.5  ,2.3
1198  ,1.434e+08   ,2.4  ,-2.5  ,2.1
1199  ,1.701e+08   ,2.4  ,-2.5  ,1.9
1200  ,1.947e+08   ,2.4  ,-2.5  ,1.7
1201  ,1.268e+08   ,2.4  ,-2.5  ,1.5
1202  ,4.786e+07   ,2.4  ,-2.5  ,1.3
1203  ,8.620e+07   ,2.4  ,-2.5  ,1.1
1204  ,7.100e+07   ,2.4  ,-2.5  ,0.9
1205  ,5.380e+07   ,2.4  ,-2.5  ,0.7
1206  ,6.351e+07   ,2.4  ,-2.5  ,0.5
1207  ,1.004e+08   ,2.4  ,-2.5  ,0.3
1208  ,9.535e+07   ,2.4  ,-2.2  ,0
1209  ,1.130e+08   ,2.4  ,-2  ,0
1210  ,1.126e+08   ,2.4  ,-1.8  ,0
1211  ,1.212e+08   ,2.4  ,-1.6  ,0
1212  ,1.395e+08   ,2.4  ,-1.4  ,0
1213  ,1.430e+08   ,2.4  ,-1.2  ,0
1214  ,1.254e+08   ,2.4  ,-1  ,0
1215  ,1.365e+08   ,2.4  ,-0.8  ,0
1216  ,1.253e+08   ,2.4  ,-0.6  ,0
1217  ,1.376e+08   ,2.4  ,-0.4  ,0
1218  ,1.565e+08   ,2.4  ,-0.2  ,0
1219  ,1.748e+08   ,2.4  ,-1.7664E-15  ,0
1220  ,2.319e+08   ,2.4  ,0.2  ,0
1221  ,2.168e+08   ,2.4  ,0.4  ,0
1222  ,1.970e+08   ,2.4  ,0.6  ,0
1223  ,2.574e+08   ,2.4  ,0.8  ,0
1224  ,2.012e+08   ,2.4  ,1  ,0
1225  ,1.976e+08   ,2.4  ,1.2  ,0
1226  ,1.859e+08   ,2.4  ,1.4  ,0
1227  ,1.419e+08   ,2.4  ,1.6  ,0
1228  ,1.380e+08   ,2.4  ,1.8  ,0
1229  ,1.183e+08   ,2.4  ,2  ,0
1230  ,1.096e+08   ,2.4  ,2.2  ,0
1231  ,2.905e+06   ,-2.2  ,-2.4  ,0
1232  ,7.700e+06   ,-2  ,-2.4  ,0
1233  ,6.179e+06   ,-1.8  ,-2.4  ,0
1234  ,6.300e+06   ,-1.6  ,-2.4  ,0
1235  ,9.641e+06   ,-1.4  ,-2.4  ,0
1236  ,9.904e+06   ,-1.2  ,-2.4  ,0
1237  ,5.142e+06   ,-1  ,-2.4  ,0
1238  ,1.334e+07   ,-0.8  ,-2.4  ,0
1239  ,2.117e+07   ,-0.6  ,-2.4  ,0
1240  ,2.618e+07   ,-0.4  ,-2.4  ,0
1241  ,3.531e+07   ,-0.2  ,-2.4  ,0
1242  ,5.293e+07   ,5.8879E-16  ,-2.4  ,0
1243  ,6.799e+07   ,0.2  ,-2.4  ,0
1244  ,8.712e+07   ,0.4  ,-2.4  ,0
1245  ,1.125e+08   ,0.6  ,-2.4  ,0
1246  ,1.117e+08   ,0.8  ,-2.4  ,0
1247  ,7.138e+07   ,1  ,-2.4  ,0
1248  ,8.102e+07   ,1.2  ,-2.4  ,0
1249  ,2.236e+08   ,1.4  ,-2.4  ,0
1250  ,3.292e+08   ,1.6  ,-2.4  ,0
1251  ,2.763e+08   ,1.8  ,-2.4  ,0
1252  ,1.902e+08   ,2  ,-2.4  ,0
1253  ,1.116e+08   ,2.2  ,-2.4  ,0
1254  ,1.501e+08   ,-2.4  ,2.2  ,0
1255  ,1.803e+08   ,-2.4  ,2  ,0
1256  ,1.928e+08   ,-2.4  ,1.8  ,0
1257  ,1.918e+08   ,-2.4  ,1.6  ,0
1258  ,1.960e+08   ,-2.4  ,1.4  ,0
1259  ,2.045e+08   ,-2.4  ,1.2  ,0
1260  ,2.047e+08   ,-2.4  ,1  ,0
1261  ,2.045e+08   ,-2.4  ,0.8  ,0
1262  ,1.582e+08   ,-2.4  ,0.6  ,0
1263  ,1.204e+08   ,-2.4  ,0.4  ,0
1264  ,8.854e+07   ,-2.4  ,0.2  ,0
1265  ,6.284e+07   ,-2.4  ,5.8879E-16  ,0
1266  ,4.704e+07   ,-2.4  ,-0.2  ,0
1267  ,3.767e+07   ,-2.4  ,-0.4  ,0
1268  ,1.219e+07   ,-2.4  ,-0.6  ,0
1269  ,1.325e+07   ,-2.4  ,-0.8  ,0
1270  ,1.049e+07   ,-2.4  ,-1  ,0
1271  ,1.411e+07   ,-2.4  ,-1.2  ,0
1272  ,1.235e+07   ,-2.4  ,-1.4  ,0
1273  ,6.526e+06   ,-2.4  ,-1.6  ,0
1274  ,5.227e+06   ,-2.4  ,-1.8  ,0
1275  ,3.867e+06   ,-2.4  ,-2  ,0
1276  ,2.125e+06   ,-2.4  ,-2.2  ,0
1277  ,1.075e+08   ,2.2  ,2.4  ,0
1278  ,1.268e+08   ,2  ,2.4  ,0
1279  ,1.530e+08   ,1.8  ,2.4  ,0
1280  ,1.440e+08   ,1.6  ,2.4  ,0
1281  ,1.312e+08   ,1.4  ,2.4  ,0
1282  ,1.728e+08   ,1.2  ,2.4  ,0
1283  ,1.880e+08   ,1  ,2.4  ,0
1284  ,2.048e+08   ,0.8  ,2.4  ,0
1285  ,1.550e+08   ,0.6  ,2.4  ,0
1286  ,1.063e+08   ,0.4  ,2.4  ,0
1287  ,1.227e+08   ,0.2  ,2.4  ,0
1288  ,1.682e+08   ,5.8879E-16  ,2.4  ,0
1289  ,2.430e+08   ,-0.2  ,2.4  ,0
1290  ,2.280e+08   ,-0.4  ,2.4  ,0
1291  ,1.632e+08   ,-0.6  ,2.4  ,0
1292  ,1.464e+08   ,-0.8  ,2.4  ,0
1293  ,1.083e+08   ,-1  ,2.4  ,0
1294  ,1.074e+08   ,-1.2  ,2.4  ,0
1295  ,8.692e+07   ,-1.4  ,2.4  ,0
1296  ,6.513e+07   ,-1.6  ,2.4  ,0
1297  ,5.893e+07   ,-1.8  ,2.4  ,0
1298  ,5.788e+07   ,-2  ,2.4  ,0
1299  ,8.526e+07   ,-2.2  ,2.4  ,0
1460  ,7.555e+09   ,2.3243  ,2.3243  ,4.9577
1461  ,7.366e+09   ,2.4577  ,2.3243  ,4.8243
1462  ,5.781e+09   ,2.3243  ,2.4577  ,4.8243
1463  ,1.929e+08   ,-2.3  ,-2.1759  ,4.8
1464  ,1.910e+08   ,-2.3  ,-1.7631  ,4.8
1465  ,2.559e+08   ,-2.3  ,-1.1827  ,4.8
1466  ,3.779e+08   ,-2.3  ,-0.34986  ,4.8
1467  ,2.776e+08   ,-2.3  ,0.80545  ,4.8
1468  ,4.336e+08   ,-0.81337  ,2.3  ,4.8
1469  ,1.177e+09   ,0.67326  ,2.3  ,4.8
1470  ,2.395e+08   ,2.3  ,-2.1824  ,4.8
1471  ,1.593e+08   ,2.3  ,-1.7784  ,4.8
1472  ,2.975e+08   ,2.3  ,-1.2138  ,4.8
1473  ,4.917e+08   ,2.3  ,-0.40752  ,4.8
1474  ,1.095e+09   ,2.3  ,0.70532  ,4.8
1516  ,4.301e+08   ,2.3  ,2.3  ,1.6866
1517  ,1.147e+09   ,2.3  ,2.3  ,3.1733
1518  ,2.017e+08   ,2.3  ,-2.1759  ,0.2
1519  ,1.982e+08   ,2.3  ,-1.7631  ,0.2
1520  ,2.568e+08   ,2.3  ,-1.1827  ,0.2
1521  ,3.837e+08   ,2.3  ,-0.34986  ,0.2
1522  ,2.756e+08   ,2.3  ,0.80545  ,0.2
1564  ,3.865e+08   ,-0.76667  ,2.3  ,0.2
1565  ,2.738e+08   ,0.76667  ,2.3  ,0.2
1566  ,3.888e+08   ,-2.3  ,2.3  ,1.7333
1567  ,2.622e+08   ,-2.3  ,2.3  ,3.2667
1574  ,5.499e+06   ,-2.3  ,-2.1759  ,0.2
1575  ,7.791e+06   ,-2.3  ,-1.7631  ,0.2
1576  ,9.900e+06   ,-2.3  ,-1.1827  ,0.2
1577  ,2.617e+07   ,-2.3  ,-0.34986  ,0.2
1578  ,1.357e+08   ,-2.3  ,0.80545  ,0.2
1777  ,3.482e+08   ,-0.52764  ,2.5  ,4.9
1801  ,9.003e+07   ,-2.3  ,1.5527  ,0.2
1825  ,3.014e+08   ,-1.5333  ,2.3  ,0.2
1841  ,4.746e+08   ,0.063638  ,2.5  ,4.9
1876  ,1.958e+08   ,-0.5  ,2.4  ,0
1894  ,3.505e+08   ,2.3  ,1.5527  ,0.2
1907  ,1.290e+08   ,2.1  ,2.5  ,0.1
1928  ,1.315e+08   ,1.9  ,2.4  ,0
1974  ,1.903e+08   ,2.4  ,1.1  ,0
1981  ,1.101e+08   ,2.4  ,2.5  ,0.59273
1987  ,1.922e+08   ,-2.5  ,2.4  ,4
2004  ,1.170e+08   ,-2.4  ,2.5  ,4.6
2009  ,1.872e+08   ,2.4  ,1.3  ,0
2020  ,2.161e+08   ,2.5  ,1.1  ,0.1
2035  ,2.535e+07   ,-2.3  ,-0.76628  ,0.2
2070  ,2.148e+09   ,1.6404  ,2.4  ,5
2081  ,3.530e+08   ,2.4  ,2.5  ,1.9724
2095  ,1.129e+08   ,2.4  ,2.5  ,0.78982
2138  ,5.363e+07   ,-2.4  ,-0.1  ,0
2146  ,2.834e+08   ,-0.92182  ,2.4  ,5
2174  ,1.720e+08   ,2.4  ,2.5  ,1.184
2190  ,1.539e+08   ,2.5  ,2.4  ,0.98691
2203  ,3.415e+08   ,2.5  ,-0.13345  ,4.9
2232  ,8.000e+08   ,2.3  ,0.1489  ,4.8
2242  ,6.495e+08   ,2.4  ,2.5  ,2.9578
2293  ,1.360e+08   ,-2.5  ,0.5  ,0.1
2311  ,1.091e+09   ,2.3  ,2.3  ,2.4299
2313  ,1.411e+08   ,2.5  ,2.4  ,0.78982
2329  ,4.039e+08   ,2.4  ,2.5  ,2.1695
2355  ,1.275e+08   ,-2.4  ,2.5  ,4.4
2380  ,9.576e+06   ,-2.5  ,-1.5  ,0.1
2383  ,6.715e+08   ,0.45782  ,2.5  ,4.9
2408  ,2.145e+08   ,2.3  ,-1.4961  ,4.8
2445  ,1.606e+08   ,2.5  ,-1.5131  ,4.9
2484  ,1.988e+07   ,-2.5  ,-2.4  ,1.6
2495  ,1.580e+08   ,-2.4  ,1.7  ,5
2508  ,2.235e+08   ,2.4  ,0.3  ,0
2514  ,5.205e+08   ,2.3  ,0.2278  ,0.2
2570  ,1.753e+08   ,-2.4  ,1.5  ,5
2580  ,2.063e+09   ,1.6404  ,2.5  ,4.9
2603  ,2.806e+08   ,-1.1189  ,2.5  ,4.9
2695  ,2.332e+08   ,2.3  ,2.3  ,0.94331
2705  ,2.648e+08   ,2.4  ,2.5  ,1.3811
2714  ,5.805e+08   ,2.5  ,0.45782  ,4.9
2734  ,1.246e+08   ,2.4  ,-0.9  ,0
2775  ,1.626e+08   ,2.5  ,-0.1  ,0.1
2779  ,1.576e+08   ,2.4  ,-0.1  ,0
2801  ,2.658e+09   ,1.4166  ,2.3  ,4.8
2814  ,1.635e+09   ,1.4433  ,2.5  ,4.9
2863  ,1.045e+08   ,-2.4  ,2.5  ,0.6
2884  ,1.118e+08   ,-2.4  ,2.5  ,0.8
2886  ,1.440e+08   ,-2.4  ,2.5  ,1.2
2967  ,1.350e+08   ,2.4  ,1.7  ,0
2973  ,2.173e+08   ,2.5  ,1.5  ,0.1
2987  ,2.862e+08   ,-0.3  ,2.5  ,0.1
3008  ,2.929e+08   ,-2.3  ,2.3  ,0.96667
3012  ,1.968e+08   ,-2.5  ,2.4  ,2.6
3021  ,1.927e+08   ,-2.5  ,2.4  ,2.8
3025  ,1.731e+08   ,-2.5  ,2.4  ,2.4
3030  ,2.032e+08   ,-2.4  ,2.5  ,2.4
3033  ,1.996e+08   ,-2.4  ,2.5  ,2.2
3047  ,4.635e+08   ,2.4  ,2.5  ,2.3665
3052  ,5.611e+08   ,2.5  ,2.4  ,2.5636
3061  ,5.169e+08   ,2.4  ,2.5  ,2.5636
3081  ,1.885e+08   ,-2.4  ,1.3  ,5
3088  ,1.217e+08   ,-1.9073  ,2.4  ,5
3099  ,1.412e+08   ,-2.4  ,1.9  ,5
3107  ,1.600e+08   ,-2.4  ,2.5  ,3.8
3139  ,1.581e+08   ,-1.5131  ,2.4  ,5
3145  ,1.704e+08   ,-1.5131  ,2.5  ,4.9
3148  ,1.358e+08   ,-1.7102  ,2.5  ,4.9
3168  ,1.909e+08   ,-2.4  ,1.5  ,0
3188  ,9.719e+06   ,-2.5  ,-2.4  ,1
3202  ,5.325e+08   ,0.26073  ,2.5  ,4.9
3212  ,2.124e+09   ,2.5  ,1.6404  ,4.9
3247  ,3.353e+09   ,2.5  ,1.8375  ,4.9
3265  ,2.724e+09   ,2.3  ,1.4326  ,4.8
3271  ,5.922e+09   ,2.2299  ,2.2299  ,4.8
3284  ,1.563e+09   ,2.4  ,1.4433  ,5
3291  ,1.584e+09   ,2.5  ,1.4433  ,4.9
3296  ,3.928e+08   ,-2.3  ,-0.76628  ,4.8
3303  ,1.536e+08   ,-2.4  ,-0.9  ,5
3311  ,1.639e+08   ,-2.4  ,-0.7  ,5
3315  ,1.235e+08   ,1.9  ,2.5  ,0.1
3336  ,1.028e+08   ,-2.4  ,0.3  ,0
3340  ,7.207e+07   ,-2.5  ,0.1  ,0.1
3344  ,7.517e+07   ,-2.4  ,0.1  ,0
3356  ,2.321e+08   ,-0.3  ,2.4  ,0
3361  ,3.804e+08   ,-0.33054  ,2.5  ,4.9
3364  ,4.030e+08   ,-0.13345  ,2.5  ,4.9
3383  ,9.883e+08   ,2.4  ,2.5  ,3.5491
3402  ,4.734e+09   ,2.4  ,2.5  ,4.5345
3421  ,2.160e+08   ,-1.316  ,2.5  ,4.9
3439  ,1.545e+09   ,2.5  ,2.4  ,3.9433
3447  ,1.610e+09   ,2.4  ,2.5  ,3.9433
3451  ,1.223e+09   ,2.4  ,2.5  ,3.7462
3468  ,1.596e+09   ,1.4433  ,2.4  ,5
3480  ,9.542e+08   ,1.0491  ,2.4  ,5
3519  ,1.676e+08   ,1.5  ,2.4  ,0
3527  ,2.546e+08   ,2.3  ,-1.4729  ,0.2
3550  ,5.571e+07   ,-1.7  ,2.4  ,0
3554  ,1.143e+08   ,-1.7  ,2.5  ,0.1
3558  ,6.984e+07   ,-1.5  ,2.4  ,0
3562  ,1.265e+08   ,-1.5  ,2.5  ,0.1
3574  ,1.211e+08   ,-2.4  ,2.1  ,5
3581  ,1.868e+08   ,-2.5  ,1.7  ,0.1
3583  ,1.794e+08   ,-2.5  ,1.9  ,0.1
3584  ,1.023e+08   ,-1.9073  ,2.5  ,4.9
3591  ,2.029e+08   ,2.5  ,0.3  ,0.1
3595  ,1.712e+08   ,2.5  ,0.1  ,0.1
3603  ,1.107e+10   ,2.4577  ,2.391  ,4.7576
3663  ,4.149e+06   ,-1.933  ,-2.5  ,0.2
3669  ,5.333e+06   ,-2.1765  ,-2.5  ,0.2
3672  ,6.632e+06   ,-2.3  ,-2.3379  ,0.2
3682  ,7.021e+06   ,-1.9  ,-2.4  ,0
3700  ,2.152e+08   ,2.3  ,-2.5  ,2.7424
3712  ,1.219e+08   ,-2.1  ,-2.5  ,4.9
3715  ,7.119e+07   ,-1.9  ,-2.5  ,4.9
3740  ,1.745e+08   ,-1.3  ,-2.4  ,5
3746  ,1.121e+08   ,-1.2085  ,-2.5  ,4.8
3755  ,1.032e+08   ,-1.5  ,-2.4  ,5
3760  ,6.760e+07   ,-1.7  ,-2.5  ,4.9
3786  ,2.757e+08   ,2.4  ,2.5  ,1.5782
3813  ,5.920e+08   ,0.26073  ,2.4  ,5
3858  ,3.055e+08   ,-0.9  ,-2.4  ,5
3863  ,2.175e+08   ,-2.5  ,0.9  ,4.9
3875  ,1.634e+08   ,-1.9  ,-2.4  ,5
3885  ,2.938e+08   ,2.4  ,-0.72473  ,5
3910  ,1.401e+08   ,-2.4  ,-2.5  ,3.4
3959  ,2.331e+09   ,2.5  ,2.4  ,4.1404
3969  ,8.726e+08   ,2.5  ,1.0491  ,4.9
3992  ,1.269e+10   ,2.391  ,2.2576  ,4.9577
3993  ,1.124e+10   ,2.4577  ,2.2576  ,4.891
4016  ,6.105e+07   ,-2.3015  ,2.5  ,4.9
4018  ,7.846e+07   ,-2.4  ,2.5  ,4.8
4021  ,1.143e+09   ,1.2462  ,2.4  ,5
4042  ,1.232e+08   ,2.4  ,-1.1  ,0
4046  ,1.214e+08   ,-0.9  ,2.4  ,0
4055  ,2.077e+08   ,1.7  ,-2.5  ,4.9
4087  ,1.642e+08   ,1.7  ,2.4  ,0
4114  ,3.407e+08   ,2.5  ,-0.33054  ,4.9
4120  ,1.983e+08   ,2.4  ,-2.5  ,1.8
4125  ,9.968e+07   ,2.4  ,2.5  ,0.98691
4144  ,3.283e+09   ,2.4  ,2.5  ,4.3375
4161  ,2.567e+08   ,-2.4  ,0.3  ,5
4201  ,1.873e+08   ,1.933  ,-2.5  ,0.2
4225  ,1.186e+06   ,-2.3  ,-2.4  ,0
4230  ,5.732e+06   ,-2.3  ,-2.5  ,0.56701
4269  ,2.219e+08   ,-0.9  ,-2.5  ,4.9
4277  ,2.363e+08   ,-1.1  ,-2.4  ,5
4288  ,8.952e+08   ,-0.070055  ,2.3  ,4.8
4328  ,3.233e+08   ,-2.5  ,-2.4  ,4.2
4336  ,2.265e+08   ,-2.5  ,-2.4  ,4.4
4342  ,4.566e+07   ,-2.5  ,-2.4  ,4.6
4348  ,1.502e+08   ,-2.4  ,-2.4707  ,4.9707
4352  ,1.394e+08   ,-2.3  ,-2.5  ,4.9
4354  ,3.190e+08   ,-2.1765  ,-2.5  ,4.8
4355  ,2.145e+08   ,-2.3  ,-2.3379  ,4.8
4362  ,9.605e+07   ,2.5  ,2.4  ,0.59273
4364  ,1.174e+08   ,2.5  ,-2.4  ,2.4
4366  ,1.332e+08   ,2.5  ,-2.4  ,2.2
4372  ,1.100e+08   ,2.4  ,-2.5  ,2.2
4385  ,1.986e+06   ,-2.5  ,-1.9  ,0.1
4399  ,1.660e+08   ,-2.5  ,2.1  ,0.1
4407  ,1.578e+07   ,-0.7  ,-2.4  ,0
4436  ,5.405e+07   ,-2.5  ,-0.1  ,0.1
4462  ,2.653e+08   ,-2.3  ,2.3  ,4.0333
4491  ,2.851e+08   ,2.5  ,-0.52764  ,4.9
4494  ,1.713e+08   ,2.5  ,-2.4  ,1.4
4503  ,7.199e+07   ,2.4  ,-2.5  ,1.4
4508  ,6.345e+07   ,2.4  ,-2.5  ,1.2
4515  ,2.665e+08   ,2.5  ,-2.4  ,1.8
4517  ,1.815e+08   ,2.4  ,-2.5  ,1.6
4522  ,1.207e+08   ,0.7  ,-2.4  ,0
4538  ,2.615e+08   ,-1.1189  ,2.4  ,5
4546  ,2.104e+09   ,2.4  ,2.5  ,4.1404
4559  ,3.146e+08   ,1.7  ,-2.4  ,0
4590  ,9.948e+07   ,0.5  ,-2.4  ,0
4631  ,2.026e+08   ,2.4  ,-2.5  ,2.6
4634  ,2.081e+08   ,2.5  ,-2.4  ,2.8
4657  ,1.936e+07   ,-2.5  ,-2.4  ,2
4660  ,1.612e+07   ,-2.5  ,-2.4  ,1.8
4664  ,3.024e+07   ,-0.3  ,-2.4  ,0
4675  ,1.297e+08   ,-2.4  ,-2.5  ,4.8
4681  ,4.828e+07   ,-2.5  ,-0.3  ,0.1
4684  ,2.186e+08   ,1.7  ,-2.4  ,5
4703  ,2.617e+08   ,-2.4  ,0.7  ,5
4707  ,1.999e+08   ,-2.5  ,0.3  ,4.9
4714  ,3.279e+08   ,2.4  ,-0.33054  ,5
4723  ,3.329e+08   ,-1.5567  ,2.3  ,4.8
4739  ,1.112e+08   ,-2.1044  ,2.5  ,4.9
4763  ,5.688e+07   ,-1.9  ,2.4  ,0
4780  ,5.414e+06   ,-2.3  ,-1.9695  ,0.2
4782  ,1.465e+06   ,-2.4707  ,-2.4  ,0.029289
4784  ,4.308e+06   ,-2.4  ,-1.9  ,0
4791  ,1.948e+07   ,-2.4  ,-2.5  ,1.8
4796  ,9.182e+07   ,2.4707  ,-2.4707  ,4.9
4799  ,1.509e+08   ,2.5  ,-2.4  ,4.8
4806  ,1.693e+08   ,2.3  ,-2.5  ,4.9
4809  ,2.741e+09   ,2.3  ,2.3  ,3.9166
4833  ,1.134e+08   ,-2.4  ,2.5  ,0.4
4841  ,1.976e+08   ,-2.4  ,2.5  ,2.6
4846  ,1.247e+08   ,-2.5  ,2.1  ,4.9
4848  ,1.129e+08   ,-2.5  ,2.3  ,4.9
4849  ,9.145e+07   ,-2.5  ,2.4  ,4.8
4893  ,1.389e+08   ,-2.4  ,2.5  ,4.2
4897  ,4.850e+09   ,2.3333  ,2.1998  ,5
4900  ,1.072e+10   ,2.391  ,2.4577  ,4.7576
4908  ,1.060e+10   ,2.2576  ,2.391  ,4.9577
4911  ,1.072e+10   ,2.2576  ,2.4577  ,4.891
4926  ,7.505e+07   ,-2.5  ,2.4  ,1
4932  ,1.600e+08   ,-2.4  ,2.5  ,1.6
4937  ,1.859e+08   ,-1.1  ,2.5  ,0.1
4939  ,5.794e+09   ,2.3  ,2.2299  ,4.7299
4944  ,2.242e+08   ,2.5  ,-1.9073  ,4.9
4987  ,3.156e+08   ,-2.3  ,1.5527  ,4.8
5010  ,7.564e+09   ,2.4973  ,2.1331  ,4.923
5013  ,4.541e+09   ,2.5  ,2.0345  ,4.9
5017  ,4.871e+09   ,2.4  ,2.0345  ,5
5035  ,1.350e+08   ,1.3  ,-2.4  ,0
5038  ,1.975e+08   ,1.2085  ,-2.5  ,0.2
5092  ,1.123e+07   ,-2.4  ,-2.5  ,1.2
5123  ,1.645e+08   ,2.5  ,-2.4  ,0.6
5151  ,2.855e+07   ,-2.5  ,-0.5  ,0.1
5160  ,8.719e+06   ,-2.5  ,-0.7  ,0.1
5164  ,2.203e+08   ,-2.4  ,0.9  ,5
5168  ,2.562e+08   ,-2.4  ,0.5  ,5
5176  ,1.500e+08   ,2.5  ,-0.7  ,0.1
5179  ,1.217e+08   ,2.4  ,-0.5  ,0
5189  ,1.478e+08   ,2.4  ,-2.5  ,2.4
5194  ,1.849e+08   ,2.3  ,-2.5  ,2.2576
5198  ,5.798e+06   ,-2.3  ,-2.5  ,0.32348
5205  ,4.113e+06   ,-2.4  ,-2.5  ,0.2
5207  ,4.770e+06   ,-2.1  ,-2.5  ,0.1
5246  ,2.234e+08   ,-2.5  ,2.4  ,3.2
5257  ,1.619e+08   ,-2.5  ,1.5  ,4.9
5263  ,9.668e+07   ,-2.3  ,0.2278  ,0.2
5272  ,9.767e+07   ,-2.5  ,0.3  ,0.1
5275  ,2.113e+08   ,-2.5  ,0.5  ,4.9
5281  ,2.783e+09   ,1.8375  ,2.5  ,4.9
5297  ,1.755e+08   ,-0.9  ,2.5  ,0.1
5306  ,1.460e+08   ,-0.7  ,2.4  ,0
5309  ,2.280e+08   ,-0.5  ,2.5  ,0.1
5324  ,5.833e+08   ,2.4  ,2.5  ,2.7607
5332  ,6.766e+07   ,2.5  ,-2.4  ,0.8
5334  ,8.690e+07   ,2.4  ,-2.5  ,1
5360  ,1.612e+08   ,2.4  ,-1.7102  ,5
5362  ,1.487e+08   ,2.4  ,-1.5131  ,5
5368  ,2.988e+09   ,2.4  ,1.8375  ,5
5371  ,1.870e+10   ,2.4325  ,2.4888  ,4.6656
5372  ,5.083e+09   ,2.3333  ,2.5  ,4.6998
5376  ,4.082e+09   ,2.4707  ,2.4707  ,4.6331
5377  ,5.014e+09   ,2.5  ,2.4  ,4.5345
5379  ,1.081e+08   ,-1.5  ,-2.5  ,4.9
5406  ,9.056e+07   ,-2.5  ,-2.4  ,3.4
5420  ,1.059e+08   ,-2.3  ,-2.5  ,3.2226
5423  ,2.819e+08   ,1.5  ,-2.4  ,0
5502  ,1.911e+06   ,-2.5  ,-2.3  ,0.1
5504  ,2.588e+06   ,-2.5  ,-2.4  ,0.2
5506  ,1.818e+06   ,-2.4  ,-2.3  ,0
5511  ,3.255e+06   ,-2.5  ,-2.1  ,0.1
5513  ,1.364e+08   ,-2.4  ,0.5  ,0
5517  ,6.702e+06   ,-0.9  ,-2.5  ,0.1
5532  ,4.619e+07   ,-2.4707  ,2.4707  ,4.9
5534  ,1.297e+08   ,2.4  ,-0.7  ,0
5551  ,3.691e+08   ,2.5  ,-2.4  ,3.8
5566  ,1.693e+08   ,2.5  ,2.4  ,1.3811
5603  ,1.422e+08   ,2.4  ,-0.3  ,0
5617  ,1.021e+08   ,-2.1  ,2.5  ,0.1
5637  ,2.013e+08   ,-2.3  ,-1.9695  ,4.8
5641  ,1.858e+08   ,2.3  ,-2.5  ,3.4636
5645  ,2.308e+07   ,-2.4  ,-2.5  ,2
5649  ,3.613e+07   ,-2.4  ,-2.5  ,2.2
5659  ,2.496e+07   ,-2.3  ,-2.5  ,1.7774
5662  ,1.655e+08   ,2.1765  ,-2.5  ,4.8
5666  ,1.605e+08   ,2.4  ,-2.5  ,4.8
5669  ,9.923e+07   ,2.3  ,-2.3412  ,4.8
5695  ,1.828e+08   ,-2.4  ,0.7  ,0
5701  ,1.120e+08   ,-2.5  ,2.4  ,1.6
5715  ,1.423e+08   ,-2.4  ,2.5  ,1.8
5726  ,1.837e+08   ,-0.7  ,2.5  ,0.1
5727  ,1.188e+08   ,-1.1  ,2.4  ,0
5730  ,1.776e+08   ,2.3  ,-2.5  ,1.7774
5746  ,3.218e+08   ,2.5  ,2.4  ,1.7753
5755  ,1.863e+08   ,2.5  ,-2.4  ,4.4
5763  ,1.957e+08   ,2.4  ,-2.5  ,4.4
5773  ,9.962e+08   ,1.0491  ,2.5  ,4.9
5791  ,2.978e+08   ,-0.72473  ,2.4  ,5
5795  ,3.038e+09   ,1.8375  ,2.4  ,5
5803  ,8.149e+07   ,-0.3  ,-2.4  ,5
5810  ,2.042e+09   ,2.4  ,1.6404  ,5
5836  ,1.662e+08   ,-2.5  ,1.3  ,4.9
5860  ,2.682e+08   ,2.5  ,-2.4  ,1.6
5866  ,1.459e+08   ,1.5  ,-2.5  ,0.1
5884  ,1.677e+08   ,-2.4  ,-0.3  ,5
5888  ,1.277e+08   ,-2.5  ,-0.5  ,4.9
5901  ,1.752e+08   ,2.3  ,-2.5  ,2.5
5908  ,9.845e+07   ,2.5  ,-2.4  ,1.2
5909  ,2.148e+08   ,2.5  ,-2.4  ,2
5934  ,1.700e+08   ,1.9  ,-2.5  ,4.9
5938  ,2.357e+08   ,1.933  ,-2.5  ,4.8
5948  ,1.237e+08   ,-2.4  ,-2.5  ,4.6
5950  ,1.353e+08   ,-2.4707  ,-2.4707  ,4.9
5951  ,9.629e+07   ,-2.5  ,-2.4  ,4.8
5952  ,9.605e+07   ,-2.5  ,-2.3  ,4.9
5986  ,1.548e+08   ,2.3  ,-2.5  ,3.7085
5990  ,2.671e+08   ,-0.92182  ,2.5  ,4.9
6019  ,1.312e+08   ,2.5  ,1.9  ,0.1
6025  ,1.400e+08   ,2.4  ,-1.3  ,0
6035  ,1.601e+08   ,-2.5  ,1.9  ,4.9
6044  ,1.821e+08   ,0.1  ,2.5  ,0.1
6054  ,1.960e+08   ,2.4  ,0.1  ,0
6070  ,9.919e+07   ,-2.4  ,2.3  ,0
6071  ,8.328e+07   ,-2.3  ,2.4  ,0
6076  ,1.660e+08   ,-2.4  ,2.1  ,0
6083  ,8.320e+07   ,2.1  ,-2.4  ,0
6084  ,7.344e+07   ,2.4  ,2.3  ,0
6087  ,7.701e+07   ,2.3  ,2.4  ,0
6092  ,5.913e+06   ,-2.4  ,-2.5  ,0.4
6096  ,2.354e+06   ,-2.3  ,-2.5  ,0.1
6099  ,1.244e+08   ,0.7  ,-2.5  ,0.1
6149  ,1.137e+07   ,-2.4  ,-0.9  ,0
6159  ,5.210e+07   ,-2.5  ,-2.4  ,2.6
6183  ,1.229e+09   ,1.2462  ,2.5  ,4.9
6224  ,3.438e+08   ,2.5  ,-2.4  ,4
6228  ,3.043e+08   ,2.4  ,-2.5  ,3.8
6237  ,2.543e+08   ,2.5  ,0.7  ,0.1
6241  ,5.002e+09   ,2.5  ,2.3333  ,4.6998
6245  ,2.168e+08   ,2.5  ,2.4  ,1.5782
6259  ,1.972e+08   ,2.5  ,-2.1044  ,4.9
6265  ,2.436e+08   ,2.3  ,-1.9804  ,4.8
6267  ,1.105e+08   ,2.5  ,-2.3015  ,4.9
6268  ,8.440e+07   ,2.4707  ,-2.4  ,4.9707
6270  ,1.997e+08   ,2.4  ,-2.1044  ,5
6317  ,3.530e+08   ,-2.3  ,0.2278  ,4.8
6349  ,3.723e+08   ,-0.52764  ,2.4  ,5
6391  ,3.200e+08   ,2.4  ,2.5  ,1.7753
6440  ,2.127e+08   ,-2.5  ,2.4  ,3.8
6471  ,2.313e+08   ,2.5  ,-0.92182  ,4.9
6489  ,1.200e+09   ,2.5  ,1.2462  ,4.9
6523  ,6.159e+06   ,-1.1  ,-2.4  ,0
6528  ,5.283e+06   ,-1.1  ,-2.5  ,0.1
6535  ,6.177e+06   ,-0.9  ,-2.4  ,0
6538  ,3.124e+08   ,1.5  ,-2.4  ,5
6541  ,2.813e+08   ,1.5  ,-2.5  ,4.9
6551  ,2.856e+08   ,2.5  ,-0.72473  ,4.9
6564  ,7.345e+09   ,2.1331  ,2.4973  ,4.923
6565  ,4.790e+09   ,2.0345  ,2.5  ,4.9
6572  ,1.185e+08   ,2.4  ,-1.7  ,0
6581  ,4.788e+08   ,0  ,2.3  ,0.2
6592  ,2.129e+08   ,2.3  ,-1.9695  ,0.2
6594  ,1.215e+08   ,0.3  ,2.4  ,0
6601  ,2.510e+08   ,0.5  ,2.5  ,0.1
6605  ,1.310e+07   ,-2.4  ,-1.3  ,0
6606  ,1.045e+07   ,-2.4  ,-1.1  ,0
6615  ,4.305e+07   ,-2.4  ,-0.3  ,0
6634  ,1.665e+08   ,2.1  ,-2.5  ,4.9
6635  ,9.499e+07   ,2.4  ,-2.4707  ,4.9707
6636  ,1.526e+08   ,2.3  ,-2.4  ,5
6647  ,9.648e+07   ,0.5  ,-2.5  ,0.1
6704  ,5.530e+07   ,-2.4707  ,2.4707  ,0.1
6708  ,8.830e+07   ,-2.5  ,2.4  ,0.2
6712  ,1.841e+08   ,-2.4  ,2.5  ,3.6
6715  ,2.088e+08   ,-2.4  ,2.5  ,3.4
6728  ,2.138e+08   ,-2.5  ,0.7  ,4.9
6753  ,1.082e+08   ,-2.1044  ,2.4  ,5
6788  ,3.240e+09   ,2.5  ,2.4  ,4.3375
6791  ,2.614e+08   ,-1.933  ,-2.5  ,4.8
6795  ,4.614e+09   ,2.1998  ,2.5  ,4.8333
6837  ,8.271e+06   ,-2.3  ,-2.5  ,0.8063
6869  ,1.992e+08   ,2.5  ,-1.7102  ,4.9
6873  ,2.337e+08   ,2.4  ,-1.9073  ,5
6880  ,2.533e+08   ,2.4  ,-0.92182  ,5
6885  ,3.153e+08   ,2.4  ,-0.52764  ,5
6893  ,1.114e+09   ,2.4  ,1.2462  ,5
6914  ,2.354e+08   ,0.7  ,2.5  ,0.1
6920  ,1.982e+08   ,0.9  ,2.4  ,0
6923  ,1.804e+08   ,0.7  ,2.4  ,0
6936  ,2.926e+08   ,2.4  ,-2.5  ,3.4
6939  ,2.961e+08   ,2.3  ,-2.5  ,3.2226
6961  ,2.026e+08   ,-0.1  ,-2.5  ,4.9
6967  ,1.159e+08   ,-2.5  ,-1.5  ,4.9
6975  ,1.873e+08   ,-2.4  ,1.1  ,5
6978  ,1.047e+08   ,-2.4  ,2.5  ,0.2
6987  ,1.617e+08   ,2.4  ,-1.316  ,5
6994  ,1.289e+08   ,2.4  ,-1.5  ,0
7004  ,2.669e+08   ,2.4  ,-2.5  ,3.6
7011  ,7.529e+08   ,2.4  ,0.65491  ,5
7016  ,5.439e+08   ,2.4  ,0.45782  ,5
7019  ,4.134e+08   ,2.5  ,2.4  ,2.1695
7021  ,3.893e+08   ,2.5  ,2.4  ,1.9724
7052  ,1.365e+08   ,-1.3  ,2.5  ,0.1
7054  ,7.530e+06   ,-2.4  ,-2.5  ,0.8
7057  ,8.184e+07   ,0.3  ,-2.5  ,0.1
7065  ,7.559e+07   ,0.24243  ,-2.5  ,0.2
7075  ,1.859e+10   ,2.4888  ,2.4325  ,4.6656
7113  ,5.702e+07   ,-2.4  ,-2.5  ,2.6
7121  ,7.107e+07   ,-2.4  ,-2.5  ,2.8
7126  ,6.551e+07   ,-2.5  ,-2.4  ,2.8
7128  ,2.051e+06   ,-2.4707  ,-2.4707  ,0.1
7129  ,2.246e+06   ,-2.4  ,-2.4707  ,0.029289
7141  ,1.080e+08   ,-1.7  ,-2.4  ,5
7145  ,1.826e+08   ,1.1  ,2.4  ,0
7163  ,1.025e+08   ,-1.7102  ,2.4  ,5
7172  ,2.194e+08   ,2.5  ,-2.4  ,3.2
7174  ,1.989e+08   ,-2.5  ,2.4  ,3.6
7183  ,9.424e+07   ,-1.4531  ,-2.5  ,4.8
7204  ,6.336e+08   ,2.3  ,-0.81068  ,4.8
7220  ,3.936e+08   ,2.5  ,0.063638  ,4.9
7227  ,1.438e+08   ,2.5  ,-1.9  ,0.1
7256  ,1.399e+08   ,-0.1  ,-2.4  ,5
7280  ,3.952e+08   ,-0.33054  ,2.4  ,5
7299  ,1.972e+08   ,2.5  ,-1.1189  ,4.9
7316  ,7.699e+06   ,-2.5  ,-2.4  ,0.8
7323  ,9.347e+06   ,-2.4  ,-2.5  ,1
7396  ,3.414e+08   ,1.1  ,-2.4  ,5
7400  ,1.789e+08   ,-2.5  ,0.7  ,0.1
7409  ,3.732e+08   ,1.3  ,-2.4  ,5
7420  ,1.464e+08   ,2.5  ,2.1  ,0.1
7429  ,1.224e+08   ,2.4  ,1.9  ,0
7436  ,1.255e+08   ,2.5  ,-1.7  ,0.1
7438  ,2.388e+08   ,2.4  ,-2.5  ,2.8
7445  ,1.621e+10   ,2.4325  ,2.1656  ,4.9888
7464  ,1.014e+08   ,2.5  ,-1.5  ,0.1
7480  ,1.292e+08   ,2.5  ,-2.4  ,0.2
7482  ,6.119e+07   ,1.9  ,-2.5  ,0.1
7483  ,6.337e+07   ,1.7  ,-2.5  ,0.1
7486  ,1.746e+08   ,1.9  ,-2.4  ,5
7488  ,2.167e+08   ,1.6937  ,-2.5  ,4.8
7492  ,2.265e+08   ,2.1  ,-2.4  ,5
7495  ,6.437e+07   ,0.1  ,-2.5  ,0.1
7504  ,7.656e+07   ,0.3  ,-2.4  ,0
7507  ,1.519e+08   ,0.9  ,-2.5  ,0.1
7533  ,2.157e+08   ,-2.5  ,0.9  ,0.1
7536  ,1.105e+08   ,-2.4  ,-2.5  ,3.2
7540  ,8.741e+07   ,-2.4  ,-2.5  ,3
7545  ,8.755e+07   ,-2.5  ,-2.4  ,3
7582  ,1.405e+08   ,1.3  ,2.5  ,0.1
7588  ,5.331e+08   ,2.5  ,2.4  ,2.3665
7598  ,1.803e+08   ,-2.5  ,2.4  ,4.2
7607  ,2.752e+08   ,1.5333  ,2.3  ,0.2
7627  ,1.734e+08   ,-2.5  ,1.1  ,4.9
7651  ,1.092e+08   ,2.4  ,-1.9  ,0
7656  ,1.158e+08   ,2.5  ,2.4  ,0.39564
7660  ,5.696e+09   ,2.2299  ,2.3  ,4.7299
7668  ,2.404e+08   ,1.4531  ,-2.5  ,4.8
7676  ,2.495e+08   ,0.1  ,-2.5  ,4.9
7683  ,2.288e+08   ,0.1  ,-2.4  ,5
7686  ,1.482e+08   ,-2.4  ,-1.1  ,5
7702  ,1.799e+08   ,-2.3  ,-2.5  ,4.433
7710  ,1.116e+08   ,-2.3  ,-2.5  ,4.6765
7752  ,2.726e+08   ,0.9  ,-2.4  ,5
7763  ,2.287e+08   ,0.24243  ,-2.5  ,4.8
7767  ,1.086e+08   ,-2.5  ,-2.4  ,3.2
7768  ,2.999e+06   ,-2.4  ,-2.1  ,0
7776  ,2.060e+08   ,-2.4  ,0.9  ,0
7786  ,1.740e+08   ,-0.4838  ,-2.5  ,4.8
7800  ,2.326e+08   ,2.5  ,-2.4  ,4.6
7805  ,1.313e+08   ,-2.5  ,-1.3  ,4.9
7811  ,1.124e+08   ,-2.5  ,-1.1  ,4.9
7820  ,1.175e+08   ,2.5  ,-2.1  ,0.1
7824  ,9.904e+07   ,2.4  ,-2.1  ,0
7828  ,2.286e+08   ,2.4  ,-2.5  ,4.2
7831  ,3.074e+08   ,2.4  ,-2.5  ,4
7838  ,2.260e+08   ,2.5  ,-2.4  ,4.2
7839  ,5.416e+08   ,2.5  ,2.4  ,2.7607
7840  ,6.167e+08   ,2.5  ,2.4  ,2.9578
7863  ,8.908e+06   ,-2.4  ,-1.5  ,0
7890  ,2.224e+08   ,2.4  ,0.9  ,0
7897  ,1.017e+07   ,-2.4  ,-0.7  ,0
7912  ,6.893e+06   ,-1.5  ,-2.4  ,0
7917  ,7.060e+06   ,-1.3  ,-2.5  ,0.1
7931  ,1.268e+08   ,0.5  ,2.4  ,0
7934  ,5.804e+07   ,1.1  ,-2.4  ,0
7937  ,5.647e+07   ,2.4  ,-2.5  ,0.8
7941  ,8.337e+06   ,-2.4  ,-2.5  ,0.6
7969  ,1.058e+08   ,-2.5  ,2.3  ,0.1
7971  ,1.825e+08   ,-2.4  ,1.9  ,0
7972  ,1.005e+08   ,-1.9  ,2.5  ,0.1
7978  ,2.074e+08   ,-2.4  ,1.1  ,0
7996  ,1.632e+08   ,-2.4  ,-0.5  ,5
8000  ,8.100e+06   ,-2.5  ,-2.4  ,0.6
8003  ,7.252e+06   ,-2.5  ,-2.4  ,0.4
8025  ,1.720e+08   ,0.9  ,2.5  ,0.1
8035  ,1.671e+08   ,0.3  ,2.5  ,0.1
8039  ,3.242e+08   ,2.3  ,-2.5  ,0.32348
8041  ,2.193e+08   ,2.3  ,-2.3379  ,0.2
8043  ,1.232e+08   ,2.1765  ,-2.5  ,0.2
8045  ,7.597e+06   ,-0.96359  ,-2.5  ,0.2
8054  ,1.571e+08   ,1.3  ,2.4  ,0
8058  ,1.602e+08   ,1.1  ,2.5  ,0.1
8062  ,1.089e+08   ,-2.5  ,2.4  ,1.4
8067  ,6.231e+07   ,-2.5  ,2.4  ,0.8
8087  ,1.872e+08   ,-2.5  ,1.5  ,0.1
8132  ,4.838e+08   ,-0.13345  ,2.4  ,5
8183  ,1.506e+08   ,2.5  ,-0.9  ,0.1
8184  ,2.338e+08   ,1.6937  ,-2.5  ,0.2
8214  ,8.740e+07   ,-2.4707  ,-2.4  ,4.9707
8217  ,2.091e+08   ,-2.1  ,-2.4  ,5
8219  ,9.261e+07   ,-2.4  ,-2.5  ,4.4
8227  ,7.805e+08   ,2.5  ,2.4  ,3.1549
8242  ,2.809e+08   ,0.7  ,-2.5  ,4.9
8248  ,3.463e+08   ,2.5  ,-2.4  ,3.6
8254  ,1.557e+08   ,2.5  ,-0.3  ,0.1
8256  ,1.513e+08   ,2.5  ,-0.5  ,0.1
8258  ,1.223e+08   ,-0.3  ,-2.5  ,4.9
8263  ,1.193e+08   ,-0.5  ,-2.5  ,4.9
8268  ,1.784e+08   ,-2.3  ,-2.5  ,3.7085
8277  ,4.822e+07   ,-0.1  ,-2.5  ,0.1
8285  ,2.700e+08   ,1.1  ,-2.5  ,4.9
8307  ,1.332e+08   ,0.1  ,2.4  ,0
8308  ,4.187e+08   ,-0.1  ,2.5  ,0.1
8309  ,2.015e+08   ,-0.1  ,2.4  ,0
8313  ,8.950e+07   ,2.5  ,-2.3  ,0.1
8318  ,1.975e+08   ,2.5  ,-2.4  ,3
8338  ,8.270e+08   ,2.5  ,2.4  ,3.352
8339  ,7.241e+08   ,2.4  ,2.5  ,3.1549
8344  ,2.299e+08   ,-2.5  ,2.4  ,3.4
8357  ,1.549e+10   ,2.4888  ,2.1656  ,4.9325
8358  ,4.571e+09   ,2.5  ,2.1998  ,4.8333
8383  ,4.940e+06   ,-1.7  ,-2.4  ,0
8396  ,1.495e+08   ,1.1  ,-2.5  ,0.1
8399  ,5.157e+09   ,2.4526  ,2.1331  ,4.9851
8405  ,7.856e+07   ,2.5  ,-2.4  ,1
8412  ,1.366e+08   ,2.3  ,-2.5  ,0.8063
8417  ,4.610e+07   ,-2.3  ,-2.5  ,2.5
8434  ,2.198e+08   ,0.9636  ,-2.5  ,4.8
8438  ,3.216e+07   ,-0.3  ,-2.5  ,0.1
8452  ,1.877e+08   ,-2.4  ,-0.1  ,5
8468  ,1.206e+09   ,2.5  ,2.4  ,3.7462
8471  ,1.290e+08   ,-1.3  ,-2.5  ,4.9
8493  ,1.496e+08   ,-1.1  ,-2.5  ,4.9
8509  ,4.816e+06   ,-2.5  ,-1.7  ,0.1
8517  ,1.949e+08   ,-2.4  ,2.5  ,3
8531  ,1.933e+08   ,-2.4  ,1.7  ,0
8556  ,9.267e+08   ,2.5  ,2.4  ,3.5491
8573  ,1.956e+08   ,-1.316  ,2.4  ,5
8576  ,1.939e+08   ,-2.4  ,1.3  ,0
8611  ,3.063e+07   ,2.3  ,-2.5  ,1.2915
8618  ,1.387e+08   ,-2.4  ,2.5  ,4
8646  ,2.088e+08   ,-2.5  ,1.1  ,0.1
8656  ,1.368e+08   ,2.5  ,-1.3  ,0.1
8657  ,1.008e+08   ,2.4  ,2.1  ,0
8673  ,8.918e+07   ,-1.3  ,2.4  ,0
8692  ,3.047e+08   ,0.72263  ,-2.5  ,4.8
8696  ,4.292e+07   ,2.3  ,-2.5  ,1.0469
8706  ,7.107e+08   ,2.5  ,0.65491  ,4.9
8721  ,1.984e+07   ,-2.4  ,-2.5  ,1.6
8725  ,8.331e+08   ,0.65491  ,2.4  ,5
8739  ,1.642e+10   ,2.1656  ,2.4325  ,4.9888
8741  ,4.828e+09   ,2.1998  ,2.3333  ,5
8746  ,5.758e+06   ,-2.1  ,-2.4  ,0
8748  ,1.382e+07   ,-2.5  ,-2.4  ,1.2
8752  ,5.724e+09   ,2.1331  ,2.4526  ,4.9851
8759  ,6.756e+06   ,-2.3  ,-2.5  ,1.0469
8787  ,4.469e+07   ,-0.1  ,-2.4  ,0
8793  ,3.459e+07   ,-2.3  ,-2.5  ,2.2576
8795  ,4.795e+07   ,-2.4  ,-2.5  ,2.4
8798  ,2.192e+08   ,-2.3  ,-2.5  ,4.1937
8808  ,6.225e+07   ,-2.3  ,-2.5  ,3.9531
8814  ,1.340e+08   ,-2.4  ,-1.5  ,5
8849  ,2.857e+08   ,0.4838  ,-2.5  ,4.8
8851  ,6.939e+07   ,-2.4  ,-2.5  ,4.2
8868  ,2.584e+08   ,2.4  ,-2.5  ,3
8874  ,9.134e+08   ,0.852  ,2.4  ,5
8883  ,1.588e+08   ,-0.5  ,-2.4  ,5
8886  ,1.993e+08   ,-0.72262  ,-2.5  ,4.8
8893  ,1.870e+08   ,-0.7  ,-2.5  ,4.9
8897  ,5.457e+07   ,-2.5  ,-2.4  ,3.6
8899  ,1.807e+08   ,-2.3  ,-2.5  ,3.4636
8900  ,8.345e+06   ,-2.3  ,-1.4729  ,0.2
8906  ,7.207e+06   ,-2.5  ,-1.3  ,0.1
8910  ,8.947e+08   ,0.852  ,2.5  ,4.9
8925  ,1.462e+08   ,-2.4  ,2.5  ,1.4
8941  ,6.304e+07   ,2.4707  ,2.4  ,0.029289
8942  ,9.911e+07   ,2.5  ,2.3  ,0.1
8945  ,1.760e+08   ,-2.5  ,0.1  ,4.9
8950  ,7.955e+07   ,2.4707  ,2.4707  ,0.1
8951  ,5.854e+07   ,2.4  ,2.4707  ,0.029289
8959  ,4.363e+08   ,2.4  ,0.26073  ,5
8965  ,6.384e+08   ,0.45782  ,2.4  ,5
8978  ,8.379e+08   ,2.4  ,0.852  ,5
8983  ,1.559e+08   ,2.5  ,-1.1  ,0.1
8991  ,6.713e+07   ,-2.5  ,2.4  ,0.6
9008  ,7.395e+08   ,2.5  ,0.852  ,4.9
9011  ,2.252e+07   ,-2.4  ,-0.5  ,0
9025  ,4.338e+06   ,-1.5  ,-2.5  ,0.1
9038  ,1.622e+08   ,2.4  ,-2.5  ,2
9041  ,2.281e+08   ,2.5  ,0.9  ,0.1
9050  ,2.464e+08   ,2.5  ,0.5  ,0.1
9054  ,9.557e+07   ,0.9  ,-2.4  ,0
9060  ,7.288e+07   ,2.4  ,-2.5  ,0.4
9062  ,2.618e+08   ,2.3  ,-2.5  ,0.56701
9064  ,1.859e+08   ,2.5  ,-2.4  ,0.4
9069  ,6.692e+07   ,2.4  ,-2.5  ,0.6
9071  ,7.395e+07   ,1.4531  ,-2.5  ,0.2
9082  ,7.413e+06   ,-2.3  ,-2.5  ,1.2915
9086  ,1.562e+07   ,-2.4  ,-2.5  ,1.4
9091  ,1.758e+07   ,-2.5  ,-2.4  ,1.4
9094  ,3.039e+08   ,1.3  ,-2.5  ,4.9
9097  ,1.366e+07   ,-0.7  ,-2.5  ,0.1
9137  ,1.327e+08   ,-2.5  ,-0.7  ,4.9
9143  ,1.887e+08   ,-2.5  ,-0.1  ,4.9
9146  ,7.105e+07   ,-2.1  ,2.4  ,0
9148  ,1.536e+08   ,-2.5  ,1.7  ,4.9
9173  ,1.952e+08   ,-2.5  ,2.4  ,3
9192  ,2.642e+08   ,-0.7  ,-2.4  ,5
9195  ,1.212e+08   ,0.72263  ,-2.5  ,0.2
9209  ,2.706e+08   ,2.5  ,-2.4  ,3.4
9215  ,2.013e+08   ,0.9636  ,-2.5  ,0.2
9217  ,2.764e+08   ,2.4  ,-2.5  ,3.2
9218  ,1.806e+08   ,-0.96359  ,-2.5  ,4.8
9229  ,1.896e+08   ,-2.4  ,2.5  ,2.8
9248  ,2.567e+08   ,2.3  ,-2.5  ,4.433
9255  ,2.162e+08   ,2.5  ,1.3  ,0.1
9257  ,1.625e+08   ,2.4  ,1.5  ,0
9262  ,2.051e+08   ,0.5  ,-2.4  ,5
9264  ,3.031e+08   ,2.4  ,-0.13345  ,5
9272  ,4.731e+08   ,0.063638  ,2.4  ,5
9277  ,9.058e+07   ,-2.5  ,2.4  ,1.2
9279  ,4.608e+08   ,2.5  ,0.26073  ,4.9
9282  ,1.615e+08   ,1.2085  ,-2.5  ,4.8
9286  ,2.943e+08   ,0.9  ,-2.5  ,4.9
9292  ,2.911e+07   ,-2.4  ,2.4707  ,4.9707
9293  ,3.586e+07   ,-2.3015  ,2.4  ,5
9296  ,1.162e+08   ,-2.4  ,-2.1  ,5
9303  ,1.493e+08   ,-2.4  ,-1.9  ,5
9311  ,8.525e+07   ,-2.4  ,2.3  ,5
9313  ,1.979e+08   ,-2.4  ,0.1  ,5
9319  ,2.281e+07   ,-0.5  ,-2.4  ,0
9328  ,1.519e+07   ,-2.3  ,-2.5  ,1.5364
9334  ,1.019e+08   ,-2.3  ,2.5  ,0.1
9338  ,4.442e+07   ,-2.5  ,-2.4  ,2.4
9339  ,1.955e+08   ,-2.5  ,1.3  ,0.1
9341  ,6.809e+07   ,-2.3  ,-2.5  ,2.7424
9344  ,3.745e+07   ,-2.5  ,-2.4  ,2.2
9358  ,7.940e+08   ,-2.3  ,2.3  ,2.5
9364  ,1.157e+08   ,-2.5  ,-2.1  ,4.9
9367  ,1.044e+08   ,-2.4  ,-2.3  ,5
9374  ,1.335e+08   ,-2.4  ,-1.3  ,5
9378  ,1.361e+08   ,-2.5  ,2.4  ,1.8
9384  ,1.827e+08   ,2.3  ,-2.5  ,2.0162
9385  ,1.562e+08   ,-2.5  ,2.4  ,4.4
9389  ,1.259e+08   ,-2.5  ,2.4  ,2
9395  ,1.117e+08   ,2.4  ,-2.3015  ,5
9396  ,4.871e+06   ,-2.4  ,-1.7  ,0
9407  ,2.357e+08   ,-2.3  ,-1.4729  ,4.8
9411  ,1.220e+08   ,-2.5  ,-1.7  ,4.9
9423  ,1.325e+08   ,-2.4  ,-2.5  ,3.6
9432  ,2.138e+08   ,0.7  ,-2.4  ,5
9438  ,1.160e+08   ,-2.5  ,-0.9  ,4.9
9443  ,1.483e+08   ,-2.5  ,-0.3  ,4.9
9445  ,4.789e+07   ,-2.4707  ,2.4  ,4.9707
9448  ,1.603e+08   ,2.4  ,-1.1189  ,5
9453  ,2.232e+08   ,2.4  ,0.7  ,0
9455  ,1.949e+08   ,2.5  ,-2.4  ,2.6
9457  ,3.017e+08   ,2.3  ,-2.5  ,2.9838
9494  ,1.238e+08   ,-2.4  ,2.5  ,1
9500  ,2.650e+08   ,0.3  ,-2.5  ,4.9
9504  ,2.385e+08   ,0.3  ,-2.4  ,5
9506  ,1.210e+08   ,2.1  ,-2.5  ,0.1
9518  ,6.050e+06   ,-1.9  ,-2.5  ,0.1
9528  ,1.279e+08   ,2.3  ,-2.5  ,0.1
9531  ,1.486e+08   ,2.4707  ,-2.4707  ,0.1
9533  ,9.143e+07   ,2.4707  ,-2.4  ,0.029289
9534  ,1.340e+08   ,2.4  ,-2.4707  ,0.029289
9541  ,2.555e+08   ,0.5  ,-2.5  ,4.9
9544  ,2.054e+07   ,-0.5  ,-2.5  ,0.1
9559  ,1.090e+08   ,-2.5  ,-1.9  ,4.9
9562  ,1.286e+08   ,-2.5  ,2.4  ,4.6
9565  ,1.866e+08   ,-2.4  ,2.5  ,2
9571  ,1.274e+08   ,-2.5  ,-2.4  ,3.8
9574  ,1.536e+08   ,-2.4  ,-2.5  ,3.8
9577  ,1.656e+08   ,1.3  ,-2.5  ,0.1
9582  ,1.046e+07   ,-2.5  ,-0.9  ,0.1
9596  ,1.060e+08   ,2.1  ,2.4  ,0
9598  ,2.331e+08   ,-2.4  ,2.5  ,3.2
9602  ,1.435e+08   ,1.5  ,2.5  ,0.1
9610  ,1.252e+08   ,2.4  ,2.5  ,0.39564
9612  ,3.153e+08   ,-0.72473  ,2.5  ,4.9
9614  ,1.390e+08   ,1.7  ,2.5  ,0.1
9635  ,1.977e+08   ,2.5  ,1.7  ,0.1
9646  ,8.982e+07   ,2.3  ,2.5  ,0.1
9651  ,1.517e+10   ,2.1656  ,2.4888  ,4.9325
9653  ,1.777e+08   ,2.5  ,-1.316  ,4.9
9656  ,1.199e+08   ,-2.4  ,-1.7  ,5
9659  ,1.604e+08   ,2.3  ,-2.5  ,4.6765
9661  ,2.673e+08   ,2.3  ,-2.5  ,3.9531
9664  ,1.320e+08   ,-2.3  ,-2.4  ,5
9666  ,2.202e+08   ,1.9  ,-2.4  ,0
9677  ,2.138e+08   ,2.4  ,0.5  ,0
9678  ,7.040e+06   ,-2.5  ,-1.1  ,0.1
9680  ,1.504e+08   ,2.5  ,2.4  ,1.184
9681  ,1.206e+08   ,2.5  ,2.4  ,0.19855
9696  ,2.938e+07   ,-2.3  ,-2.5  ,2.0162
9698  ,9.931e+07   ,2.4  ,-2.3  ,0
9699  ,3.489e+07   ,-0.24243  ,-2.5  ,0.2
9701  ,5.891e+07   ,0.1  ,-2.4  ,0
9704  ,2.088e+07   ,-0.4838  ,-2.5  ,0.2
9718  ,1.075e+07   ,-0.72262  ,-2.5  ,0.2
9726  ,4.424e+08   ,2.3  ,-0.76628  ,0.2
9727  ,8.896e+07   ,-2.5  ,2.4  ,0.4
9730  ,2.173e+08   ,1.9433E-06  ,-2.5  ,4.8
9731  ,2.035e+08   ,-0.24243  ,-2.5  ,4.8
9732  ,1.562e+08   ,-2.5  ,2.4  ,2.2
9738  ,2.753e+08   ,-2.5  ,-2.4  ,4
9743  ,1.698e+08   ,-1.6937  ,-2.5  ,4.8
9744  ,1.612e+08   ,-2.4  ,-2.5  ,4
9750  ,4.082e+06   ,-1.7  ,-2.5  ,0.1
9752  ,3.676e+06   ,-1.6937  ,-2.5  ,0.2
9754  ,9.945e+06   ,-1.3  ,-2.4  ,0
9759  ,6.164e+07   ,-2.4707  ,2.4  ,0.029289
9760  ,5.239e+07   ,-2.4  ,2.4707  ,0.029289
9768  ,2.492e+08   ,2.3  ,-2.5  ,4.1937
9770  ,4.904e+07   ,1.9433E-06  ,-2.5  ,0.2
9771  ,9.604e+07   ,0.4838  ,-2.5  ,0.2
9772  ,1.345e+08   ,2.4  ,-2.5  ,0.2
9773  ,1.639e+08   ,2.4  ,-2.5  ,4.6
9776  ,3.364e+08   ,2.4  ,0.063638  ,5
9780  ,7.837e+08   ,0.65491  ,2.5  ,4.9
9781  ,9.645e+07   ,2.4  ,2.5  ,0.19855
9782  ,8.382e+07   ,-2.3  ,-2.5  ,2.9838
9786  ,8.284e+06   ,-1.2085  ,-2.5  ,0.2
9787  ,3.364e+06   ,-1.4531  ,-2.5  ,0.2
9790  ,9.964e+07   ,2.3  ,-2.4  ,0
9793  ,4.832e+09   ,2.0345  ,2.4  ,5
9797  ,1.140e+08   ,2.3  ,-2.5  ,1.5364
9798  ,8.740e+08   ,2.4  ,1.0491  ,5
9809  ,8.875e+08   ,2.4  ,2.5  ,3.352
