Date:  11:25, Monday, July 10, 2023
Model name: Hollow_DropBox
Study name: Drop Test_hollow_draft1(-Default-)
Plot type:  Stress1
Plot step: 19   time : 99.7107 Microseconds
Result Type: von Mises 


Node  ,Value (N/m^2)  ,X (in)  ,Y (in)  ,Z (in)
1  ,4.301e+09   ,2.5  ,2.1331  ,4.9
2  ,2.078e+10   ,2.4577  ,2.1908  ,4.9577
3  ,6.377e+09   ,2.4894  ,2.1331  ,4.9447
4  ,6.143e+09   ,2.1331  ,2.5  ,4.9
5  ,1.296e+10   ,2.1331  ,2.4894  ,4.9447
6  ,1.993e+10   ,2.1908  ,2.4577  ,4.9577
7  ,1.318e+08   ,-2.4  ,2.4  ,5
8  ,1.089e+09   ,-2.4  ,-2.4  ,5
9  ,1.726e+09   ,2.4  ,-2.4  ,5
10  ,4.506e+09   ,2.4  ,2.1331  ,5
11  ,5.573e+09   ,2.1331  ,2.4  ,5
12  ,1.827e+09   ,2.5  ,-2.4  ,4.9
13  ,9.724e+08   ,2.5  ,-2.4  ,0.1
14  ,1.069e+08   ,2.5  ,2.4  ,0.1
15  ,6.192e+09   ,2.5  ,2.4  ,4.6331
16  ,1.078e+08   ,2.4  ,2.5  ,0.1
17  ,1.772e+08   ,-2.4  ,2.5  ,0.1
18  ,1.204e+08   ,-2.4  ,2.5  ,4.9
19  ,6.199e+09   ,2.4  ,2.5  ,4.6331
20  ,8.565e+07   ,-2.5  ,2.4  ,0.1
21  ,1.823e+08   ,-2.5  ,-2.4  ,0.1
22  ,7.195e+08   ,-2.5  ,-2.4  ,4.9
23  ,1.381e+08   ,-2.5  ,2.4  ,4.9
24  ,1.809e+08   ,-2.3  ,-2.5  ,0.2
25  ,7.863e+08   ,-2.3  ,-2.5  ,4.8
26  ,1.642e+09   ,2.3  ,-2.5  ,4.8
27  ,8.161e+08   ,2.3  ,-2.5  ,0.2
28  ,9.134e+08   ,-2.4  ,-2.5  ,4.9
29  ,1.882e+09   ,2.4  ,-2.5  ,4.9
30  ,2.426e+08   ,-2.4  ,-2.5  ,0.1
31  ,9.216e+08   ,2.4  ,-2.5  ,0.1
32  ,7.458e+08   ,2.4  ,-2.4  ,0
33  ,1.392e+08   ,2.4  ,2.4  ,0
34  ,2.057e+08   ,-2.4  ,-2.4  ,0
35  ,9.444e+07   ,-2.4  ,2.4  ,0
36  ,2.348e+10   ,2.4577  ,2.4577  ,4.6908
37  ,3.356e+08   ,-2.3  ,2.3  ,4.8
38  ,6.496e+09   ,2.1599  ,2.3  ,4.8
39  ,6.074e+09   ,2.3  ,2.1599  ,4.8
40  ,6.356e+09   ,2.3  ,2.3  ,4.6599
41  ,3.351e+08   ,2.3  ,2.3  ,0.2
42  ,5.805e+07   ,-2.3  ,2.3  ,0.2
43  ,2.555e+08   ,-2.4  ,2.2  ,5
44  ,3.971e+08   ,-2.4  ,2  ,5
45  ,4.176e+08   ,-2.4  ,1.8  ,5
46  ,4.031e+08   ,-2.4  ,1.6  ,5
47  ,4.106e+08   ,-2.4  ,1.4  ,5
48  ,4.848e+08   ,-2.4  ,1.2  ,5
49  ,5.484e+08   ,-2.4  ,1  ,5
50  ,6.819e+08   ,-2.4  ,0.8  ,5
51  ,4.717e+08   ,-2.4  ,0.6  ,5
52  ,3.783e+08   ,-2.4  ,0.4  ,5
53  ,3.768e+08   ,-2.4  ,0.2  ,5
54  ,3.582e+08   ,-2.4  ,5.8879E-16  ,5
55  ,2.712e+08   ,-2.4  ,-0.2  ,5
56  ,2.427e+08   ,-2.4  ,-0.4  ,5
57  ,2.540e+08   ,-2.4  ,-0.6  ,5
58  ,2.246e+08   ,-2.4  ,-0.8  ,5
59  ,2.876e+08   ,-2.4  ,-1  ,5
60  ,2.777e+08   ,-2.4  ,-1.2  ,5
61  ,5.192e+08   ,-2.4  ,-1.4  ,5
62  ,4.377e+08   ,-2.4  ,-1.6  ,5
63  ,4.280e+08   ,-2.4  ,-1.8  ,5
64  ,6.425e+08   ,-2.4  ,-2  ,5
65  ,5.957e+08   ,-2.4  ,-2.2  ,5
66  ,1.452e+09   ,-2.2  ,-2.4  ,5
67  ,1.166e+09   ,-2  ,-2.4  ,5
68  ,9.888e+08   ,-1.8  ,-2.4  ,5
69  ,5.983e+08   ,-1.6  ,-2.4  ,5
70  ,3.233e+08   ,-1.4  ,-2.4  ,5
71  ,1.985e+08   ,-1.2  ,-2.4  ,5
72  ,1.349e+08   ,-1  ,-2.4  ,5
73  ,2.167e+08   ,-0.8  ,-2.4  ,5
74  ,3.690e+08   ,-0.6  ,-2.4  ,5
75  ,5.875e+08   ,-0.4  ,-2.4  ,5
76  ,7.540e+08   ,-0.2  ,-2.4  ,5
77  ,1.003e+09   ,-5.8879E-16  ,-2.4  ,5
78  ,1.109e+09   ,0.2  ,-2.4  ,5
79  ,1.158e+09   ,0.4  ,-2.4  ,5
80  ,1.358e+09   ,0.6  ,-2.4  ,5
81  ,1.391e+09   ,0.8  ,-2.4  ,5
82  ,1.439e+09   ,1  ,-2.4  ,5
83  ,1.306e+09   ,1.2  ,-2.4  ,5
84  ,1.110e+09   ,1.4  ,-2.4  ,5
85  ,6.480e+08   ,1.6  ,-2.4  ,5
86  ,6.287e+08   ,1.8  ,-2.4  ,5
87  ,1.095e+09   ,2  ,-2.4  ,5
88  ,2.880e+09   ,2.2  ,-2.4  ,5
89  ,1.458e+09   ,2.4  ,-2.2029  ,5
90  ,1.528e+09   ,2.4  ,-2.0058  ,5
91  ,1.123e+09   ,2.4  ,-1.8087  ,5
92  ,1.002e+09   ,2.4  ,-1.6116  ,5
93  ,1.123e+09   ,2.4  ,-1.4145  ,5
94  ,9.537e+08   ,2.4  ,-1.2175  ,5
95  ,9.860e+08   ,2.4  ,-1.0204  ,5
96  ,1.002e+09   ,2.4  ,-0.82327  ,5
97  ,9.800e+08   ,2.4  ,-0.62618  ,5
98  ,8.208e+08   ,2.4  ,-0.42909  ,5
99  ,8.143e+08   ,2.4  ,-0.232  ,5
100  ,7.210e+08   ,2.4  ,-0.034907  ,5
101  ,7.311e+08   ,2.4  ,0.16218  ,5
102  ,6.974e+08   ,2.4  ,0.35927  ,5
103  ,8.734e+08   ,2.4  ,0.55637  ,5
104  ,8.769e+08   ,2.4  ,0.75346  ,5
105  ,8.032e+08   ,2.4  ,0.95055  ,5
106  ,8.555e+08   ,2.4  ,1.1476  ,5
107  ,1.351e+09   ,2.4  ,1.3447  ,5
108  ,1.847e+09   ,2.4  ,1.5418  ,5
109  ,2.377e+09   ,2.4  ,1.7389  ,5
110  ,3.802e+09   ,2.4  ,1.936  ,5
111  ,5.294e+09   ,2.2665  ,2.2665  ,5
112  ,4.537e+09   ,1.936  ,2.4  ,5
113  ,2.724e+09   ,1.7389  ,2.4  ,5
114  ,2.176e+09   ,1.5418  ,2.4  ,5
115  ,1.610e+09   ,1.3447  ,2.4  ,5
116  ,1.294e+09   ,1.1476  ,2.4  ,5
117  ,1.153e+09   ,0.95055  ,2.4  ,5
118  ,1.141e+09   ,0.75346  ,2.4  ,5
119  ,1.091e+09   ,0.55637  ,2.4  ,5
120  ,9.698e+08   ,0.35927  ,2.4  ,5
121  ,9.276e+08   ,0.16218  ,2.4  ,5
122  ,8.479e+08   ,-0.034907  ,2.4  ,5
123  ,9.357e+08   ,-0.232  ,2.4  ,5
124  ,8.637e+08   ,-0.42909  ,2.4  ,5
125  ,8.627e+08   ,-0.62618  ,2.4  ,5
126  ,1.151e+09   ,-0.82327  ,2.4  ,5
127  ,1.031e+09   ,-1.0204  ,2.4  ,5
128  ,9.165e+08   ,-1.2175  ,2.4  ,5
129  ,7.464e+08   ,-1.4145  ,2.4  ,5
130  ,4.963e+08   ,-1.6116  ,2.4  ,5
131  ,3.463e+08   ,-1.8087  ,2.4  ,5
132  ,2.424e+08   ,-2.0058  ,2.4  ,5
133  ,1.600e+08   ,-2.2029  ,2.4  ,5
294  ,1.243e+09   ,2.5  ,-2.2029  ,4.9
295  ,1.478e+09   ,2.5  ,-2.0058  ,4.9
296  ,1.141e+09   ,2.5  ,-1.8087  ,4.9
297  ,1.145e+09   ,2.5  ,-1.6116  ,4.9
298  ,9.352e+08   ,2.5  ,-1.4145  ,4.9
299  ,9.539e+08   ,2.5  ,-1.2175  ,4.9
300  ,1.024e+09   ,2.5  ,-1.0204  ,4.9
301  ,8.203e+08   ,2.5  ,-0.82327  ,4.9
302  ,9.241e+08   ,2.5  ,-0.62618  ,4.9
303  ,8.378e+08   ,2.5  ,-0.42909  ,4.9
304  ,9.763e+08   ,2.5  ,-0.232  ,4.9
305  ,1.077e+09   ,2.5  ,-0.034907  ,4.9
306  ,8.823e+08   ,2.5  ,0.16218  ,4.9
307  ,7.396e+08   ,2.5  ,0.35927  ,4.9
308  ,8.249e+08   ,2.5  ,0.55637  ,4.9
309  ,8.307e+08   ,2.5  ,0.75346  ,4.9
310  ,8.995e+08   ,2.5  ,0.95055  ,4.9
311  ,1.087e+09   ,2.5  ,1.1476  ,4.9
312  ,1.414e+09   ,2.5  ,1.3447  ,4.9
313  ,1.921e+09   ,2.5  ,1.5418  ,4.9
314  ,2.767e+09   ,2.5  ,1.7389  ,4.9
315  ,4.019e+09   ,2.5  ,1.936  ,4.9
316  ,2.875e+09   ,2.5  ,-2.4  ,4.7
317  ,1.103e+09   ,2.5  ,-2.4  ,4.5
318  ,6.498e+08   ,2.5  ,-2.4  ,4.3
319  ,7.116e+08   ,2.5  ,-2.4  ,4.1
320  ,1.114e+09   ,2.5  ,-2.4  ,3.9
321  ,1.418e+09   ,2.5  ,-2.4  ,3.7
322  ,1.499e+09   ,2.5  ,-2.4  ,3.5
323  ,1.429e+09   ,2.5  ,-2.4  ,3.3
324  ,1.365e+09   ,2.5  ,-2.4  ,3.1
325  ,1.199e+09   ,2.5  ,-2.4  ,2.9
326  ,1.143e+09   ,2.5  ,-2.4  ,2.7
327  ,9.893e+08   ,2.5  ,-2.4  ,2.5
328  ,7.060e+08   ,2.5  ,-2.4  ,2.3
329  ,5.111e+08   ,2.5  ,-2.4  ,2.1
330  ,3.136e+08   ,2.5  ,-2.4  ,1.9
331  ,2.039e+08   ,2.5  ,-2.4  ,1.7
332  ,1.692e+08   ,2.5  ,-2.4  ,1.5
333  ,2.833e+08   ,2.5  ,-2.4  ,1.3
334  ,3.811e+08   ,2.5  ,-2.4  ,1.1
335  ,5.685e+08   ,2.5  ,-2.4  ,0.9
336  ,9.107e+08   ,2.5  ,-2.4  ,0.7
337  ,1.036e+09   ,2.5  ,-2.4  ,0.5
338  ,1.328e+09   ,2.5  ,-2.4  ,0.3
339  ,5.547e+08   ,2.5  ,-2.2  ,0.1
340  ,6.269e+08   ,2.5  ,-2  ,0.1
341  ,4.281e+08   ,2.5  ,-1.8  ,0.1
342  ,3.927e+08   ,2.5  ,-1.6  ,0.1
343  ,2.663e+08   ,2.5  ,-1.4  ,0.1
344  ,2.359e+08   ,2.5  ,-1.2  ,0.1
345  ,2.631e+08   ,2.5  ,-1  ,0.1
346  ,2.269e+08   ,2.5  ,-0.8  ,0.1
347  ,2.418e+08   ,2.5  ,-0.6  ,0.1
348  ,1.644e+08   ,2.5  ,-0.4  ,0.1
349  ,2.387e+08   ,2.5  ,-0.2  ,0.1
350  ,2.942e+08   ,2.5  ,-1.7664E-15  ,0.1
351  ,2.947e+08   ,2.5  ,0.2  ,0.1
352  ,3.708e+08   ,2.5  ,0.4  ,0.1
353  ,4.973e+08   ,2.5  ,0.6  ,0.1
354  ,7.033e+08   ,2.5  ,0.8  ,0.1
355  ,4.876e+08   ,2.5  ,1  ,0.1
356  ,4.720e+08   ,2.5  ,1.2  ,0.1
357  ,4.071e+08   ,2.5  ,1.4  ,0.1
358  ,3.755e+08   ,2.5  ,1.6  ,0.1
359  ,3.289e+08   ,2.5  ,1.8  ,0.1
360  ,3.114e+08   ,2.5  ,2  ,0.1
361  ,2.412e+08   ,2.5  ,2.2  ,0.1
362  ,4.432e+09   ,2.5  ,2.4  ,4.436
363  ,3.014e+09   ,2.5  ,2.4  ,4.2389
364  ,2.034e+09   ,2.5  ,2.4  ,4.0418
365  ,1.641e+09   ,2.5  ,2.4  ,3.8447
366  ,1.224e+09   ,2.5  ,2.4  ,3.6476
367  ,1.164e+09   ,2.5  ,2.4  ,3.4505
368  ,1.114e+09   ,2.5  ,2.4  ,3.2535
369  ,1.142e+09   ,2.5  ,2.4  ,3.0564
370  ,1.017e+09   ,2.5  ,2.4  ,2.8593
371  ,9.098e+08   ,2.5  ,2.4  ,2.6622
372  ,9.764e+08   ,2.5  ,2.4  ,2.4651
373  ,8.891e+08   ,2.5  ,2.4  ,2.268
374  ,9.458e+08   ,2.5  ,2.4  ,2.0709
375  ,9.101e+08   ,2.5  ,2.4  ,1.8738
376  ,1.092e+09   ,2.5  ,2.4  ,1.6767
377  ,7.270e+08   ,2.5  ,2.4  ,1.4796
378  ,8.101e+08   ,2.5  ,2.4  ,1.2825
379  ,7.527e+08   ,2.5  ,2.4  ,1.0855
380  ,6.734e+08   ,2.5  ,2.4  ,0.88836
381  ,5.503e+08   ,2.5  ,2.4  ,0.69127
382  ,2.816e+08   ,2.5  ,2.4  ,0.49418
383  ,1.691e+08   ,2.5  ,2.4  ,0.29709
384  ,5.322e+09   ,2.5  ,2.2665  ,4.7665
544  ,2.856e+08   ,2.2  ,2.5  ,0.1
545  ,3.914e+08   ,2  ,2.5  ,0.1
546  ,3.738e+08   ,1.8  ,2.5  ,0.1
547  ,4.135e+08   ,1.6  ,2.5  ,0.1
548  ,3.338e+08   ,1.4  ,2.5  ,0.1
549  ,4.416e+08   ,1.2  ,2.5  ,0.1
550  ,5.160e+08   ,1  ,2.5  ,0.1
551  ,7.661e+08   ,0.8  ,2.5  ,0.1
552  ,6.397e+08   ,0.6  ,2.5  ,0.1
553  ,5.721e+08   ,0.4  ,2.5  ,0.1
554  ,6.215e+08   ,0.2  ,2.5  ,0.1
555  ,5.387e+08   ,5.8879E-16  ,2.5  ,0.1
556  ,4.002e+08   ,-0.2  ,2.5  ,0.1
557  ,4.982e+08   ,-0.4  ,2.5  ,0.1
558  ,6.202e+08   ,-0.6  ,2.5  ,0.1
559  ,8.345e+08   ,-0.8  ,2.5  ,0.1
560  ,8.275e+08   ,-1  ,2.5  ,0.1
561  ,8.414e+08   ,-1.2  ,2.5  ,0.1
562  ,7.560e+08   ,-1.4  ,2.5  ,0.1
563  ,7.556e+08   ,-1.6  ,2.5  ,0.1
564  ,6.943e+08   ,-1.8  ,2.5  ,0.1
565  ,6.040e+08   ,-2  ,2.5  ,0.1
566  ,4.468e+08   ,-2.2  ,2.5  ,0.1
567  ,2.546e+08   ,-2.4  ,2.5  ,4.7
568  ,3.658e+08   ,-2.4  ,2.5  ,4.5
569  ,3.636e+08   ,-2.4  ,2.5  ,4.3
570  ,4.064e+08   ,-2.4  ,2.5  ,4.1
571  ,3.368e+08   ,-2.4  ,2.5  ,3.9
572  ,3.644e+08   ,-2.4  ,2.5  ,3.7
573  ,4.901e+08   ,-2.4  ,2.5  ,3.5
574  ,7.021e+08   ,-2.4  ,2.5  ,3.3
575  ,5.169e+08   ,-2.4  ,2.5  ,3.1
576  ,4.204e+08   ,-2.4  ,2.5  ,2.9
577  ,4.746e+08   ,-2.4  ,2.5  ,2.7
578  ,4.208e+08   ,-2.4  ,2.5  ,2.5
579  ,4.736e+08   ,-2.4  ,2.5  ,2.3
580  ,5.595e+08   ,-2.4  ,2.5  ,2.1
581  ,6.374e+08   ,-2.4  ,2.5  ,1.9
582  ,8.190e+08   ,-2.4  ,2.5  ,1.7
583  ,7.978e+08   ,-2.4  ,2.5  ,1.5
584  ,8.288e+08   ,-2.4  ,2.5  ,1.3
585  ,8.007e+08   ,-2.4  ,2.5  ,1.1
586  ,7.840e+08   ,-2.4  ,2.5  ,0.9
587  ,7.118e+08   ,-2.4  ,2.5  ,0.7
588  ,6.296e+08   ,-2.4  ,2.5  ,0.5
589  ,4.936e+08   ,-2.4  ,2.5  ,0.3
590  ,5.073e+09   ,1.936  ,2.5  ,4.9
591  ,2.644e+09   ,1.7389  ,2.5  ,4.9
592  ,2.003e+09   ,1.5418  ,2.5  ,4.9
593  ,1.632e+09   ,1.3447  ,2.5  ,4.9
594  ,1.265e+09   ,1.1476  ,2.5  ,4.9
595  ,1.203e+09   ,0.95055  ,2.5  ,4.9
596  ,1.202e+09   ,0.75346  ,2.5  ,4.9
597  ,1.085e+09   ,0.55637  ,2.5  ,4.9
598  ,1.037e+09   ,0.35927  ,2.5  ,4.9
599  ,8.857e+08   ,0.16218  ,2.5  ,4.9
600  ,8.544e+08   ,-0.034907  ,2.5  ,4.9
601  ,7.806e+08   ,-0.232  ,2.5  ,4.9
602  ,1.062e+09   ,-0.42909  ,2.5  ,4.9
603  ,1.155e+09   ,-0.62618  ,2.5  ,4.9
604  ,1.095e+09   ,-0.82327  ,2.5  ,4.9
605  ,1.204e+09   ,-1.0204  ,2.5  ,4.9
606  ,1.113e+09   ,-1.2175  ,2.5  ,4.9
607  ,8.515e+08   ,-1.4145  ,2.5  ,4.9
608  ,6.274e+08   ,-1.6116  ,2.5  ,4.9
609  ,3.945e+08   ,-1.8087  ,2.5  ,4.9
610  ,2.477e+08   ,-2.0058  ,2.5  ,4.9
611  ,1.881e+08   ,-2.2029  ,2.5  ,4.9
612  ,6.175e+09   ,2.2665  ,2.5  ,4.7665
613  ,4.374e+09   ,2.4  ,2.5  ,4.436
614  ,2.802e+09   ,2.4  ,2.5  ,4.2389
615  ,1.990e+09   ,2.4  ,2.5  ,4.0418
616  ,1.559e+09   ,2.4  ,2.5  ,3.8447
617  ,1.321e+09   ,2.4  ,2.5  ,3.6476
618  ,1.116e+09   ,2.4  ,2.5  ,3.4505
619  ,1.201e+09   ,2.4  ,2.5  ,3.2535
620  ,1.101e+09   ,2.4  ,2.5  ,3.0564
621  ,9.826e+08   ,2.4  ,2.5  ,2.8593
622  ,9.095e+08   ,2.4  ,2.5  ,2.6622
623  ,8.787e+08   ,2.4  ,2.5  ,2.4651
624  ,8.156e+08   ,2.4  ,2.5  ,2.268
625  ,8.120e+08   ,2.4  ,2.5  ,2.0709
626  ,9.361e+08   ,2.4  ,2.5  ,1.8738
627  ,9.904e+08   ,2.4  ,2.5  ,1.6767
628  ,1.127e+09   ,2.4  ,2.5  ,1.4796
629  ,1.179e+09   ,2.4  ,2.5  ,1.2825
630  ,8.050e+08   ,2.4  ,2.5  ,1.0855
631  ,5.964e+08   ,2.4  ,2.5  ,0.88836
632  ,3.791e+08   ,2.4  ,2.5  ,0.69127
633  ,3.059e+08   ,2.4  ,2.5  ,0.49418
634  ,1.301e+08   ,2.4  ,2.5  ,0.29709
796  ,2.325e+08   ,-2.5  ,2.2  ,0.1
797  ,4.069e+08   ,-2.5  ,2  ,0.1
798  ,5.239e+08   ,-2.5  ,1.8  ,0.1
799  ,5.976e+08   ,-2.5  ,1.6  ,0.1
800  ,6.662e+08   ,-2.5  ,1.4  ,0.1
801  ,7.086e+08   ,-2.5  ,1.2  ,0.1
802  ,7.107e+08   ,-2.5  ,1  ,0.1
803  ,6.742e+08   ,-2.5  ,0.8  ,0.1
804  ,6.797e+08   ,-2.5  ,0.6  ,0.1
805  ,7.136e+08   ,-2.5  ,0.4  ,0.1
806  ,6.662e+08   ,-2.5  ,0.2  ,0.1
807  ,6.180e+08   ,-2.5  ,5.8879E-16  ,0.1
808  ,5.978e+08   ,-2.5  ,-0.2  ,0.1
809  ,5.878e+08   ,-2.5  ,-0.4  ,0.1
810  ,5.496e+08   ,-2.5  ,-0.6  ,0.1
811  ,4.423e+08   ,-2.5  ,-0.8  ,0.1
812  ,4.310e+08   ,-2.5  ,-1  ,0.1
813  ,3.637e+08   ,-2.5  ,-1.2  ,0.1
814  ,3.371e+08   ,-2.5  ,-1.4  ,0.1
815  ,2.881e+08   ,-2.5  ,-1.6  ,0.1
816  ,2.539e+08   ,-2.5  ,-1.8  ,0.1
817  ,3.134e+08   ,-2.5  ,-2  ,0.1
818  ,2.291e+08   ,-2.5  ,-2.2  ,0.1
819  ,8.811e+08   ,-2.5  ,-2.4  ,4.7
820  ,3.371e+08   ,-2.5  ,-2.4  ,4.5
821  ,5.422e+08   ,-2.5  ,-2.4  ,4.3
822  ,1.095e+09   ,-2.5  ,-2.4  ,4.1
823  ,1.394e+09   ,-2.5  ,-2.4  ,3.9
824  ,1.391e+09   ,-2.5  ,-2.4  ,3.7
825  ,1.380e+09   ,-2.5  ,-2.4  ,3.5
826  ,1.123e+09   ,-2.5  ,-2.4  ,3.3
827  ,1.148e+09   ,-2.5  ,-2.4  ,3.1
828  ,9.706e+08   ,-2.5  ,-2.4  ,2.9
829  ,7.236e+08   ,-2.5  ,-2.4  ,2.7
830  ,6.479e+08   ,-2.5  ,-2.4  ,2.5
831  ,4.689e+08   ,-2.5  ,-2.4  ,2.3
832  ,3.257e+08   ,-2.5  ,-2.4  ,2.1
833  ,2.211e+08   ,-2.5  ,-2.4  ,1.9
834  ,2.110e+08   ,-2.5  ,-2.4  ,1.7
835  ,2.278e+08   ,-2.5  ,-2.4  ,1.5
836  ,2.165e+08   ,-2.5  ,-2.4  ,1.3
837  ,1.022e+08   ,-2.5  ,-2.4  ,1.1
838  ,1.208e+08   ,-2.5  ,-2.4  ,0.9
839  ,2.887e+08   ,-2.5  ,-2.4  ,0.7
840  ,3.580e+08   ,-2.5  ,-2.4  ,0.5
841  ,4.264e+08   ,-2.5  ,-2.4  ,0.3
842  ,2.685e+08   ,-2.5  ,2.2  ,4.9
843  ,4.392e+08   ,-2.5  ,2  ,4.9
844  ,4.430e+08   ,-2.5  ,1.8  ,4.9
845  ,4.319e+08   ,-2.5  ,1.6  ,4.9
846  ,4.254e+08   ,-2.5  ,1.4  ,4.9
847  ,4.668e+08   ,-2.5  ,1.2  ,4.9
848  ,4.766e+08   ,-2.5  ,1  ,4.9
849  ,6.081e+08   ,-2.5  ,0.8  ,4.9
850  ,4.885e+08   ,-2.5  ,0.6  ,4.9
851  ,4.137e+08   ,-2.5  ,0.4  ,4.9
852  ,3.758e+08   ,-2.5  ,0.2  ,4.9
853  ,3.024e+08   ,-2.5  ,5.8879E-16  ,4.9
854  ,2.471e+08   ,-2.5  ,-0.2  ,4.9
855  ,2.130e+08   ,-2.5  ,-0.4  ,4.9
856  ,1.523e+08   ,-2.5  ,-0.6  ,4.9
857  ,1.765e+08   ,-2.5  ,-0.8  ,4.9
858  ,2.063e+08   ,-2.5  ,-1  ,4.9
859  ,2.390e+08   ,-2.5  ,-1.2  ,4.9
860  ,2.847e+08   ,-2.5  ,-1.4  ,4.9
861  ,3.277e+08   ,-2.5  ,-1.6  ,4.9
862  ,4.395e+08   ,-2.5  ,-1.8  ,4.9
863  ,6.172e+08   ,-2.5  ,-2  ,4.9
864  ,6.008e+08   ,-2.5  ,-2.2  ,4.9
865  ,2.209e+08   ,-2.5  ,2.4  ,4.7
866  ,3.635e+08   ,-2.5  ,2.4  ,4.5
867  ,4.061e+08   ,-2.5  ,2.4  ,4.3
868  ,3.068e+08   ,-2.5  ,2.4  ,4.1
869  ,4.119e+08   ,-2.5  ,2.4  ,3.9
870  ,3.986e+08   ,-2.5  ,2.4  ,3.7
871  ,4.522e+08   ,-2.5  ,2.4  ,3.5
872  ,6.510e+08   ,-2.5  ,2.4  ,3.3
873  ,5.228e+08   ,-2.5  ,2.4  ,3.1
874  ,3.510e+08   ,-2.5  ,2.4  ,2.9
875  ,3.757e+08   ,-2.5  ,2.4  ,2.7
876  ,4.026e+08   ,-2.5  ,2.4  ,2.5
877  ,4.678e+08   ,-2.5  ,2.4  ,2.3
878  ,5.248e+08   ,-2.5  ,2.4  ,2.1
879  ,5.225e+08   ,-2.5  ,2.4  ,1.9
880  ,6.166e+08   ,-2.5  ,2.4  ,1.7
881  ,7.266e+08   ,-2.5  ,2.4  ,1.5
882  ,7.872e+08   ,-2.5  ,2.4  ,1.3
883  ,7.351e+08   ,-2.5  ,2.4  ,1.1
884  ,7.162e+08   ,-2.5  ,2.4  ,0.9
885  ,6.203e+08   ,-2.5  ,2.4  ,0.7
886  ,5.377e+08   ,-2.5  ,2.4  ,0.5
887  ,3.894e+08   ,-2.5  ,2.4  ,0.3
1044  ,2.465e+08   ,-2.3  ,-2.5  ,0.44697
1045  ,1.934e+08   ,-2.3  ,-2.5  ,0.68705
1046  ,1.456e+08   ,-2.3  ,-2.5  ,0.92554
1047  ,9.153e+07   ,-2.3  ,-2.5  ,1.1682
1048  ,1.813e+08   ,-2.3  ,-2.5  ,1.4148
1049  ,2.359e+08   ,-2.3  ,-2.5  ,1.6581
1050  ,2.314e+08   ,-2.3  ,-2.5  ,1.8967
1051  ,1.875e+08   ,-2.3  ,-2.5  ,2.1357
1052  ,1.267e+08   ,-2.3  ,-2.5  ,2.3794
1053  ,2.240e+08   ,-2.3  ,-2.5  ,2.6206
1054  ,3.962e+08   ,-2.3  ,-2.5  ,2.8643
1055  ,5.086e+08   ,-2.3  ,-2.5  ,3.1033
1056  ,6.076e+08   ,-2.3  ,-2.5  ,3.342
1057  ,7.693e+08   ,-2.3  ,-2.5  ,3.5852
1058  ,8.264e+08   ,-2.3  ,-2.5  ,3.8318
1059  ,5.403e+08   ,-2.3  ,-2.5  ,4.0745
1060  ,2.591e+08   ,-2.3  ,-2.5  ,4.3129
1061  ,7.079e+08   ,-2.3  ,-2.5  ,4.553
1062  ,1.494e+09   ,-2.053  ,-2.5  ,4.8
1063  ,1.035e+09   ,-1.8129  ,-2.5  ,4.8
1064  ,5.148e+08   ,-1.5745  ,-2.5  ,4.8
1065  ,1.209e+08   ,-1.3318  ,-2.5  ,4.8
1066  ,2.800e+08   ,-1.0852  ,-2.5  ,4.8
1067  ,4.359e+08   ,-0.84195  ,-2.5  ,4.8
1068  ,4.204e+08   ,-0.60329  ,-2.5  ,4.8
1069  ,2.919e+08   ,-0.3643  ,-2.5  ,4.8
1070  ,2.265e+08   ,-0.12055  ,-2.5  ,4.8
1071  ,2.161e+08   ,0.12056  ,-2.5  ,4.8
1072  ,3.296e+08   ,0.3643  ,-2.5  ,4.8
1073  ,3.150e+08   ,0.6033  ,-2.5  ,4.8
1074  ,3.753e+08   ,0.84195  ,-2.5  ,4.8
1075  ,5.143e+08   ,1.0852  ,-2.5  ,4.8
1076  ,3.409e+08   ,1.3318  ,-2.5  ,4.8
1077  ,3.612e+08   ,1.5745  ,-2.5  ,4.8
1078  ,1.093e+09   ,1.8129  ,-2.5  ,4.8
1079  ,2.414e+09   ,2.053  ,-2.5  ,4.8
1080  ,2.410e+09   ,2.3  ,-2.5  ,4.553
1081  ,1.093e+09   ,2.3  ,-2.5  ,4.3129
1082  ,3.952e+08   ,2.3  ,-2.5  ,4.0745
1083  ,3.458e+08   ,2.3  ,-2.5  ,3.8318
1084  ,4.617e+08   ,2.3  ,-2.5  ,3.5852
1085  ,4.328e+08   ,2.3  ,-2.5  ,3.3419
1086  ,3.656e+08   ,2.3  ,-2.5  ,3.1033
1087  ,2.950e+08   ,2.3  ,-2.5  ,2.8643
1088  ,2.054e+08   ,2.3  ,-2.5  ,2.6206
1089  ,1.889e+08   ,2.3  ,-2.5  ,2.3794
1090  ,2.205e+08   ,2.3  ,-2.5  ,2.1357
1091  ,3.157e+08   ,2.3  ,-2.5  ,1.8967
1092  ,4.804e+08   ,2.3  ,-2.5  ,1.658
1093  ,3.514e+08   ,2.3  ,-2.5  ,1.4148
1094  ,2.286e+08   ,2.3  ,-2.5  ,1.1682
1095  ,6.171e+08   ,2.3  ,-2.5  ,0.92554
1096  ,1.066e+09   ,2.3  ,-2.5  ,0.68705
1097  ,1.477e+09   ,2.3  ,-2.5  ,0.44697
1098  ,2.927e+08   ,-2.053  ,-2.5  ,0.2
1099  ,2.349e+08   ,-1.8129  ,-2.5  ,0.2
1100  ,7.986e+07   ,-1.5745  ,-2.5  ,0.2
1101  ,3.867e+07   ,-1.3318  ,-2.5  ,0.2
1102  ,1.897e+08   ,-1.0852  ,-2.5  ,0.2
1103  ,3.172e+08   ,-0.84195  ,-2.5  ,0.2
1104  ,2.885e+08   ,-0.60329  ,-2.5  ,0.2
1105  ,2.378e+08   ,-0.3643  ,-2.5  ,0.2
1106  ,2.453e+08   ,-0.12055  ,-2.5  ,0.2
1107  ,2.829e+08   ,0.12056  ,-2.5  ,0.2
1108  ,3.387e+08   ,0.3643  ,-2.5  ,0.2
1109  ,4.464e+08   ,0.6033  ,-2.5  ,0.2
1110  ,6.286e+08   ,0.84195  ,-2.5  ,0.2
1111  ,7.828e+08   ,1.0852  ,-2.5  ,0.2
1112  ,8.052e+08   ,1.3318  ,-2.5  ,0.2
1113  ,5.542e+08   ,1.5745  ,-2.5  ,0.2
1114  ,2.186e+08   ,1.8129  ,-2.5  ,0.2
1115  ,7.558e+08   ,2.053  ,-2.5  ,0.2
1116  ,5.090e+08   ,-2.2  ,-2.5  ,4.9
1117  ,3.324e+08   ,-2  ,-2.5  ,4.9
1118  ,4.480e+08   ,-1.8  ,-2.5  ,4.9
1119  ,4.106e+08   ,-1.6  ,-2.5  ,4.9
1120  ,2.671e+08   ,-1.4  ,-2.5  ,4.9
1121  ,2.137e+08   ,-1.2  ,-2.5  ,4.9
1122  ,1.132e+08   ,-1  ,-2.5  ,4.9
1123  ,2.193e+08   ,-0.8  ,-2.5  ,4.9
1124  ,4.044e+08   ,-0.6  ,-2.5  ,4.9
1125  ,4.793e+08   ,-0.4  ,-2.5  ,4.9
1126  ,5.217e+08   ,-0.2  ,-2.5  ,4.9
1127  ,5.352e+08   ,-1.7664E-15  ,-2.5  ,4.9
1128  ,5.360e+08   ,0.2  ,-2.5  ,4.9
1129  ,5.397e+08   ,0.4  ,-2.5  ,4.9
1130  ,4.951e+08   ,0.6  ,-2.5  ,4.9
1131  ,6.045e+08   ,0.8  ,-2.5  ,4.9
1132  ,5.740e+08   ,1  ,-2.5  ,4.9
1133  ,6.106e+08   ,1.2  ,-2.5  ,4.9
1134  ,5.354e+08   ,1.4  ,-2.5  ,4.9
1135  ,7.497e+08   ,1.6  ,-2.5  ,4.9
1136  ,8.937e+08   ,1.8  ,-2.5  ,4.9
1137  ,7.830e+08   ,2  ,-2.5  ,4.9
1138  ,7.533e+08   ,2.2  ,-2.5  ,4.9
1139  ,5.411e+08   ,-2.4  ,-2.5  ,4.7
1140  ,5.421e+08   ,-2.4  ,-2.5  ,4.5
1141  ,5.321e+08   ,-2.4  ,-2.5  ,4.3
1142  ,5.433e+08   ,-2.4  ,-2.5  ,4.1
1143  ,4.653e+08   ,-2.4  ,-2.5  ,3.9
1144  ,4.976e+08   ,-2.4  ,-2.5  ,3.7
1145  ,2.790e+08   ,-2.4  ,-2.5  ,3.5
1146  ,3.905e+08   ,-2.4  ,-2.5  ,3.3
1147  ,2.867e+08   ,-2.4  ,-2.5  ,3.1
1148  ,3.675e+08   ,-2.4  ,-2.5  ,2.9
1149  ,3.591e+08   ,-2.4  ,-2.5  ,2.7
1150  ,2.921e+08   ,-2.4  ,-2.5  ,2.5
1151  ,3.118e+08   ,-2.4  ,-2.5  ,2.3
1152  ,2.713e+08   ,-2.4  ,-2.5  ,2.1
1153  ,2.236e+08   ,-2.4  ,-2.5  ,1.9
1154  ,2.255e+08   ,-2.4  ,-2.5  ,1.7
1155  ,2.312e+08   ,-2.4  ,-2.5  ,1.5
1156  ,2.178e+08   ,-2.4  ,-2.5  ,1.3
1157  ,1.188e+08   ,-2.4  ,-2.5  ,1.1
1158  ,9.131e+07   ,-2.4  ,-2.5  ,0.9
1159  ,1.247e+08   ,-2.4  ,-2.5  ,0.7
1160  ,1.345e+08   ,-2.4  ,-2.5  ,0.5
1161  ,2.608e+08   ,-2.4  ,-2.5  ,0.3
1162  ,2.558e+08   ,-2.2  ,-2.5  ,0.1
1163  ,1.449e+08   ,-2  ,-2.5  ,0.1
1164  ,1.657e+08   ,-1.8  ,-2.5  ,0.1
1165  ,1.018e+08   ,-1.6  ,-2.5  ,0.1
1166  ,7.358e+07   ,-1.4  ,-2.5  ,0.1
1167  ,2.018e+08   ,-1.2  ,-2.5  ,0.1
1168  ,2.340e+08   ,-1  ,-2.5  ,0.1
1169  ,2.091e+08   ,-0.8  ,-2.5  ,0.1
1170  ,2.438e+08   ,-0.6  ,-2.5  ,0.1
1171  ,3.276e+08   ,-0.4  ,-2.5  ,0.1
1172  ,3.885e+08   ,-0.2  ,-2.5  ,0.1
1173  ,4.332e+08   ,-1.7664E-15  ,-2.5  ,0.1
1174  ,3.728e+08   ,0.2  ,-2.5  ,0.1
1175  ,3.913e+08   ,0.4  ,-2.5  ,0.1
1176  ,4.450e+08   ,0.6  ,-2.5  ,0.1
1177  ,2.911e+08   ,0.8  ,-2.5  ,0.1
1178  ,3.474e+08   ,1  ,-2.5  ,0.1
1179  ,3.970e+08   ,1.2  ,-2.5  ,0.1
1180  ,4.190e+08   ,1.4  ,-2.5  ,0.1
1181  ,5.138e+08   ,1.6  ,-2.5  ,0.1
1182  ,4.989e+08   ,1.8  ,-2.5  ,0.1
1183  ,4.965e+08   ,2  ,-2.5  ,0.1
1184  ,5.911e+08   ,2.2  ,-2.5  ,0.1
1185  ,7.615e+08   ,2.4  ,-2.5  ,4.7
1186  ,7.686e+08   ,2.4  ,-2.5  ,4.5
1187  ,8.384e+08   ,2.4  ,-2.5  ,4.3
1188  ,7.831e+08   ,2.4  ,-2.5  ,4.1
1189  ,6.766e+08   ,2.4  ,-2.5  ,3.9
1190  ,6.226e+08   ,2.4  ,-2.5  ,3.7
1191  ,5.045e+08   ,2.4  ,-2.5  ,3.5
1192  ,6.077e+08   ,2.4  ,-2.5  ,3.3
1193  ,6.082e+08   ,2.4  ,-2.5  ,3.1
1194  ,6.161e+08   ,2.4  ,-2.5  ,2.9
1195  ,5.751e+08   ,2.4  ,-2.5  ,2.7
1196  ,5.368e+08   ,2.4  ,-2.5  ,2.5
1197  ,4.904e+08   ,2.4  ,-2.5  ,2.3
1198  ,3.823e+08   ,2.4  ,-2.5  ,2.1
1199  ,3.633e+08   ,2.4  ,-2.5  ,1.9
1200  ,2.579e+08   ,2.4  ,-2.5  ,1.7
1201  ,1.121e+08   ,2.4  ,-2.5  ,1.5
1202  ,3.413e+08   ,2.4  ,-2.5  ,1.3
1203  ,3.294e+08   ,2.4  ,-2.5  ,1.1
1204  ,3.267e+08   ,2.4  ,-2.5  ,0.9
1205  ,3.745e+08   ,2.4  ,-2.5  ,0.7
1206  ,2.792e+08   ,2.4  ,-2.5  ,0.5
1207  ,4.110e+08   ,2.4  ,-2.5  ,0.3
1208  ,5.510e+08   ,2.4  ,-2.2  ,0
1209  ,5.609e+08   ,2.4  ,-2  ,0
1210  ,4.047e+08   ,2.4  ,-1.8  ,0
1211  ,3.063e+08   ,2.4  ,-1.6  ,0
1212  ,2.948e+08   ,2.4  ,-1.4  ,0
1213  ,1.945e+08   ,2.4  ,-1.2  ,0
1214  ,2.002e+08   ,2.4  ,-1  ,0
1215  ,2.017e+08   ,2.4  ,-0.8  ,0
1216  ,1.560e+08   ,2.4  ,-0.6  ,0
1217  ,1.628e+08   ,2.4  ,-0.4  ,0
1218  ,2.145e+08   ,2.4  ,-0.2  ,0
1219  ,2.317e+08   ,2.4  ,-1.7664E-15  ,0
1220  ,2.604e+08   ,2.4  ,0.2  ,0
1221  ,3.134e+08   ,2.4  ,0.4  ,0
1222  ,4.564e+08   ,2.4  ,0.6  ,0
1223  ,5.515e+08   ,2.4  ,0.8  ,0
1224  ,4.550e+08   ,2.4  ,1  ,0
1225  ,4.411e+08   ,2.4  ,1.2  ,0
1226  ,4.237e+08   ,2.4  ,1.4  ,0
1227  ,4.019e+08   ,2.4  ,1.6  ,0
1228  ,5.075e+08   ,2.4  ,1.8  ,0
1229  ,4.477e+08   ,2.4  ,2  ,0
1230  ,3.156e+08   ,2.4  ,2.2  ,0
1231  ,4.466e+08   ,-2.2  ,-2.4  ,0
1232  ,4.678e+08   ,-2  ,-2.4  ,0
1233  ,3.028e+08   ,-1.8  ,-2.4  ,0
1234  ,8.570e+07   ,-1.6  ,-2.4  ,0
1235  ,1.229e+08   ,-1.4  ,-2.4  ,0
1236  ,2.165e+08   ,-1.2  ,-2.4  ,0
1237  ,1.762e+08   ,-1  ,-2.4  ,0
1238  ,1.067e+08   ,-0.8  ,-2.4  ,0
1239  ,2.214e+08   ,-0.6  ,-2.4  ,0
1240  ,4.222e+08   ,-0.4  ,-2.4  ,0
1241  ,6.036e+08   ,-0.2  ,-2.4  ,0
1242  ,7.810e+08   ,5.8879E-16  ,-2.4  ,0
1243  ,8.759e+08   ,0.2  ,-2.4  ,0
1244  ,1.018e+09   ,0.4  ,-2.4  ,0
1245  ,1.064e+09   ,0.6  ,-2.4  ,0
1246  ,1.266e+09   ,0.8  ,-2.4  ,0
1247  ,1.344e+09   ,1  ,-2.4  ,0
1248  ,1.446e+09   ,1.2  ,-2.4  ,0
1249  ,1.317e+09   ,1.4  ,-2.4  ,0
1250  ,9.840e+08   ,1.6  ,-2.4  ,0
1251  ,4.368e+08   ,1.8  ,-2.4  ,0
1252  ,3.573e+08   ,2  ,-2.4  ,0
1253  ,1.041e+09   ,2.2  ,-2.4  ,0
1254  ,2.518e+08   ,-2.4  ,2.2  ,0
1255  ,4.216e+08   ,-2.4  ,2  ,0
1256  ,5.316e+08   ,-2.4  ,1.8  ,0
1257  ,5.951e+08   ,-2.4  ,1.6  ,0
1258  ,6.878e+08   ,-2.4  ,1.4  ,0
1259  ,7.389e+08   ,-2.4  ,1.2  ,0
1260  ,7.226e+08   ,-2.4  ,1  ,0
1261  ,7.000e+08   ,-2.4  ,0.8  ,0
1262  ,6.649e+08   ,-2.4  ,0.6  ,0
1263  ,6.432e+08   ,-2.4  ,0.4  ,0
1264  ,6.479e+08   ,-2.4  ,0.2  ,0
1265  ,6.795e+08   ,-2.4  ,5.8879E-16  ,0
1266  ,7.037e+08   ,-2.4  ,-0.2  ,0
1267  ,5.696e+08   ,-2.4  ,-0.4  ,0
1268  ,5.623e+08   ,-2.4  ,-0.6  ,0
1269  ,4.741e+08   ,-2.4  ,-0.8  ,0
1270  ,4.718e+08   ,-2.4  ,-1  ,0
1271  ,3.922e+08   ,-2.4  ,-1.2  ,0
1272  ,2.945e+08   ,-2.4  ,-1.4  ,0
1273  ,2.811e+08   ,-2.4  ,-1.6  ,0
1274  ,2.841e+08   ,-2.4  ,-1.8  ,0
1275  ,3.063e+08   ,-2.4  ,-2  ,0
1276  ,2.108e+08   ,-2.4  ,-2.2  ,0
1277  ,2.419e+08   ,2.2  ,2.4  ,0
1278  ,3.620e+08   ,2  ,2.4  ,0
1279  ,3.902e+08   ,1.8  ,2.4  ,0
1280  ,3.049e+08   ,1.6  ,2.4  ,0
1281  ,2.674e+08   ,1.4  ,2.4  ,0
1282  ,3.986e+08   ,1.2  ,2.4  ,0
1283  ,4.771e+08   ,1  ,2.4  ,0
1284  ,6.400e+08   ,0.8  ,2.4  ,0
1285  ,5.489e+08   ,0.6  ,2.4  ,0
1286  ,4.084e+08   ,0.4  ,2.4  ,0
1287  ,4.444e+08   ,0.2  ,2.4  ,0
1288  ,3.870e+08   ,5.8879E-16  ,2.4  ,0
1289  ,4.519e+08   ,-0.2  ,2.4  ,0
1290  ,4.563e+08   ,-0.4  ,2.4  ,0
1291  ,5.187e+08   ,-0.6  ,2.4  ,0
1292  ,6.546e+08   ,-0.8  ,2.4  ,0
1293  ,7.355e+08   ,-1  ,2.4  ,0
1294  ,7.374e+08   ,-1.2  ,2.4  ,0
1295  ,7.015e+08   ,-1.4  ,2.4  ,0
1296  ,6.681e+08   ,-1.6  ,2.4  ,0
1297  ,6.014e+08   ,-1.8  ,2.4  ,0
1298  ,5.029e+08   ,-2  ,2.4  ,0
1299  ,3.834e+08   ,-2.2  ,2.4  ,0
1460  ,7.528e+09   ,2.3243  ,2.3243  ,4.9577
1461  ,7.248e+09   ,2.4577  ,2.3243  ,4.8243
1462  ,7.068e+09   ,2.3243  ,2.4577  ,4.8243
1463  ,5.505e+08   ,-2.3  ,-2.1759  ,4.8
1464  ,5.126e+08   ,-2.3  ,-1.7631  ,4.8
1465  ,6.140e+08   ,-2.3  ,-1.1827  ,4.8
1466  ,8.781e+08   ,-2.3  ,-0.34986  ,4.8
1467  ,1.036e+09   ,-2.3  ,0.80545  ,4.8
1468  ,1.012e+09   ,-0.81337  ,2.3  ,4.8
1469  ,1.591e+09   ,0.67326  ,2.3  ,4.8
1470  ,1.217e+09   ,2.3  ,-2.1824  ,4.8
1471  ,7.760e+08   ,2.3  ,-1.7784  ,4.8
1472  ,7.599e+08   ,2.3  ,-1.2138  ,4.8
1473  ,1.029e+09   ,2.3  ,-0.40752  ,4.8
1474  ,1.341e+09   ,2.3  ,0.70532  ,4.8
1516  ,9.703e+08   ,2.3  ,2.3  ,1.6866
1517  ,1.594e+09   ,2.3  ,2.3  ,3.1733
1518  ,6.030e+08   ,2.3  ,-2.1759  ,0.2
1519  ,5.038e+08   ,2.3  ,-1.7631  ,0.2
1520  ,6.373e+08   ,2.3  ,-1.1827  ,0.2
1521  ,8.667e+08   ,2.3  ,-0.34986  ,0.2
1522  ,1.078e+09   ,2.3  ,0.80545  ,0.2
1564  ,8.259e+08   ,-0.76667  ,2.3  ,0.2
1565  ,1.145e+09   ,0.76667  ,2.3  ,0.2
1566  ,8.243e+08   ,-2.3  ,2.3  ,1.7333
1567  ,1.177e+09   ,-2.3  ,2.3  ,3.2667
1574  ,2.096e+08   ,-2.3  ,-2.1759  ,0.2
1575  ,1.146e+08   ,-2.3  ,-1.7631  ,0.2
1576  ,5.511e+07   ,-2.3  ,-1.1827  ,0.2
1577  ,2.615e+08   ,-2.3  ,-0.34986  ,0.2
1578  ,2.210e+08   ,-2.3  ,0.80545  ,0.2
1777  ,1.134e+09   ,-0.52764  ,2.5  ,4.9
1801  ,5.232e+08   ,-2.3  ,1.5527  ,0.2
1825  ,4.045e+08   ,-1.5333  ,2.3  ,0.2
1841  ,8.879e+08   ,0.063638  ,2.5  ,4.9
1876  ,4.795e+08   ,-0.5  ,2.4  ,0
1894  ,9.873e+08   ,2.3  ,1.5527  ,0.2
1907  ,3.476e+08   ,2.1  ,2.5  ,0.1
1928  ,3.547e+08   ,1.9  ,2.4  ,0
1974  ,4.292e+08   ,2.4  ,1.1  ,0
1981  ,3.575e+08   ,2.4  ,2.5  ,0.59273
1987  ,3.775e+08   ,-2.5  ,2.4  ,4
2004  ,3.145e+08   ,-2.4  ,2.5  ,4.6
2009  ,4.098e+08   ,2.4  ,1.3  ,0
2020  ,4.399e+08   ,2.5  ,1.1  ,0.1
2035  ,4.506e+08   ,-2.3  ,-0.76628  ,0.2
2070  ,2.426e+09   ,1.6404  ,2.4  ,5
2081  ,8.841e+08   ,2.4  ,2.5  ,1.9724
2095  ,5.448e+08   ,2.4  ,2.5  ,0.78982
2138  ,6.195e+08   ,-2.4  ,-0.1  ,0
2146  ,1.061e+09   ,-0.92182  ,2.4  ,5
2174  ,9.231e+08   ,2.4  ,2.5  ,1.184
2190  ,6.946e+08   ,2.5  ,2.4  ,0.98691
2203  ,1.114e+09   ,2.5  ,-0.13345  ,4.9
2232  ,1.700e+09   ,2.3  ,0.1489  ,4.8
2242  ,1.075e+09   ,2.4  ,2.5  ,2.9578
2293  ,7.340e+08   ,-2.5  ,0.5  ,0.1
2311  ,1.699e+09   ,2.3  ,2.3  ,2.4299
2313  ,6.579e+08   ,2.5  ,2.4  ,0.78982
2329  ,7.821e+08   ,2.4  ,2.5  ,2.1695
2355  ,3.609e+08   ,-2.4  ,2.5  ,4.4
2380  ,2.930e+08   ,-2.5  ,-1.5  ,0.1
2383  ,1.061e+09   ,0.45782  ,2.5  ,4.9
2408  ,1.092e+09   ,2.3  ,-1.4961  ,4.8
2445  ,9.883e+08   ,2.5  ,-1.5131  ,4.9
2484  ,2.056e+08   ,-2.5  ,-2.4  ,1.6
2495  ,3.977e+08   ,-2.4  ,1.7  ,5
2508  ,2.754e+08   ,2.4  ,0.3  ,0
2514  ,1.154e+09   ,2.3  ,0.2278  ,0.2
2570  ,4.048e+08   ,-2.4  ,1.5  ,5
2580  ,2.384e+09   ,1.6404  ,2.5  ,4.9
2603  ,1.215e+09   ,-1.1189  ,2.5  ,4.9
2695  ,7.954e+08   ,2.3  ,2.3  ,0.94331
2705  ,1.194e+09   ,2.4  ,2.5  ,1.3811
2714  ,7.650e+08   ,2.5  ,0.45782  ,4.9
2734  ,1.932e+08   ,2.4  ,-0.9  ,0
2775  ,2.432e+08   ,2.5  ,-0.1  ,0.1
2779  ,2.244e+08   ,2.4  ,-0.1  ,0
2801  ,2.946e+09   ,1.4166  ,2.3  ,4.8
2814  ,1.848e+09   ,1.4433  ,2.5  ,4.9
2863  ,6.574e+08   ,-2.4  ,2.5  ,0.6
2884  ,7.461e+08   ,-2.4  ,2.5  ,0.8
2886  ,8.133e+08   ,-2.4  ,2.5  ,1.2
2967  ,4.311e+08   ,2.4  ,1.7  ,0
2973  ,3.746e+08   ,2.5  ,1.5  ,0.1
2987  ,4.094e+08   ,-0.3  ,2.5  ,0.1
3008  ,4.102e+08   ,-2.3  ,2.3  ,0.96667
3012  ,3.769e+08   ,-2.5  ,2.4  ,2.6
3021  ,3.452e+08   ,-2.5  ,2.4  ,2.8
3025  ,4.226e+08   ,-2.5  ,2.4  ,2.4
3030  ,4.323e+08   ,-2.4  ,2.5  ,2.4
3033  ,4.833e+08   ,-2.4  ,2.5  ,2.2
3047  ,8.406e+08   ,2.4  ,2.5  ,2.3665
3052  ,9.299e+08   ,2.5  ,2.4  ,2.5636
3061  ,9.077e+08   ,2.4  ,2.5  ,2.5636
3081  ,4.399e+08   ,-2.4  ,1.3  ,5
3088  ,2.830e+08   ,-1.9073  ,2.4  ,5
3099  ,4.081e+08   ,-2.4  ,1.9  ,5
3107  ,3.285e+08   ,-2.4  ,2.5  ,3.8
3139  ,6.158e+08   ,-1.5131  ,2.4  ,5
3145  ,7.359e+08   ,-1.5131  ,2.5  ,4.9
3148  ,5.180e+08   ,-1.7102  ,2.5  ,4.9
3168  ,6.315e+08   ,-2.4  ,1.5  ,0
3188  ,5.659e+07   ,-2.5  ,-2.4  ,1
3202  ,9.102e+08   ,0.26073  ,2.5  ,4.9
3212  ,2.159e+09   ,2.5  ,1.6404  ,4.9
3247  ,3.260e+09   ,2.5  ,1.8375  ,4.9
3265  ,2.850e+09   ,2.3  ,1.4326  ,4.8
3271  ,6.064e+09   ,2.2299  ,2.2299  ,4.8
3284  ,1.612e+09   ,2.4  ,1.4433  ,5
3291  ,1.595e+09   ,2.5  ,1.4433  ,4.9
3296  ,8.465e+08   ,-2.3  ,-0.76628  ,4.8
3303  ,2.644e+08   ,-2.4  ,-0.9  ,5
3311  ,2.305e+08   ,-2.4  ,-0.7  ,5
3315  ,3.750e+08   ,1.9  ,2.5  ,0.1
3336  ,6.329e+08   ,-2.4  ,0.3  ,0
3340  ,6.283e+08   ,-2.5  ,0.1  ,0.1
3344  ,6.491e+08   ,-2.4  ,0.1  ,0
3356  ,4.298e+08   ,-0.3  ,2.4  ,0
3361  ,8.252e+08   ,-0.33054  ,2.5  ,4.9
3364  ,7.808e+08   ,-0.13345  ,2.5  ,4.9
3383  ,1.196e+09   ,2.4  ,2.5  ,3.5491
3402  ,5.183e+09   ,2.4  ,2.5  ,4.5345
3421  ,9.623e+08   ,-1.316  ,2.5  ,4.9
3439  ,1.732e+09   ,2.5  ,2.4  ,3.9433
3447  ,1.774e+09   ,2.4  ,2.5  ,3.9433
3451  ,1.424e+09   ,2.4  ,2.5  ,3.7462
3468  ,1.805e+09   ,1.4433  ,2.4  ,5
3480  ,1.217e+09   ,1.0491  ,2.4  ,5
3519  ,3.183e+08   ,1.5  ,2.4  ,0
3527  ,6.299e+08   ,2.3  ,-1.4729  ,0.2
3550  ,6.253e+08   ,-1.7  ,2.4  ,0
3554  ,7.069e+08   ,-1.7  ,2.5  ,0.1
3558  ,6.888e+08   ,-1.5  ,2.4  ,0
3562  ,7.402e+08   ,-1.5  ,2.5  ,0.1
3574  ,2.990e+08   ,-2.4  ,2.1  ,5
3581  ,5.491e+08   ,-2.5  ,1.7  ,0.1
3583  ,4.706e+08   ,-2.5  ,1.9  ,0.1
3584  ,2.844e+08   ,-1.9073  ,2.5  ,4.9
3591  ,3.496e+08   ,2.5  ,0.3  ,0.1
3595  ,2.875e+08   ,2.5  ,0.1  ,0.1
3603  ,1.191e+10   ,2.4577  ,2.391  ,4.7576
3663  ,2.902e+08   ,-1.933  ,-2.5  ,0.2
3669  ,2.075e+08   ,-2.1765  ,-2.5  ,0.2
3672  ,1.333e+08   ,-2.3  ,-2.3379  ,0.2
3682  ,3.798e+08   ,-1.9  ,-2.4  ,0
3700  ,2.604e+08   ,2.3  ,-2.5  ,2.7424
3712  ,2.753e+08   ,-2.1  ,-2.5  ,4.9
3715  ,3.397e+08   ,-1.9  ,-2.5  ,4.9
3740  ,2.257e+08   ,-1.3  ,-2.4  ,5
3746  ,1.845e+08   ,-1.2085  ,-2.5  ,4.8
3755  ,3.957e+08   ,-1.5  ,-2.4  ,5
3760  ,3.991e+08   ,-1.7  ,-2.5  ,4.9
3786  ,1.011e+09   ,2.4  ,2.5  ,1.5782
3813  ,9.682e+08   ,0.26073  ,2.4  ,5
3858  ,1.600e+08   ,-0.9  ,-2.4  ,5
3863  ,5.291e+08   ,-2.5  ,0.9  ,4.9
3875  ,9.823e+08   ,-1.9  ,-2.4  ,5
3885  ,9.687e+08   ,2.4  ,-0.72473  ,5
3910  ,3.205e+08   ,-2.4  ,-2.5  ,3.4
3959  ,2.454e+09   ,2.5  ,2.4  ,4.1404
3969  ,9.732e+08   ,2.5  ,1.0491  ,4.9
3992  ,1.143e+10   ,2.391  ,2.2576  ,4.9577
3993  ,1.028e+10   ,2.4577  ,2.2576  ,4.891
4016  ,1.642e+08   ,-2.3015  ,2.5  ,4.9
4018  ,1.671e+08   ,-2.4  ,2.5  ,4.8
4021  ,1.413e+09   ,1.2462  ,2.4  ,5
4042  ,2.009e+08   ,2.4  ,-1.1  ,0
4046  ,6.870e+08   ,-0.9  ,2.4  ,0
4055  ,8.198e+08   ,1.7  ,-2.5  ,4.9
4087  ,3.832e+08   ,1.7  ,2.4  ,0
4114  ,8.893e+08   ,2.5  ,-0.33054  ,4.9
4120  ,3.168e+08   ,2.4  ,-2.5  ,1.8
4125  ,5.448e+08   ,2.4  ,2.5  ,0.98691
4144  ,3.589e+09   ,2.4  ,2.5  ,4.3375
4161  ,3.971e+08   ,-2.4  ,0.3  ,5
4201  ,3.276e+08   ,1.933  ,-2.5  ,0.2
4225  ,2.897e+08   ,-2.3  ,-2.4  ,0
4230  ,2.176e+08   ,-2.3  ,-2.5  ,0.56701
4269  ,1.323e+08   ,-0.9  ,-2.5  ,4.9
4277  ,1.487e+08   ,-1.1  ,-2.4  ,5
4288  ,1.441e+09   ,-0.070055  ,2.3  ,4.8
4328  ,7.519e+08   ,-2.5  ,-2.4  ,4.2
4336  ,3.661e+08   ,-2.5  ,-2.4  ,4.4
4342  ,5.285e+08   ,-2.5  ,-2.4  ,4.6
4348  ,9.993e+08   ,-2.4  ,-2.4707  ,4.9707
4352  ,4.173e+08   ,-2.3  ,-2.5  ,4.9
4354  ,1.621e+09   ,-2.1765  ,-2.5  ,4.8
4355  ,8.106e+08   ,-2.3  ,-2.3379  ,4.8
4362  ,3.547e+08   ,2.5  ,2.4  ,0.59273
4364  ,7.966e+08   ,2.5  ,-2.4  ,2.4
4366  ,5.876e+08   ,2.5  ,-2.4  ,2.2
4372  ,4.223e+08   ,2.4  ,-2.5  ,2.2
4385  ,2.999e+08   ,-2.5  ,-1.9  ,0.1
4399  ,3.029e+08   ,-2.5  ,2.1  ,0.1
4407  ,1.230e+08   ,-0.7  ,-2.4  ,0
4436  ,6.092e+08   ,-2.5  ,-0.1  ,0.1
4462  ,8.362e+08   ,-2.3  ,2.3  ,4.0333
4491  ,8.287e+08   ,2.5  ,-0.52764  ,4.9
4494  ,2.181e+08   ,2.5  ,-2.4  ,1.4
4503  ,2.185e+08   ,2.4  ,-2.5  ,1.4
4508  ,3.587e+08   ,2.4  ,-2.5  ,1.2
4515  ,2.240e+08   ,2.5  ,-2.4  ,1.8
4517  ,1.371e+08   ,2.4  ,-2.5  ,1.6
4522  ,1.117e+09   ,0.7  ,-2.4  ,0
4538  ,9.670e+08   ,-1.1189  ,2.4  ,5
4546  ,2.290e+09   ,2.4  ,2.5  ,4.1404
4559  ,6.852e+08   ,1.7  ,-2.4  ,0
4590  ,1.032e+09   ,0.5  ,-2.4  ,0
4631  ,5.498e+08   ,2.4  ,-2.5  ,2.6
4634  ,1.181e+09   ,2.5  ,-2.4  ,2.8
4657  ,2.358e+08   ,-2.5  ,-2.4  ,2
4660  ,2.010e+08   ,-2.5  ,-2.4  ,1.8
4664  ,4.854e+08   ,-0.3  ,-2.4  ,0
4675  ,4.772e+08   ,-2.4  ,-2.5  ,4.8
4681  ,5.750e+08   ,-2.5  ,-0.3  ,0.1
4684  ,4.420e+08   ,1.7  ,-2.4  ,5
4703  ,5.855e+08   ,-2.4  ,0.7  ,5
4707  ,3.822e+08   ,-2.5  ,0.3  ,4.9
4714  ,8.245e+08   ,2.4  ,-0.33054  ,5
4723  ,1.081e+09   ,-1.5567  ,2.3  ,4.8
4739  ,1.854e+08   ,-2.1044  ,2.5  ,4.9
4763  ,5.538e+08   ,-1.9  ,2.4  ,0
4780  ,2.036e+08   ,-2.3  ,-1.9695  ,0.2
4782  ,1.602e+08   ,-2.4707  ,-2.4  ,0.029289
4784  ,2.848e+08   ,-2.4  ,-1.9  ,0
4791  ,2.132e+08   ,-2.4  ,-2.5  ,1.8
4796  ,1.694e+09   ,2.4707  ,-2.4707  ,4.9
4799  ,2.004e+09   ,2.5  ,-2.4  ,4.8
4806  ,1.179e+09   ,2.3  ,-2.5  ,4.9
4809  ,2.978e+09   ,2.3  ,2.3  ,3.9166
4833  ,5.341e+08   ,-2.4  ,2.5  ,0.4
4841  ,4.264e+08   ,-2.4  ,2.5  ,2.6
4846  ,3.559e+08   ,-2.5  ,2.1  ,4.9
4848  ,1.869e+08   ,-2.5  ,2.3  ,4.9
4849  ,1.608e+08   ,-2.5  ,2.4  ,4.8
4893  ,3.816e+08   ,-2.4  ,2.5  ,4.2
4897  ,4.501e+09   ,2.3333  ,2.1998  ,5
4900  ,1.254e+10   ,2.391  ,2.4577  ,4.7576
4908  ,1.146e+10   ,2.2576  ,2.391  ,4.9577
4911  ,1.255e+10   ,2.2576  ,2.4577  ,4.891
4926  ,7.155e+08   ,-2.5  ,2.4  ,1
4932  ,7.892e+08   ,-2.4  ,2.5  ,1.6
4937  ,8.615e+08   ,-1.1  ,2.5  ,0.1
4939  ,5.994e+09   ,2.3  ,2.2299  ,4.7299
4944  ,1.269e+09   ,2.5  ,-1.9073  ,4.9
4987  ,9.125e+08   ,-2.3  ,1.5527  ,4.8
5010  ,5.335e+09   ,2.4973  ,2.1331  ,4.923
5013  ,4.247e+09   ,2.5  ,2.0345  ,4.9
5017  ,4.591e+09   ,2.4  ,2.0345  ,5
5035  ,1.345e+09   ,1.3  ,-2.4  ,0
5038  ,8.086e+08   ,1.2085  ,-2.5  ,0.2
5092  ,1.642e+08   ,-2.4  ,-2.5  ,1.2
5123  ,9.421e+08   ,2.5  ,-2.4  ,0.6
5151  ,5.490e+08   ,-2.5  ,-0.5  ,0.1
5160  ,4.794e+08   ,-2.5  ,-0.7  ,0.1
5164  ,6.009e+08   ,-2.4  ,0.9  ,5
5168  ,4.168e+08   ,-2.4  ,0.5  ,5
5176  ,2.294e+08   ,2.5  ,-0.7  ,0.1
5179  ,1.414e+08   ,2.4  ,-0.5  ,0
5189  ,5.187e+08   ,2.4  ,-2.5  ,2.4
5194  ,2.080e+08   ,2.3  ,-2.5  ,2.2576
5198  ,1.813e+08   ,-2.3  ,-2.5  ,0.32348
5205  ,2.509e+08   ,-2.4  ,-2.5  ,0.2
5207  ,2.191e+08   ,-2.1  ,-2.5  ,0.1
5246  ,6.000e+08   ,-2.5  ,2.4  ,3.2
5257  ,4.234e+08   ,-2.5  ,1.5  ,4.9
5263  ,6.929e+08   ,-2.3  ,0.2278  ,0.2
5272  ,6.392e+08   ,-2.5  ,0.3  ,0.1
5275  ,4.030e+08   ,-2.5  ,0.5  ,4.9
5281  ,3.116e+09   ,1.8375  ,2.5  ,4.9
5297  ,8.299e+08   ,-0.9  ,2.5  ,0.1
5306  ,5.735e+08   ,-0.7  ,2.4  ,0
5309  ,5.351e+08   ,-0.5  ,2.5  ,0.1
5324  ,9.128e+08   ,2.4  ,2.5  ,2.7607
5332  ,6.558e+08   ,2.5  ,-2.4  ,0.8
5334  ,3.377e+08   ,2.4  ,-2.5  ,1
5360  ,1.046e+09   ,2.4  ,-1.7102  ,5
5362  ,1.064e+09   ,2.4  ,-1.5131  ,5
5368  ,2.909e+09   ,2.4  ,1.8375  ,5
5371  ,2.128e+10   ,2.4325  ,2.4888  ,4.6656
5372  ,5.731e+09   ,2.3333  ,2.5  ,4.6998
5376  ,4.443e+09   ,2.4707  ,2.4707  ,4.6331
5377  ,5.402e+09   ,2.5  ,2.4  ,4.5345
5379  ,3.386e+08   ,-1.5  ,-2.5  ,4.9
5406  ,1.193e+09   ,-2.5  ,-2.4  ,3.4
5420  ,5.503e+08   ,-2.3  ,-2.5  ,3.2226
5423  ,1.144e+09   ,1.5  ,-2.4  ,0
5502  ,1.806e+08   ,-2.5  ,-2.3  ,0.1
5504  ,2.675e+08   ,-2.5  ,-2.4  ,0.2
5506  ,1.906e+08   ,-2.4  ,-2.3  ,0
5511  ,2.515e+08   ,-2.5  ,-2.1  ,0.1
5513  ,6.321e+08   ,-2.4  ,0.5  ,0
5517  ,2.123e+08   ,-0.9  ,-2.5  ,0.1
5532  ,7.134e+07   ,-2.4707  ,2.4707  ,4.9
5534  ,1.718e+08   ,2.4  ,-0.7  ,0
5551  ,1.272e+09   ,2.5  ,-2.4  ,3.8
5566  ,8.072e+08   ,2.5  ,2.4  ,1.3811
5603  ,1.947e+08   ,2.4  ,-0.3  ,0
5617  ,5.194e+08   ,-2.1  ,2.5  ,0.1
5637  ,4.631e+08   ,-2.3  ,-1.9695  ,4.8
5641  ,4.561e+08   ,2.3  ,-2.5  ,3.4636
5645  ,2.333e+08   ,-2.4  ,-2.5  ,2
5649  ,2.924e+08   ,-2.4  ,-2.5  ,2.2
5659  ,2.330e+08   ,-2.3  ,-2.5  ,1.7774
5662  ,2.778e+09   ,2.1765  ,-2.5  ,4.8
5666  ,1.167e+09   ,2.4  ,-2.5  ,4.8
5669  ,1.551e+09   ,2.3  ,-2.3412  ,4.8
5695  ,6.640e+08   ,-2.4  ,0.7  ,0
5701  ,6.752e+08   ,-2.5  ,2.4  ,1.6
5715  ,7.084e+08   ,-2.4  ,2.5  ,1.8
5726  ,7.023e+08   ,-0.7  ,2.5  ,0.1
5727  ,7.283e+08   ,-1.1  ,2.4  ,0
5730  ,4.080e+08   ,2.3  ,-2.5  ,1.7774
5746  ,1.024e+09   ,2.5  ,2.4  ,1.7753
5755  ,7.886e+08   ,2.5  ,-2.4  ,4.4
5763  ,7.314e+08   ,2.4  ,-2.5  ,4.4
5773  ,1.259e+09   ,1.0491  ,2.5  ,4.9
5791  ,1.009e+09   ,-0.72473  ,2.4  ,5
5795  ,3.299e+09   ,1.8375  ,2.4  ,5
5803  ,6.725e+08   ,-0.3  ,-2.4  ,5
5810  ,2.050e+09   ,2.4  ,1.6404  ,5
5836  ,4.153e+08   ,-2.5  ,1.3  ,4.9
5860  ,2.068e+08   ,2.5  ,-2.4  ,1.6
5866  ,5.007e+08   ,1.5  ,-2.5  ,0.1
5884  ,2.469e+08   ,-2.4  ,-0.3  ,5
5888  ,1.744e+08   ,-2.5  ,-0.5  ,4.9
5901  ,1.936e+08   ,2.3  ,-2.5  ,2.5
5908  ,3.083e+08   ,2.5  ,-2.4  ,1.2
5909  ,3.740e+08   ,2.5  ,-2.4  ,2
5934  ,7.858e+08   ,1.9  ,-2.5  ,4.9
5938  ,1.575e+09   ,1.933  ,-2.5  ,4.8
5948  ,5.641e+08   ,-2.4  ,-2.5  ,4.6
5950  ,7.775e+08   ,-2.4707  ,-2.4707  ,4.9
5951  ,7.553e+08   ,-2.5  ,-2.4  ,4.8
5952  ,6.053e+08   ,-2.5  ,-2.3  ,4.9
5986  ,4.205e+08   ,2.3  ,-2.5  ,3.7085
5990  ,1.025e+09   ,-0.92182  ,2.5  ,4.9
6019  ,3.092e+08   ,2.5  ,1.9  ,0.1
6025  ,2.161e+08   ,2.4  ,-1.3  ,0
6035  ,4.222e+08   ,-2.5  ,1.9  ,4.9
6044  ,6.782e+08   ,0.1  ,2.5  ,0.1
6054  ,2.374e+08   ,2.4  ,0.1  ,0
6070  ,1.528e+08   ,-2.4  ,2.3  ,0
6071  ,2.164e+08   ,-2.3  ,2.4  ,0
6076  ,3.441e+08   ,-2.4  ,2.1  ,0
6083  ,6.912e+08   ,2.1  ,-2.4  ,0
6084  ,2.048e+08   ,2.4  ,2.3  ,0
6087  ,1.736e+08   ,2.3  ,2.4  ,0
6092  ,1.670e+08   ,-2.4  ,-2.5  ,0.4
6096  ,2.612e+08   ,-2.3  ,-2.5  ,0.1
6099  ,3.340e+08   ,0.7  ,-2.5  ,0.1
6149  ,4.742e+08   ,-2.4  ,-0.9  ,0
6159  ,6.680e+08   ,-2.5  ,-2.4  ,2.6
6183  ,1.417e+09   ,1.2462  ,2.5  ,4.9
6224  ,9.413e+08   ,2.5  ,-2.4  ,4
6228  ,6.375e+08   ,2.4  ,-2.5  ,3.8
6237  ,5.800e+08   ,2.5  ,0.7  ,0.1
6241  ,5.200e+09   ,2.5  ,2.3333  ,4.6998
6245  ,8.421e+08   ,2.5  ,2.4  ,1.5782
6259  ,1.358e+09   ,2.5  ,-2.1044  ,4.9
6265  ,1.075e+09   ,2.3  ,-1.9804  ,4.8
6267  ,1.509e+09   ,2.5  ,-2.3015  ,4.9
6268  ,1.388e+09   ,2.4707  ,-2.4  ,4.9707
6270  ,1.399e+09   ,2.4  ,-2.1044  ,5
6317  ,9.893e+08   ,-2.3  ,0.2278  ,4.8
6349  ,1.008e+09   ,-0.52764  ,2.4  ,5
6391  ,9.645e+08   ,2.4  ,2.5  ,1.7753
6440  ,4.213e+08   ,-2.5  ,2.4  ,3.8
6471  ,9.258e+08   ,2.5  ,-0.92182  ,4.9
6489  ,1.240e+09   ,2.5  ,1.2462  ,4.9
6523  ,1.989e+08   ,-1.1  ,-2.4  ,0
6528  ,2.307e+08   ,-1.1  ,-2.5  ,0.1
6535  ,1.332e+08   ,-0.9  ,-2.4  ,0
6538  ,8.579e+08   ,1.5  ,-2.4  ,5
6541  ,7.014e+08   ,1.5  ,-2.5  ,4.9
6551  ,8.841e+08   ,2.5  ,-0.72473  ,4.9
6564  ,1.004e+10   ,2.1331  ,2.4973  ,4.923
6565  ,5.417e+09   ,2.0345  ,2.5  ,4.9
6572  ,3.384e+08   ,2.4  ,-1.7  ,0
6581  ,1.360e+09   ,0  ,2.3  ,0.2
6592  ,5.079e+08   ,2.3  ,-1.9695  ,0.2
6594  ,4.184e+08   ,0.3  ,2.4  ,0
6601  ,5.785e+08   ,0.5  ,2.5  ,0.1
6605  ,3.328e+08   ,-2.4  ,-1.3  ,0
6606  ,4.048e+08   ,-2.4  ,-1.1  ,0
6615  ,6.727e+08   ,-2.4  ,-0.3  ,0
6634  ,1.013e+09   ,2.1  ,-2.5  ,4.9
6635  ,1.713e+09   ,2.4  ,-2.4707  ,4.9707
6636  ,2.020e+09   ,2.3  ,-2.4  ,5
6647  ,3.618e+08   ,0.5  ,-2.5  ,0.1
6704  ,9.439e+07   ,-2.4707  ,2.4707  ,0.1
6708  ,2.402e+08   ,-2.5  ,2.4  ,0.2
6712  ,4.218e+08   ,-2.4  ,2.5  ,3.6
6715  ,5.769e+08   ,-2.4  ,2.5  ,3.4
6728  ,5.363e+08   ,-2.5  ,0.7  ,4.9
6753  ,1.997e+08   ,-2.1044  ,2.4  ,5
6788  ,3.555e+09   ,2.5  ,2.4  ,4.3375
6791  ,1.254e+09   ,-1.933  ,-2.5  ,4.8
6795  ,5.264e+09   ,2.1998  ,2.5  ,4.8333
6837  ,1.804e+08   ,-2.3  ,-2.5  ,0.8063
6869  ,1.120e+09   ,2.5  ,-1.7102  ,4.9
6873  ,1.360e+09   ,2.4  ,-1.9073  ,5
6880  ,9.487e+08   ,2.4  ,-0.92182  ,5
6885  ,8.597e+08   ,2.4  ,-0.52764  ,5
6893  ,1.161e+09   ,2.4  ,1.2462  ,5
6914  ,6.722e+08   ,0.7  ,2.5  ,0.1
6920  ,5.584e+08   ,0.9  ,2.4  ,0
6923  ,6.043e+08   ,0.7  ,2.4  ,0
6936  ,5.614e+08   ,2.4  ,-2.5  ,3.4
6939  ,4.041e+08   ,2.3  ,-2.5  ,3.2226
6961  ,5.273e+08   ,-0.1  ,-2.5  ,4.9
6967  ,3.402e+08   ,-2.5  ,-1.5  ,4.9
6975  ,4.842e+08   ,-2.4  ,1.1  ,5
6978  ,3.214e+08   ,-2.4  ,2.5  ,0.2
6987  ,1.010e+09   ,2.4  ,-1.316  ,5
6994  ,3.325e+08   ,2.4  ,-1.5  ,0
7004  ,5.586e+08   ,2.4  ,-2.5  ,3.6
7011  ,9.373e+08   ,2.4  ,0.65491  ,5
7016  ,7.524e+08   ,2.4  ,0.45782  ,5
7019  ,8.713e+08   ,2.5  ,2.4  ,2.1695
7021  ,9.023e+08   ,2.5  ,2.4  ,1.9724
7052  ,7.635e+08   ,-1.3  ,2.5  ,0.1
7054  ,1.054e+08   ,-2.4  ,-2.5  ,0.8
7057  ,3.689e+08   ,0.3  ,-2.5  ,0.1
7065  ,3.082e+08   ,0.24243  ,-2.5  ,0.2
7075  ,2.112e+10   ,2.4888  ,2.4325  ,4.6656
7113  ,2.939e+08   ,-2.4  ,-2.5  ,2.6
7121  ,3.571e+08   ,-2.4  ,-2.5  ,2.8
7126  ,8.687e+08   ,-2.5  ,-2.4  ,2.8
7128  ,1.869e+08   ,-2.4707  ,-2.4707  ,0.1
7129  ,1.926e+08   ,-2.4  ,-2.4707  ,0.029289
7141  ,7.253e+08   ,-1.7  ,-2.4  ,5
7145  ,4.247e+08   ,1.1  ,2.4  ,0
7163  ,3.772e+08   ,-1.7102  ,2.4  ,5
7172  ,1.346e+09   ,2.5  ,-2.4  ,3.2
7174  ,4.189e+08   ,-2.5  ,2.4  ,3.6
7183  ,2.791e+08   ,-1.4531  ,-2.5  ,4.8
7204  ,1.991e+09   ,2.3  ,-0.81068  ,4.8
7220  ,8.685e+08   ,2.5  ,0.063638  ,4.9
7227  ,5.260e+08   ,2.5  ,-1.9  ,0.1
7256  ,8.360e+08   ,-0.1  ,-2.4  ,5
7280  ,8.576e+08   ,-0.33054  ,2.4  ,5
7299  ,9.682e+08   ,2.5  ,-1.1189  ,4.9
7316  ,2.122e+08   ,-2.5  ,-2.4  ,0.8
7323  ,1.209e+08   ,-2.4  ,-2.5  ,1
7396  ,1.385e+09   ,1.1  ,-2.4  ,5
7400  ,6.632e+08   ,-2.5  ,0.7  ,0.1
7409  ,1.197e+09   ,1.3  ,-2.4  ,5
7420  ,2.980e+08   ,2.5  ,2.1  ,0.1
7429  ,4.615e+08   ,2.4  ,1.9  ,0
7436  ,4.085e+08   ,2.5  ,-1.7  ,0.1
7438  ,5.421e+08   ,2.4  ,-2.5  ,2.8
7445  ,1.465e+10   ,2.4325  ,2.1656  ,4.9888
7464  ,2.610e+08   ,2.5  ,-1.5  ,0.1
7480  ,9.863e+08   ,2.5  ,-2.4  ,0.2
7482  ,4.306e+08   ,1.9  ,-2.5  ,0.1
7483  ,4.842e+08   ,1.7  ,-2.5  ,0.1
7486  ,7.775e+08   ,1.9  ,-2.4  ,5
7488  ,7.692e+08   ,1.6937  ,-2.5  ,4.8
7492  ,2.118e+09   ,2.1  ,-2.4  ,5
7495  ,3.746e+08   ,0.1  ,-2.5  ,0.1
7504  ,9.363e+08   ,0.3  ,-2.4  ,0
7507  ,2.901e+08   ,0.9  ,-2.5  ,0.1
7533  ,6.839e+08   ,-2.5  ,0.9  ,0.1
7536  ,2.919e+08   ,-2.4  ,-2.5  ,3.2
7540  ,3.345e+08   ,-2.4  ,-2.5  ,3
7545  ,1.021e+09   ,-2.5  ,-2.4  ,3
7582  ,3.456e+08   ,1.3  ,2.5  ,0.1
7588  ,9.469e+08   ,2.5  ,2.4  ,2.3665
7598  ,3.904e+08   ,-2.5  ,2.4  ,4.2
7607  ,8.693e+08   ,1.5333  ,2.3  ,0.2
7627  ,4.515e+08   ,-2.5  ,1.1  ,4.9
7651  ,4.916e+08   ,2.4  ,-1.9  ,0
7656  ,2.263e+08   ,2.5  ,2.4  ,0.39564
7660  ,5.971e+09   ,2.2299  ,2.3  ,4.7299
7668  ,1.936e+08   ,1.4531  ,-2.5  ,4.8
7676  ,5.454e+08   ,0.1  ,-2.5  ,4.9
7683  ,1.019e+09   ,0.1  ,-2.4  ,5
7686  ,2.712e+08   ,-2.4  ,-1.1  ,5
7702  ,4.084e+08   ,-2.3  ,-2.5  ,4.433
7710  ,1.021e+09   ,-2.3  ,-2.5  ,4.6765
7752  ,1.388e+09   ,0.9  ,-2.4  ,5
7763  ,2.782e+08   ,0.24243  ,-2.5  ,4.8
7767  ,1.088e+09   ,-2.5  ,-2.4  ,3.2
7768  ,2.551e+08   ,-2.4  ,-2.1  ,0
7776  ,7.023e+08   ,-2.4  ,0.9  ,0
7786  ,3.707e+08   ,-0.4838  ,-2.5  ,4.8
7800  ,2.117e+09   ,2.5  ,-2.4  ,4.6
7805  ,2.443e+08   ,-2.5  ,-1.3  ,4.9
7811  ,2.300e+08   ,-2.5  ,-1.1  ,4.9
7820  ,5.674e+08   ,2.5  ,-2.1  ,0.1
7824  ,5.274e+08   ,2.4  ,-2.1  ,0
7828  ,8.137e+08   ,2.4  ,-2.5  ,4.2
7831  ,7.265e+08   ,2.4  ,-2.5  ,4
7838  ,4.589e+08   ,2.5  ,-2.4  ,4.2
7839  ,9.488e+08   ,2.5  ,2.4  ,2.7607
7840  ,1.067e+09   ,2.5  ,2.4  ,2.9578
7863  ,2.825e+08   ,-2.4  ,-1.5  ,0
7890  ,4.661e+08   ,2.4  ,0.9  ,0
7897  ,5.028e+08   ,-2.4  ,-0.7  ,0
7912  ,4.505e+07   ,-1.5  ,-2.4  ,0
7917  ,1.312e+08   ,-1.3  ,-2.5  ,0.1
7931  ,4.274e+08   ,0.5  ,2.4  ,0
7934  ,1.362e+09   ,1.1  ,-2.4  ,0
7937  ,3.923e+08   ,2.4  ,-2.5  ,0.8
7941  ,1.416e+08   ,-2.4  ,-2.5  ,0.6
7969  ,1.488e+08   ,-2.5  ,2.3  ,0.1
7971  ,4.709e+08   ,-2.4  ,1.9  ,0
7972  ,6.498e+08   ,-1.9  ,2.5  ,0.1
7978  ,7.021e+08   ,-2.4  ,1.1  ,0
7996  ,2.476e+08   ,-2.4  ,-0.5  ,5
8000  ,3.096e+08   ,-2.5  ,-2.4  ,0.6
8003  ,4.254e+08   ,-2.5  ,-2.4  ,0.4
8025  ,6.190e+08   ,0.9  ,2.5  ,0.1
8035  ,5.983e+08   ,0.3  ,2.5  ,0.1
8039  ,1.653e+09   ,2.3  ,-2.5  ,0.32348
8041  ,8.595e+08   ,2.3  ,-2.3379  ,0.2
8043  ,1.023e+09   ,2.1765  ,-2.5  ,0.2
8045  ,2.695e+08   ,-0.96359  ,-2.5  ,0.2
8054  ,3.224e+08   ,1.3  ,2.4  ,0
8058  ,4.494e+08   ,1.1  ,2.5  ,0.1
8062  ,7.435e+08   ,-2.5  ,2.4  ,1.4
8067  ,6.431e+08   ,-2.5  ,2.4  ,0.8
8087  ,6.185e+08   ,-2.5  ,1.5  ,0.1
8132  ,8.921e+08   ,-0.13345  ,2.4  ,5
8183  ,2.558e+08   ,2.5  ,-0.9  ,0.1
8184  ,3.459e+08   ,1.6937  ,-2.5  ,0.2
8214  ,6.474e+08   ,-2.4707  ,-2.4  ,4.9707
8217  ,1.314e+09   ,-2.1  ,-2.4  ,5
8219  ,5.082e+08   ,-2.4  ,-2.5  ,4.4
8227  ,1.153e+09   ,2.5  ,2.4  ,3.1549
8242  ,5.418e+08   ,0.7  ,-2.5  ,4.9
8248  ,1.398e+09   ,2.5  ,-2.4  ,3.6
8254  ,2.057e+08   ,2.5  ,-0.3  ,0.1
8256  ,2.013e+08   ,2.5  ,-0.5  ,0.1
8258  ,5.021e+08   ,-0.3  ,-2.5  ,4.9
8263  ,4.827e+08   ,-0.5  ,-2.5  ,4.9
8268  ,8.051e+08   ,-2.3  ,-2.5  ,3.7085
8277  ,4.014e+08   ,-0.1  ,-2.5  ,0.1
8285  ,5.224e+08   ,1.1  ,-2.5  ,4.9
8307  ,4.037e+08   ,0.1  ,2.4  ,0
8308  ,4.203e+08   ,-0.1  ,2.5  ,0.1
8309  ,3.896e+08   ,-0.1  ,2.4  ,0
8313  ,6.011e+08   ,2.5  ,-2.3  ,0.1
8318  ,1.265e+09   ,2.5  ,-2.4  ,3
8338  ,1.092e+09   ,2.5  ,2.4  ,3.352
8339  ,1.150e+09   ,2.4  ,2.5  ,3.1549
8344  ,5.391e+08   ,-2.5  ,2.4  ,3.4
8357  ,1.415e+10   ,2.4888  ,2.1656  ,4.9325
8358  ,4.147e+09   ,2.5  ,2.1998  ,4.8333
8383  ,2.034e+08   ,-1.7  ,-2.4  ,0
8396  ,3.270e+08   ,1.1  ,-2.5  ,0.1
8399  ,4.083e+09   ,2.4526  ,2.1331  ,4.9851
8405  ,4.554e+08   ,2.5  ,-2.4  ,1
8412  ,8.575e+08   ,2.3  ,-2.5  ,0.8063
8417  ,1.742e+08   ,-2.3  ,-2.5  ,2.5
8434  ,4.461e+08   ,0.9636  ,-2.5  ,4.8
8438  ,3.638e+08   ,-0.3  ,-2.5  ,0.1
8452  ,3.079e+08   ,-2.4  ,-0.1  ,5
8468  ,1.423e+09   ,2.5  ,2.4  ,3.7462
8471  ,2.422e+08   ,-1.3  ,-2.5  ,4.9
8493  ,1.557e+08   ,-1.1  ,-2.5  ,4.9
8509  ,2.728e+08   ,-2.5  ,-1.7  ,0.1
8517  ,4.554e+08   ,-2.4  ,2.5  ,3
8531  ,5.535e+08   ,-2.4  ,1.7  ,0
8556  ,1.251e+09   ,2.5  ,2.4  ,3.5491
8573  ,7.817e+08   ,-1.316  ,2.4  ,5
8576  ,6.894e+08   ,-2.4  ,1.3  ,0
8611  ,2.224e+08   ,2.3  ,-2.5  ,1.2915
8618  ,3.522e+08   ,-2.4  ,2.5  ,4
8646  ,7.215e+08   ,-2.5  ,1.1  ,0.1
8656  ,2.989e+08   ,2.5  ,-1.3  ,0.1
8657  ,3.867e+08   ,2.4  ,2.1  ,0
8673  ,6.849e+08   ,-1.3  ,2.4  ,0
8692  ,3.086e+08   ,0.72263  ,-2.5  ,4.8
8696  ,4.207e+08   ,2.3  ,-2.5  ,1.0469
8706  ,8.608e+08   ,2.5  ,0.65491  ,4.9
8721  ,2.259e+08   ,-2.4  ,-2.5  ,1.6
8725  ,1.156e+09   ,0.65491  ,2.4  ,5
8739  ,1.775e+10   ,2.1656  ,2.4325  ,4.9888
8741  ,5.117e+09   ,2.1998  ,2.3333  ,5
8746  ,4.521e+08   ,-2.1  ,-2.4  ,0
8748  ,1.722e+08   ,-2.5  ,-2.4  ,1.2
8752  ,7.719e+09   ,2.1331  ,2.4526  ,4.9851
8759  ,1.105e+08   ,-2.3  ,-2.5  ,1.0469
8787  ,6.558e+08   ,-0.1  ,-2.4  ,0
8793  ,1.356e+08   ,-2.3  ,-2.5  ,2.2576
8795  ,3.031e+08   ,-2.4  ,-2.5  ,2.4
8798  ,3.317e+08   ,-2.3  ,-2.5  ,4.1937
8808  ,7.166e+08   ,-2.3  ,-2.5  ,3.9531
8814  ,5.198e+08   ,-2.4  ,-1.5  ,5
8849  ,3.627e+08   ,0.4838  ,-2.5  ,4.8
8851  ,5.670e+08   ,-2.4  ,-2.5  ,4.2
8868  ,5.487e+08   ,2.4  ,-2.5  ,3
8874  ,1.151e+09   ,0.852  ,2.4  ,5
8883  ,4.418e+08   ,-0.5  ,-2.4  ,5
8886  ,4.352e+08   ,-0.72262  ,-2.5  ,4.8
8893  ,3.515e+08   ,-0.7  ,-2.5  ,4.9
8897  ,1.356e+09   ,-2.5  ,-2.4  ,3.6
8899  ,6.897e+08   ,-2.3  ,-2.5  ,3.4636
8900  ,1.822e+08   ,-2.3  ,-1.4729  ,0.2
8906  ,3.497e+08   ,-2.5  ,-1.3  ,0.1
8910  ,1.155e+09   ,0.852  ,2.5  ,4.9
8925  ,7.857e+08   ,-2.4  ,2.5  ,1.4
8941  ,1.103e+08   ,2.4707  ,2.4  ,0.029289
8942  ,1.872e+08   ,2.5  ,2.3  ,0.1
8945  ,3.832e+08   ,-2.5  ,0.1  ,4.9
8950  ,9.758e+07   ,2.4707  ,2.4707  ,0.1
8951  ,6.107e+07   ,2.4  ,2.4707  ,0.029289
8959  ,6.752e+08   ,2.4  ,0.26073  ,5
8965  ,1.034e+09   ,0.45782  ,2.4  ,5
8978  ,7.756e+08   ,2.4  ,0.852  ,5
8983  ,2.402e+08   ,2.5  ,-1.1  ,0.1
8991  ,5.571e+08   ,-2.5  ,2.4  ,0.6
9008  ,8.199e+08   ,2.5  ,0.852  ,4.9
9011  ,5.597e+08   ,-2.4  ,-0.5  ,0
9025  ,9.450e+07   ,-1.5  ,-2.5  ,0.1
9038  ,3.751e+08   ,2.4  ,-2.5  ,2
9041  ,5.748e+08   ,2.5  ,0.9  ,0.1
9050  ,3.902e+08   ,2.5  ,0.5  ,0.1
9054  ,1.222e+09   ,0.9  ,-2.4  ,0
9060  ,3.860e+08   ,2.4  ,-2.5  ,0.4
9062  ,1.251e+09   ,2.3  ,-2.5  ,0.56701
9064  ,1.145e+09   ,2.5  ,-2.4  ,0.4
9069  ,2.752e+08   ,2.4  ,-2.5  ,0.6
9071  ,7.119e+08   ,1.4531  ,-2.5  ,0.2
9082  ,1.389e+08   ,-2.3  ,-2.5  ,1.2915
9086  ,2.398e+08   ,-2.4  ,-2.5  ,1.4
9091  ,2.324e+08   ,-2.5  ,-2.4  ,1.4
9094  ,4.890e+08   ,1.3  ,-2.5  ,4.9
9097  ,2.067e+08   ,-0.7  ,-2.5  ,0.1
9137  ,1.584e+08   ,-2.5  ,-0.7  ,4.9
9143  ,2.447e+08   ,-2.5  ,-0.1  ,4.9
9146  ,4.333e+08   ,-2.1  ,2.4  ,0
9148  ,4.234e+08   ,-2.5  ,1.7  ,4.9
9173  ,4.134e+08   ,-2.5  ,2.4  ,3
9192  ,2.978e+08   ,-0.7  ,-2.4  ,5
9195  ,5.343e+08   ,0.72263  ,-2.5  ,0.2
9209  ,1.404e+09   ,2.5  ,-2.4  ,3.4
9215  ,7.129e+08   ,0.9636  ,-2.5  ,0.2
9217  ,5.780e+08   ,2.4  ,-2.5  ,3.2
9218  ,3.732e+08   ,-0.96359  ,-2.5  ,4.8
9229  ,5.057e+08   ,-2.4  ,2.5  ,2.8
9248  ,1.556e+09   ,2.3  ,-2.5  ,4.433
9255  ,4.387e+08   ,2.5  ,1.3  ,0.1
9257  ,3.721e+08   ,2.4  ,1.5  ,0
9262  ,1.214e+09   ,0.5  ,-2.4  ,5
9264  ,7.162e+08   ,2.4  ,-0.13345  ,5
9272  ,8.373e+08   ,0.063638  ,2.4  ,5
9277  ,7.541e+08   ,-2.5  ,2.4  ,1.2
9279  ,7.991e+08   ,2.5  ,0.26073  ,4.9
9282  ,4.648e+08   ,1.2085  ,-2.5  ,4.8
9286  ,5.622e+08   ,0.9  ,-2.5  ,4.9
9292  ,1.011e+08   ,-2.4  ,2.4707  ,4.9707
9293  ,9.526e+07   ,-2.3015  ,2.4  ,5
9296  ,5.610e+08   ,-2.4  ,-2.1  ,5
9303  ,5.746e+08   ,-2.4  ,-1.9  ,5
9311  ,1.983e+08   ,-2.4  ,2.3  ,5
9313  ,3.544e+08   ,-2.4  ,0.1  ,5
9319  ,2.968e+08   ,-0.5  ,-2.4  ,0
9328  ,2.173e+08   ,-2.3  ,-2.5  ,1.5364
9334  ,3.168e+08   ,-2.3  ,2.5  ,0.1
9338  ,5.273e+08   ,-2.5  ,-2.4  ,2.4
9339  ,6.712e+08   ,-2.5  ,1.3  ,0.1
9341  ,3.150e+08   ,-2.3  ,-2.5  ,2.7424
9344  ,3.861e+08   ,-2.5  ,-2.4  ,2.2
9358  ,1.924e+09   ,-2.3  ,2.3  ,2.5
9364  ,6.190e+08   ,-2.5  ,-2.1  ,4.9
9367  ,7.246e+08   ,-2.4  ,-2.3  ,5
9374  ,3.618e+08   ,-2.4  ,-1.3  ,5
9378  ,5.543e+08   ,-2.5  ,2.4  ,1.8
9384  ,2.571e+08   ,2.3  ,-2.5  ,2.0162
9385  ,3.625e+08   ,-2.5  ,2.4  ,4.4
9389  ,5.283e+08   ,-2.5  ,2.4  ,2
9395  ,1.425e+09   ,2.4  ,-2.3015  ,5
9396  ,2.671e+08   ,-2.4  ,-1.7  ,0
9407  ,6.036e+08   ,-2.3  ,-1.4729  ,4.8
9411  ,3.814e+08   ,-2.5  ,-1.7  ,4.9
9423  ,3.171e+08   ,-2.4  ,-2.5  ,3.6
9432  ,1.291e+09   ,0.7  ,-2.4  ,5
9438  ,1.867e+08   ,-2.5  ,-0.9  ,4.9
9443  ,2.344e+08   ,-2.5  ,-0.3  ,4.9
9445  ,1.093e+08   ,-2.4707  ,2.4  ,4.9707
9448  ,9.185e+08   ,2.4  ,-1.1189  ,5
9453  ,5.009e+08   ,2.4  ,0.7  ,0
9455  ,1.026e+09   ,2.5  ,-2.4  ,2.6
9457  ,3.556e+08   ,2.3  ,-2.5  ,2.9838
9494  ,7.642e+08   ,-2.4  ,2.5  ,1
9500  ,4.861e+08   ,0.3  ,-2.5  ,4.9
9504  ,1.141e+09   ,0.3  ,-2.4  ,5
9506  ,4.551e+08   ,2.1  ,-2.5  ,0.1
9518  ,1.373e+08   ,-1.9  ,-2.5  ,0.1
9528  ,5.266e+08   ,2.3  ,-2.5  ,0.1
9531  ,9.884e+08   ,2.4707  ,-2.4707  ,0.1
9533  ,6.132e+08   ,2.4707  ,-2.4  ,0.029289
9534  ,7.811e+08   ,2.4  ,-2.4707  ,0.029289
9541  ,4.621e+08   ,0.5  ,-2.5  ,4.9
9544  ,2.884e+08   ,-0.5  ,-2.5  ,0.1
9559  ,5.016e+08   ,-2.5  ,-1.9  ,4.9
9562  ,2.940e+08   ,-2.5  ,2.4  ,4.6
9565  ,6.292e+08   ,-2.4  ,2.5  ,2
9571  ,1.409e+09   ,-2.5  ,-2.4  ,3.8
9574  ,3.847e+08   ,-2.4  ,-2.5  ,3.8
9577  ,3.908e+08   ,1.3  ,-2.5  ,0.1
9582  ,4.274e+08   ,-2.5  ,-0.9  ,0.1
9596  ,3.087e+08   ,2.1  ,2.4  ,0
9598  ,6.054e+08   ,-2.4  ,2.5  ,3.2
9602  ,3.530e+08   ,1.5  ,2.5  ,0.1
9610  ,1.979e+08   ,2.4  ,2.5  ,0.39564
9612  ,1.106e+09   ,-0.72473  ,2.5  ,4.9
9614  ,3.702e+08   ,1.7  ,2.5  ,0.1
9635  ,3.899e+08   ,2.5  ,1.7  ,0.1
9646  ,1.664e+08   ,2.3  ,2.5  ,0.1
9651  ,1.672e+10   ,2.1656  ,2.4888  ,4.9325
9653  ,9.521e+08   ,2.5  ,-1.316  ,4.9
9656  ,3.993e+08   ,-2.4  ,-1.7  ,5
9659  ,2.776e+09   ,2.3  ,-2.5  ,4.6765
9661  ,2.490e+08   ,2.3  ,-2.5  ,3.9531
9664  ,1.043e+09   ,-2.3  ,-2.4  ,5
9666  ,2.999e+08   ,1.9  ,-2.4  ,0
9677  ,4.108e+08   ,2.4  ,0.5  ,0
9678  ,3.919e+08   ,-2.5  ,-1.1  ,0.1
9680  ,7.793e+08   ,2.5  ,2.4  ,1.184
9681  ,1.032e+08   ,2.5  ,2.4  ,0.19855
9696  ,2.222e+08   ,-2.3  ,-2.5  ,2.0162
9698  ,6.493e+08   ,2.4  ,-2.3  ,0
9699  ,2.268e+08   ,-0.24243  ,-2.5  ,0.2
9701  ,7.992e+08   ,0.1  ,-2.4  ,0
9704  ,2.654e+08   ,-0.4838  ,-2.5  ,0.2
9718  ,3.142e+08   ,-0.72262  ,-2.5  ,0.2
9726  ,1.008e+09   ,2.3  ,-0.76628  ,0.2
9727  ,4.696e+08   ,-2.5  ,2.4  ,0.4
9730  ,2.149e+08   ,1.9433E-06  ,-2.5  ,4.8
9731  ,2.631e+08   ,-0.24243  ,-2.5  ,4.8
9732  ,4.856e+08   ,-2.5  ,2.4  ,2.2
9738  ,1.217e+09   ,-2.5  ,-2.4  ,4
9743  ,8.189e+08   ,-1.6937  ,-2.5  ,4.8
9744  ,5.136e+08   ,-2.4  ,-2.5  ,4
9750  ,1.243e+08   ,-1.7  ,-2.5  ,0.1
9752  ,1.531e+08   ,-1.6937  ,-2.5  ,0.2
9754  ,1.817e+08   ,-1.3  ,-2.4  ,0
9759  ,6.901e+07   ,-2.4707  ,2.4  ,0.029289
9760  ,7.350e+07   ,-2.4  ,2.4707  ,0.029289
9768  ,8.038e+08   ,2.3  ,-2.5  ,4.1937
9770  ,2.733e+08   ,1.9433E-06  ,-2.5  ,0.2
9771  ,3.954e+08   ,0.4838  ,-2.5  ,0.2
9772  ,4.111e+08   ,2.4  ,-2.5  ,0.2
9773  ,1.006e+09   ,2.4  ,-2.5  ,4.6
9776  ,7.396e+08   ,2.4  ,0.063638  ,5
9780  ,1.131e+09   ,0.65491  ,2.5  ,4.9
9781  ,1.123e+08   ,2.4  ,2.5  ,0.19855
9782  ,4.622e+08   ,-2.3  ,-2.5  ,2.9838
9786  ,1.113e+08   ,-1.2085  ,-2.5  ,0.2
9787  ,4.073e+07   ,-1.4531  ,-2.5  ,0.2
9790  ,7.724e+08   ,2.3  ,-2.4  ,0
9793  ,5.301e+09   ,2.0345  ,2.4  ,5
9797  ,4.392e+08   ,2.3  ,-2.5  ,1.5364
9798  ,9.192e+08   ,2.4  ,1.0491  ,5
9809  ,1.147e+09   ,2.4  ,2.5  ,3.352
