Date:  11:19, Monday, July 10, 2023
Model name: Hollow_DropBox
Study name: Drop Test_hollow_draft1(-Default-)
Plot type:  Stress1
Plot step: 10   time : 52.4623 Microseconds
Result Type: von Mises 


Node  ,Value (N/m^2)  ,X (in)  ,Y (in)  ,Z (in)
1  ,6.034e+09   ,2.5  ,2.1331  ,4.9
2  ,2.172e+10   ,2.4577  ,2.1908  ,4.9577
3  ,1.187e+10   ,2.4894  ,2.1331  ,4.9447
4  ,6.210e+09   ,2.1331  ,2.5  ,4.9
5  ,1.243e+10   ,2.1331  ,2.4894  ,4.9447
6  ,2.002e+10   ,2.1908  ,2.4577  ,4.9577
7  ,8.723e+07   ,-2.4  ,2.4  ,5
8  ,3.414e+08   ,-2.4  ,-2.4  ,5
9  ,4.443e+08   ,2.4  ,-2.4  ,5
10  ,5.676e+09   ,2.4  ,2.1331  ,5
11  ,5.830e+09   ,2.1331  ,2.4  ,5
12  ,4.668e+08   ,2.5  ,-2.4  ,4.9
13  ,3.144e+08   ,2.5  ,-2.4  ,0.1
14  ,5.153e+07   ,2.5  ,2.4  ,0.1
15  ,6.346e+09   ,2.5  ,2.4  ,4.6331
16  ,7.816e+07   ,2.4  ,2.5  ,0.1
17  ,9.237e+07   ,-2.4  ,2.5  ,0.1
18  ,5.432e+07   ,-2.4  ,2.5  ,4.9
19  ,6.337e+09   ,2.4  ,2.5  ,4.6331
20  ,2.885e+07   ,-2.5  ,2.4  ,0.1
21  ,4.225e+07   ,-2.5  ,-2.4  ,0.1
22  ,2.073e+08   ,-2.5  ,-2.4  ,4.9
23  ,9.777e+07   ,-2.5  ,2.4  ,4.9
24  ,5.048e+07   ,-2.3  ,-2.5  ,0.2
25  ,4.396e+08   ,-2.3  ,-2.5  ,4.8
26  ,6.350e+08   ,2.3  ,-2.5  ,4.8
27  ,4.155e+08   ,2.3  ,-2.5  ,0.2
28  ,2.388e+08   ,-2.4  ,-2.5  ,4.9
29  ,4.452e+08   ,2.4  ,-2.5  ,4.9
30  ,4.535e+07   ,-2.4  ,-2.5  ,0.1
31  ,2.494e+08   ,2.4  ,-2.5  ,0.1
32  ,2.149e+08   ,2.4  ,-2.4  ,0
33  ,7.849e+07   ,2.4  ,2.4  ,0
34  ,5.070e+07   ,-2.4  ,-2.4  ,0
35  ,4.287e+07   ,-2.4  ,2.4  ,0
36  ,2.319e+10   ,2.4577  ,2.4577  ,4.6908
37  ,2.889e+08   ,-2.3  ,2.3  ,4.8
38  ,6.790e+09   ,2.1599  ,2.3  ,4.8
39  ,6.754e+09   ,2.3  ,2.1599  ,4.8
40  ,6.659e+09   ,2.3  ,2.3  ,4.6599
41  ,2.840e+08   ,2.3  ,2.3  ,0.2
42  ,1.184e+08   ,-2.3  ,2.3  ,0.2
43  ,1.341e+08   ,-2.4  ,2.2  ,5
44  ,2.265e+08   ,-2.4  ,2  ,5
45  ,2.405e+08   ,-2.4  ,1.8  ,5
46  ,2.445e+08   ,-2.4  ,1.6  ,5
47  ,2.374e+08   ,-2.4  ,1.4  ,5
48  ,2.696e+08   ,-2.4  ,1.2  ,5
49  ,2.834e+08   ,-2.4  ,1  ,5
50  ,4.069e+08   ,-2.4  ,0.8  ,5
51  ,3.828e+08   ,-2.4  ,0.6  ,5
52  ,3.339e+08   ,-2.4  ,0.4  ,5
53  ,3.292e+08   ,-2.4  ,0.2  ,5
54  ,2.238e+08   ,-2.4  ,5.8879E-16  ,5
55  ,2.059e+08   ,-2.4  ,-0.2  ,5
56  ,1.688e+08   ,-2.4  ,-0.4  ,5
57  ,2.066e+08   ,-2.4  ,-0.6  ,5
58  ,1.878e+08   ,-2.4  ,-0.8  ,5
59  ,1.962e+08   ,-2.4  ,-1  ,5
60  ,1.684e+08   ,-2.4  ,-1.2  ,5
61  ,2.124e+08   ,-2.4  ,-1.4  ,5
62  ,1.557e+08   ,-2.4  ,-1.6  ,5
63  ,1.004e+08   ,-2.4  ,-1.8  ,5
64  ,1.721e+08   ,-2.4  ,-2  ,5
65  ,1.771e+08   ,-2.4  ,-2.2  ,5
66  ,3.675e+08   ,-2.2  ,-2.4  ,5
67  ,1.905e+08   ,-2  ,-2.4  ,5
68  ,8.881e+07   ,-1.8  ,-2.4  ,5
69  ,5.147e+07   ,-1.6  ,-2.4  ,5
70  ,4.553e+07   ,-1.4  ,-2.4  ,5
71  ,1.290e+08   ,-1.2  ,-2.4  ,5
72  ,1.355e+08   ,-1  ,-2.4  ,5
73  ,1.425e+08   ,-0.8  ,-2.4  ,5
74  ,2.216e+08   ,-0.6  ,-2.4  ,5
75  ,3.445e+08   ,-0.4  ,-2.4  ,5
76  ,3.559e+08   ,-0.2  ,-2.4  ,5
77  ,4.072e+08   ,-5.8879E-16  ,-2.4  ,5
78  ,4.156e+08   ,0.2  ,-2.4  ,5
79  ,3.805e+08   ,0.4  ,-2.4  ,5
80  ,3.088e+08   ,0.6  ,-2.4  ,5
81  ,4.133e+08   ,0.8  ,-2.4  ,5
82  ,4.985e+08   ,1  ,-2.4  ,5
83  ,5.854e+08   ,1.2  ,-2.4  ,5
84  ,7.393e+08   ,1.4  ,-2.4  ,5
85  ,7.378e+08   ,1.6  ,-2.4  ,5
86  ,6.112e+08   ,1.8  ,-2.4  ,5
87  ,3.349e+08   ,2  ,-2.4  ,5
88  ,4.905e+08   ,2.2  ,-2.4  ,5
89  ,3.888e+08   ,2.4  ,-2.2029  ,5
90  ,3.825e+08   ,2.4  ,-2.0058  ,5
91  ,2.748e+08   ,2.4  ,-1.8087  ,5
92  ,2.589e+08   ,2.4  ,-1.6116  ,5
93  ,2.834e+08   ,2.4  ,-1.4145  ,5
94  ,2.627e+08   ,2.4  ,-1.2175  ,5
95  ,3.289e+08   ,2.4  ,-1.0204  ,5
96  ,4.356e+08   ,2.4  ,-0.82327  ,5
97  ,4.391e+08   ,2.4  ,-0.62618  ,5
98  ,4.688e+08   ,2.4  ,-0.42909  ,5
99  ,4.380e+08   ,2.4  ,-0.232  ,5
100  ,4.457e+08   ,2.4  ,-0.034907  ,5
101  ,5.105e+08   ,2.4  ,0.16218  ,5
102  ,6.271e+08   ,2.4  ,0.35927  ,5
103  ,7.565e+08   ,2.4  ,0.55637  ,5
104  ,8.750e+08   ,2.4  ,0.75346  ,5
105  ,8.128e+08   ,2.4  ,0.95055  ,5
106  ,8.546e+08   ,2.4  ,1.1476  ,5
107  ,1.397e+09   ,2.4  ,1.3447  ,5
108  ,2.043e+09   ,2.4  ,1.5418  ,5
109  ,2.732e+09   ,2.4  ,1.7389  ,5
110  ,4.498e+09   ,2.4  ,1.936  ,5
111  ,6.135e+09   ,2.2665  ,2.2665  ,5
112  ,4.614e+09   ,1.936  ,2.4  ,5
113  ,2.767e+09   ,1.7389  ,2.4  ,5
114  ,2.120e+09   ,1.5418  ,2.4  ,5
115  ,1.455e+09   ,1.3447  ,2.4  ,5
116  ,1.074e+09   ,1.1476  ,2.4  ,5
117  ,9.829e+08   ,0.95055  ,2.4  ,5
118  ,9.582e+08   ,0.75346  ,2.4  ,5
119  ,8.219e+08   ,0.55637  ,2.4  ,5
120  ,7.552e+08   ,0.35927  ,2.4  ,5
121  ,7.032e+08   ,0.16218  ,2.4  ,5
122  ,6.653e+08   ,-0.034907  ,2.4  ,5
123  ,7.033e+08   ,-0.232  ,2.4  ,5
124  ,5.273e+08   ,-0.42909  ,2.4  ,5
125  ,4.923e+08   ,-0.62618  ,2.4  ,5
126  ,5.474e+08   ,-0.82327  ,2.4  ,5
127  ,5.412e+08   ,-1.0204  ,2.4  ,5
128  ,4.732e+08   ,-1.2175  ,2.4  ,5
129  ,3.750e+08   ,-1.4145  ,2.4  ,5
130  ,2.519e+08   ,-1.6116  ,2.4  ,5
131  ,1.730e+08   ,-1.8087  ,2.4  ,5
132  ,1.204e+08   ,-2.0058  ,2.4  ,5
133  ,7.100e+07   ,-2.2029  ,2.4  ,5
294  ,3.146e+08   ,2.5  ,-2.2029  ,4.9
295  ,3.538e+08   ,2.5  ,-2.0058  ,4.9
296  ,2.680e+08   ,2.5  ,-1.8087  ,4.9
297  ,2.828e+08   ,2.5  ,-1.6116  ,4.9
298  ,2.589e+08   ,2.5  ,-1.4145  ,4.9
299  ,2.762e+08   ,2.5  ,-1.2175  ,4.9
300  ,3.263e+08   ,2.5  ,-1.0204  ,4.9
301  ,3.857e+08   ,2.5  ,-0.82327  ,4.9
302  ,4.372e+08   ,2.5  ,-0.62618  ,4.9
303  ,4.558e+08   ,2.5  ,-0.42909  ,4.9
304  ,5.014e+08   ,2.5  ,-0.232  ,4.9
305  ,5.445e+08   ,2.5  ,-0.034907  ,4.9
306  ,6.028e+08   ,2.5  ,0.16218  ,4.9
307  ,6.284e+08   ,2.5  ,0.35927  ,4.9
308  ,7.029e+08   ,2.5  ,0.55637  ,4.9
309  ,8.505e+08   ,2.5  ,0.75346  ,4.9
310  ,8.292e+08   ,2.5  ,0.95055  ,4.9
311  ,1.089e+09   ,2.5  ,1.1476  ,4.9
312  ,1.431e+09   ,2.5  ,1.3447  ,4.9
313  ,2.103e+09   ,2.5  ,1.5418  ,4.9
314  ,3.291e+09   ,2.5  ,1.7389  ,4.9
315  ,4.860e+09   ,2.5  ,1.936  ,4.9
316  ,4.900e+08   ,2.5  ,-2.4  ,4.7
317  ,4.165e+08   ,2.5  ,-2.4  ,4.5
318  ,6.886e+08   ,2.5  ,-2.4  ,4.3
319  ,8.465e+08   ,2.5  ,-2.4  ,4.1
320  ,7.288e+08   ,2.5  ,-2.4  ,3.9
321  ,5.949e+08   ,2.5  ,-2.4  ,3.7
322  ,4.698e+08   ,2.5  ,-2.4  ,3.5
323  ,3.773e+08   ,2.5  ,-2.4  ,3.3
324  ,2.852e+08   ,2.5  ,-2.4  ,3.1
325  ,3.282e+08   ,2.5  ,-2.4  ,2.9
326  ,3.427e+08   ,2.5  ,-2.4  ,2.7
327  ,3.428e+08   ,2.5  ,-2.4  ,2.5
328  ,3.171e+08   ,2.5  ,-2.4  ,2.3
329  ,3.253e+08   ,2.5  ,-2.4  ,2.1
330  ,2.053e+08   ,2.5  ,-2.4  ,1.9
331  ,1.200e+08   ,2.5  ,-2.4  ,1.7
332  ,8.961e+07   ,2.5  ,-2.4  ,1.5
333  ,9.336e+07   ,2.5  ,-2.4  ,1.3
334  ,4.408e+07   ,2.5  ,-2.4  ,1.1
335  ,6.811e+07   ,2.5  ,-2.4  ,0.9
336  ,1.360e+08   ,2.5  ,-2.4  ,0.7
337  ,1.909e+08   ,2.5  ,-2.4  ,0.5
338  ,3.343e+08   ,2.5  ,-2.4  ,0.3
339  ,1.651e+08   ,2.5  ,-2.2  ,0.1
340  ,1.689e+08   ,2.5  ,-2  ,0.1
341  ,1.138e+08   ,2.5  ,-1.8  ,0.1
342  ,1.299e+08   ,2.5  ,-1.6  ,0.1
343  ,1.234e+08   ,2.5  ,-1.4  ,0.1
344  ,1.604e+08   ,2.5  ,-1.2  ,0.1
345  ,1.733e+08   ,2.5  ,-1  ,0.1
346  ,1.529e+08   ,2.5  ,-0.8  ,0.1
347  ,1.847e+08   ,2.5  ,-0.6  ,0.1
348  ,1.683e+08   ,2.5  ,-0.4  ,0.1
349  ,2.121e+08   ,2.5  ,-0.2  ,0.1
350  ,2.524e+08   ,2.5  ,-1.7664E-15  ,0.1
351  ,2.901e+08   ,2.5  ,0.2  ,0.1
352  ,3.422e+08   ,2.5  ,0.4  ,0.1
353  ,3.388e+08   ,2.5  ,0.6  ,0.1
354  ,3.748e+08   ,2.5  ,0.8  ,0.1
355  ,2.766e+08   ,2.5  ,1  ,0.1
356  ,2.522e+08   ,2.5  ,1.2  ,0.1
357  ,2.472e+08   ,2.5  ,1.4  ,0.1
358  ,2.363e+08   ,2.5  ,1.6  ,0.1
359  ,2.231e+08   ,2.5  ,1.8  ,0.1
360  ,1.865e+08   ,2.5  ,2  ,0.1
361  ,9.292e+07   ,2.5  ,2.2  ,0.1
362  ,4.545e+09   ,2.5  ,2.4  ,4.436
363  ,3.125e+09   ,2.5  ,2.4  ,4.2389
364  ,2.013e+09   ,2.5  ,2.4  ,4.0418
365  ,1.542e+09   ,2.5  ,2.4  ,3.8447
366  ,1.015e+09   ,2.5  ,2.4  ,3.6476
367  ,9.128e+08   ,2.5  ,2.4  ,3.4505
368  ,8.784e+08   ,2.5  ,2.4  ,3.2535
369  ,7.941e+08   ,2.5  ,2.4  ,3.0564
370  ,7.458e+08   ,2.5  ,2.4  ,2.8593
371  ,7.270e+08   ,2.5  ,2.4  ,2.6622
372  ,7.632e+08   ,2.5  ,2.4  ,2.4651
373  ,6.404e+08   ,2.5  ,2.4  ,2.268
374  ,6.377e+08   ,2.5  ,2.4  ,2.0709
375  ,5.419e+08   ,2.5  ,2.4  ,1.8738
376  ,4.981e+08   ,2.5  ,2.4  ,1.6767
377  ,3.424e+08   ,2.5  ,2.4  ,1.4796
378  ,3.522e+08   ,2.5  ,2.4  ,1.2825
379  ,3.054e+08   ,2.5  ,2.4  ,1.0855
380  ,2.920e+08   ,2.5  ,2.4  ,0.88836
381  ,2.215e+08   ,2.5  ,2.4  ,0.69127
382  ,1.356e+08   ,2.5  ,2.4  ,0.49418
383  ,8.229e+07   ,2.5  ,2.4  ,0.29709
384  ,6.096e+09   ,2.5  ,2.2665  ,4.7665
544  ,1.228e+08   ,2.2  ,2.5  ,0.1
545  ,1.740e+08   ,2  ,2.5  ,0.1
546  ,1.956e+08   ,1.8  ,2.5  ,0.1
547  ,2.072e+08   ,1.6  ,2.5  ,0.1
548  ,2.158e+08   ,1.4  ,2.5  ,0.1
549  ,2.547e+08   ,1.2  ,2.5  ,0.1
550  ,2.816e+08   ,1  ,2.5  ,0.1
551  ,4.064e+08   ,0.8  ,2.5  ,0.1
552  ,3.887e+08   ,0.6  ,2.5  ,0.1
553  ,3.661e+08   ,0.4  ,2.5  ,0.1
554  ,3.844e+08   ,0.2  ,2.5  ,0.1
555  ,3.673e+08   ,5.8879E-16  ,2.5  ,0.1
556  ,3.064e+08   ,-0.2  ,2.5  ,0.1
557  ,2.936e+08   ,-0.4  ,2.5  ,0.1
558  ,2.709e+08   ,-0.6  ,2.5  ,0.1
559  ,2.229e+08   ,-0.8  ,2.5  ,0.1
560  ,2.662e+08   ,-1  ,2.5  ,0.1
561  ,2.615e+08   ,-1.2  ,2.5  ,0.1
562  ,2.159e+08   ,-1.4  ,2.5  ,0.1
563  ,1.868e+08   ,-1.6  ,2.5  ,0.1
564  ,1.671e+08   ,-1.8  ,2.5  ,0.1
565  ,1.616e+08   ,-2  ,2.5  ,0.1
566  ,2.316e+08   ,-2.2  ,2.5  ,0.1
567  ,1.181e+08   ,-2.4  ,2.5  ,4.7
568  ,1.763e+08   ,-2.4  ,2.5  ,4.5
569  ,1.922e+08   ,-2.4  ,2.5  ,4.3
570  ,1.978e+08   ,-2.4  ,2.5  ,4.1
571  ,1.985e+08   ,-2.4  ,2.5  ,3.9
572  ,2.068e+08   ,-2.4  ,2.5  ,3.7
573  ,2.449e+08   ,-2.4  ,2.5  ,3.5
574  ,4.413e+08   ,-2.4  ,2.5  ,3.3
575  ,3.886e+08   ,-2.4  ,2.5  ,3.1
576  ,3.419e+08   ,-2.4  ,2.5  ,2.9
577  ,2.893e+08   ,-2.4  ,2.5  ,2.7
578  ,3.042e+08   ,-2.4  ,2.5  ,2.5
579  ,3.013e+08   ,-2.4  ,2.5  ,2.3
580  ,3.075e+08   ,-2.4  ,2.5  ,2.1
581  ,2.537e+08   ,-2.4  ,2.5  ,1.9
582  ,1.975e+08   ,-2.4  ,2.5  ,1.7
583  ,2.492e+08   ,-2.4  ,2.5  ,1.5
584  ,2.260e+08   ,-2.4  ,2.5  ,1.3
585  ,2.140e+08   ,-2.4  ,2.5  ,1.1
586  ,1.916e+08   ,-2.4  ,2.5  ,0.9
587  ,1.818e+08   ,-2.4  ,2.5  ,0.7
588  ,1.966e+08   ,-2.4  ,2.5  ,0.5
589  ,2.265e+08   ,-2.4  ,2.5  ,0.3
590  ,4.960e+09   ,1.936  ,2.5  ,4.9
591  ,2.594e+09   ,1.7389  ,2.5  ,4.9
592  ,1.952e+09   ,1.5418  ,2.5  ,4.9
593  ,1.534e+09   ,1.3447  ,2.5  ,4.9
594  ,9.918e+08   ,1.1476  ,2.5  ,4.9
595  ,9.735e+08   ,0.95055  ,2.5  ,4.9
596  ,9.518e+08   ,0.75346  ,2.5  ,4.9
597  ,8.220e+08   ,0.55637  ,2.5  ,4.9
598  ,7.813e+08   ,0.35927  ,2.5  ,4.9
599  ,6.612e+08   ,0.16218  ,2.5  ,4.9
600  ,6.132e+08   ,-0.034907  ,2.5  ,4.9
601  ,5.540e+08   ,-0.232  ,2.5  ,4.9
602  ,6.193e+08   ,-0.42909  ,2.5  ,4.9
603  ,6.248e+08   ,-0.62618  ,2.5  ,4.9
604  ,5.572e+08   ,-0.82327  ,2.5  ,4.9
605  ,5.718e+08   ,-1.0204  ,2.5  ,4.9
606  ,5.414e+08   ,-1.2175  ,2.5  ,4.9
607  ,4.149e+08   ,-1.4145  ,2.5  ,4.9
608  ,3.048e+08   ,-1.6116  ,2.5  ,4.9
609  ,1.882e+08   ,-1.8087  ,2.5  ,4.9
610  ,1.043e+08   ,-2.0058  ,2.5  ,4.9
611  ,8.462e+07   ,-2.2029  ,2.5  ,4.9
612  ,6.229e+09   ,2.2665  ,2.5  ,4.7665
613  ,4.354e+09   ,2.4  ,2.5  ,4.436
614  ,2.771e+09   ,2.4  ,2.5  ,4.2389
615  ,1.980e+09   ,2.4  ,2.5  ,4.0418
616  ,1.450e+09   ,2.4  ,2.5  ,3.8447
617  ,1.083e+09   ,2.4  ,2.5  ,3.6476
618  ,8.606e+08   ,2.4  ,2.5  ,3.4505
619  ,8.508e+08   ,2.4  ,2.5  ,3.2535
620  ,7.594e+08   ,2.4  ,2.5  ,3.0564
621  ,7.888e+08   ,2.4  ,2.5  ,2.8593
622  ,7.451e+08   ,2.4  ,2.5  ,2.6622
623  ,6.952e+08   ,2.4  ,2.5  ,2.4651
624  ,6.418e+08   ,2.4  ,2.5  ,2.268
625  ,5.798e+08   ,2.4  ,2.5  ,2.0709
626  ,5.138e+08   ,2.4  ,2.5  ,1.8738
627  ,4.706e+08   ,2.4  ,2.5  ,1.6767
628  ,4.972e+08   ,2.4  ,2.5  ,1.4796
629  ,4.732e+08   ,2.4  ,2.5  ,1.2825
630  ,3.283e+08   ,2.4  ,2.5  ,1.0855
631  ,2.393e+08   ,2.4  ,2.5  ,0.88836
632  ,1.631e+08   ,2.4  ,2.5  ,0.69127
633  ,1.229e+08   ,2.4  ,2.5  ,0.49418
634  ,8.279e+07   ,2.4  ,2.5  ,0.29709
796  ,8.822e+07   ,-2.5  ,2.2  ,0.1
797  ,1.768e+08   ,-2.5  ,2  ,0.1
798  ,2.426e+08   ,-2.5  ,1.8  ,0.1
799  ,2.915e+08   ,-2.5  ,1.6  ,0.1
800  ,3.254e+08   ,-2.5  ,1.4  ,0.1
801  ,3.249e+08   ,-2.5  ,1.2  ,0.1
802  ,3.207e+08   ,-2.5  ,1  ,0.1
803  ,2.819e+08   ,-2.5  ,0.8  ,0.1
804  ,2.668e+08   ,-2.5  ,0.6  ,0.1
805  ,2.463e+08   ,-2.5  ,0.4  ,0.1
806  ,1.965e+08   ,-2.5  ,0.2  ,0.1
807  ,1.713e+08   ,-2.5  ,5.8879E-16  ,0.1
808  ,1.617e+08   ,-2.5  ,-0.2  ,0.1
809  ,1.524e+08   ,-2.5  ,-0.4  ,0.1
810  ,1.298e+08   ,-2.5  ,-0.6  ,0.1
811  ,1.260e+08   ,-2.5  ,-0.8  ,0.1
812  ,1.287e+08   ,-2.5  ,-1  ,0.1
813  ,1.223e+08   ,-2.5  ,-1.2  ,0.1
814  ,1.086e+08   ,-2.5  ,-1.4  ,0.1
815  ,8.251e+07   ,-2.5  ,-1.6  ,0.1
816  ,6.048e+07   ,-2.5  ,-1.8  ,0.1
817  ,6.047e+07   ,-2.5  ,-2  ,0.1
818  ,5.321e+07   ,-2.5  ,-2.2  ,0.1
819  ,2.355e+08   ,-2.5  ,-2.4  ,4.7
820  ,3.447e+08   ,-2.5  ,-2.4  ,4.5
821  ,4.509e+08   ,-2.5  ,-2.4  ,4.3
822  ,5.441e+08   ,-2.5  ,-2.4  ,4.1
823  ,4.937e+08   ,-2.5  ,-2.4  ,3.9
824  ,4.234e+08   ,-2.5  ,-2.4  ,3.7
825  ,3.447e+08   ,-2.5  ,-2.4  ,3.5
826  ,2.049e+08   ,-2.5  ,-2.4  ,3.3
827  ,8.423e+07   ,-2.5  ,-2.4  ,3.1
828  ,2.029e+07   ,-2.5  ,-2.4  ,2.9
829  ,1.274e+08   ,-2.5  ,-2.4  ,2.7
830  ,2.593e+08   ,-2.5  ,-2.4  ,2.5
831  ,2.616e+08   ,-2.5  ,-2.4  ,2.3
832  ,2.050e+08   ,-2.5  ,-2.4  ,2.1
833  ,1.440e+08   ,-2.5  ,-2.4  ,1.9
834  ,1.661e+08   ,-2.5  ,-2.4  ,1.7
835  ,1.634e+08   ,-2.5  ,-2.4  ,1.5
836  ,1.297e+08   ,-2.5  ,-2.4  ,1.3
837  ,1.202e+08   ,-2.5  ,-2.4  ,1.1
838  ,1.066e+08   ,-2.5  ,-2.4  ,0.9
839  ,8.496e+07   ,-2.5  ,-2.4  ,0.7
840  ,6.689e+07   ,-2.5  ,-2.4  ,0.5
841  ,2.289e+07   ,-2.5  ,-2.4  ,0.3
842  ,1.723e+08   ,-2.5  ,2.2  ,4.9
843  ,2.338e+08   ,-2.5  ,2  ,4.9
844  ,2.466e+08   ,-2.5  ,1.8  ,4.9
845  ,2.714e+08   ,-2.5  ,1.6  ,4.9
846  ,2.700e+08   ,-2.5  ,1.4  ,4.9
847  ,2.714e+08   ,-2.5  ,1.2  ,4.9
848  ,2.991e+08   ,-2.5  ,1  ,4.9
849  ,3.877e+08   ,-2.5  ,0.8  ,4.9
850  ,2.778e+08   ,-2.5  ,0.6  ,4.9
851  ,2.579e+08   ,-2.5  ,0.4  ,4.9
852  ,2.652e+08   ,-2.5  ,0.2  ,4.9
853  ,2.588e+08   ,-2.5  ,5.8879E-16  ,4.9
854  ,1.841e+08   ,-2.5  ,-0.2  ,4.9
855  ,1.602e+08   ,-2.5  ,-0.4  ,4.9
856  ,1.734e+08   ,-2.5  ,-0.6  ,4.9
857  ,1.783e+08   ,-2.5  ,-0.8  ,4.9
858  ,1.778e+08   ,-2.5  ,-1  ,4.9
859  ,1.438e+08   ,-2.5  ,-1.2  ,4.9
860  ,1.430e+08   ,-2.5  ,-1.4  ,4.9
861  ,1.531e+08   ,-2.5  ,-1.6  ,4.9
862  ,1.554e+08   ,-2.5  ,-1.8  ,4.9
863  ,1.500e+08   ,-2.5  ,-2  ,4.9
864  ,1.642e+08   ,-2.5  ,-2.2  ,4.9
865  ,1.593e+08   ,-2.5  ,2.4  ,4.7
866  ,2.179e+08   ,-2.5  ,2.4  ,4.5
867  ,2.505e+08   ,-2.5  ,2.4  ,4.3
868  ,2.300e+08   ,-2.5  ,2.4  ,4.1
869  ,2.684e+08   ,-2.5  ,2.4  ,3.9
870  ,2.743e+08   ,-2.5  ,2.4  ,3.7
871  ,3.144e+08   ,-2.5  ,2.4  ,3.5
872  ,4.050e+08   ,-2.5  ,2.4  ,3.3
873  ,3.693e+08   ,-2.5  ,2.4  ,3.1
874  ,3.210e+08   ,-2.5  ,2.4  ,2.9
875  ,2.841e+08   ,-2.5  ,2.4  ,2.7
876  ,2.894e+08   ,-2.5  ,2.4  ,2.5
877  ,2.502e+08   ,-2.5  ,2.4  ,2.3
878  ,2.299e+08   ,-2.5  ,2.4  ,2.1
879  ,1.970e+08   ,-2.5  ,2.4  ,1.9
880  ,1.968e+08   ,-2.5  ,2.4  ,1.7
881  ,1.873e+08   ,-2.5  ,2.4  ,1.5
882  ,1.935e+08   ,-2.5  ,2.4  ,1.3
883  ,1.898e+08   ,-2.5  ,2.4  ,1.1
884  ,1.853e+08   ,-2.5  ,2.4  ,0.9
885  ,1.703e+08   ,-2.5  ,2.4  ,0.7
886  ,1.698e+08   ,-2.5  ,2.4  ,0.5
887  ,1.442e+08   ,-2.5  ,2.4  ,0.3
1044  ,4.999e+07   ,-2.3  ,-2.5  ,0.44697
1045  ,6.708e+07   ,-2.3  ,-2.5  ,0.68705
1046  ,8.838e+07   ,-2.3  ,-2.5  ,0.92554
1047  ,5.693e+07   ,-2.3  ,-2.5  ,1.1682
1048  ,7.218e+07   ,-2.3  ,-2.5  ,1.4148
1049  ,1.666e+08   ,-2.3  ,-2.5  ,1.6581
1050  ,2.157e+08   ,-2.3  ,-2.5  ,1.8967
1051  ,1.917e+08   ,-2.3  ,-2.5  ,2.1357
1052  ,1.473e+08   ,-2.3  ,-2.5  ,2.3794
1053  ,2.292e+08   ,-2.3  ,-2.5  ,2.6206
1054  ,3.287e+08   ,-2.3  ,-2.5  ,2.8643
1055  ,2.477e+08   ,-2.3  ,-2.5  ,3.1033
1056  ,1.057e+08   ,-2.3  ,-2.5  ,3.342
1057  ,7.577e+07   ,-2.3  ,-2.5  ,3.5852
1058  ,1.542e+08   ,-2.3  ,-2.5  ,3.8318
1059  ,1.729e+08   ,-2.3  ,-2.5  ,4.0745
1060  ,1.394e+08   ,-2.3  ,-2.5  ,4.3129
1061  ,1.499e+08   ,-2.3  ,-2.5  ,4.553
1062  ,5.462e+08   ,-2.053  ,-2.5  ,4.8
1063  ,3.322e+08   ,-1.8129  ,-2.5  ,4.8
1064  ,1.703e+08   ,-1.5745  ,-2.5  ,4.8
1065  ,4.915e+07   ,-1.3318  ,-2.5  ,4.8
1066  ,1.764e+08   ,-1.0852  ,-2.5  ,4.8
1067  ,2.270e+08   ,-0.84195  ,-2.5  ,4.8
1068  ,2.274e+08   ,-0.60329  ,-2.5  ,4.8
1069  ,1.802e+08   ,-0.3643  ,-2.5  ,4.8
1070  ,1.255e+08   ,-0.12055  ,-2.5  ,4.8
1071  ,2.219e+08   ,0.12056  ,-2.5  ,4.8
1072  ,4.973e+08   ,0.3643  ,-2.5  ,4.8
1073  ,6.172e+08   ,0.6033  ,-2.5  ,4.8
1074  ,5.191e+08   ,0.84195  ,-2.5  ,4.8
1075  ,4.063e+08   ,1.0852  ,-2.5  ,4.8
1076  ,2.540e+08   ,1.3318  ,-2.5  ,4.8
1077  ,1.180e+08   ,1.5745  ,-2.5  ,4.8
1078  ,1.884e+08   ,1.8129  ,-2.5  ,4.8
1079  ,5.773e+08   ,2.053  ,-2.5  ,4.8
1080  ,6.190e+08   ,2.3  ,-2.5  ,4.553
1081  ,1.977e+08   ,2.3  ,-2.5  ,4.3129
1082  ,1.535e+08   ,2.3  ,-2.5  ,4.0745
1083  ,3.138e+08   ,2.3  ,-2.5  ,3.8318
1084  ,4.235e+08   ,2.3  ,-2.5  ,3.5852
1085  ,4.900e+08   ,2.3  ,-2.5  ,3.3419
1086  ,5.623e+08   ,2.3  ,-2.5  ,3.1033
1087  ,4.391e+08   ,2.3  ,-2.5  ,2.8643
1088  ,1.913e+08   ,2.3  ,-2.5  ,2.6206
1089  ,8.307e+07   ,2.3  ,-2.5  ,2.3794
1090  ,1.750e+08   ,2.3  ,-2.5  ,2.1357
1091  ,2.359e+08   ,2.3  ,-2.5  ,1.8967
1092  ,2.660e+08   ,2.3  ,-2.5  ,1.658
1093  ,1.957e+08   ,2.3  ,-2.5  ,1.4148
1094  ,4.185e+07   ,2.3  ,-2.5  ,1.1682
1095  ,1.668e+08   ,2.3  ,-2.5  ,0.92554
1096  ,3.260e+08   ,2.3  ,-2.5  ,0.68705
1097  ,5.274e+08   ,2.3  ,-2.5  ,0.44697
1098  ,4.886e+07   ,-2.053  ,-2.5  ,0.2
1099  ,6.105e+07   ,-1.8129  ,-2.5  ,0.2
1100  ,6.095e+07   ,-1.5745  ,-2.5  ,0.2
1101  ,6.792e+07   ,-1.3318  ,-2.5  ,0.2
1102  ,1.092e+08   ,-1.0852  ,-2.5  ,0.2
1103  ,1.572e+08   ,-0.84195  ,-2.5  ,0.2
1104  ,1.967e+08   ,-0.60329  ,-2.5  ,0.2
1105  ,1.925e+08   ,-0.3643  ,-2.5  ,0.2
1106  ,1.338e+08   ,-0.12055  ,-2.5  ,0.2
1107  ,2.124e+08   ,0.12056  ,-2.5  ,0.2
1108  ,3.161e+08   ,0.3643  ,-2.5  ,0.2
1109  ,2.444e+08   ,0.6033  ,-2.5  ,0.2
1110  ,1.378e+08   ,0.84195  ,-2.5  ,0.2
1111  ,8.436e+07   ,1.0852  ,-2.5  ,0.2
1112  ,1.917e+08   ,1.3318  ,-2.5  ,0.2
1113  ,1.959e+08   ,1.5745  ,-2.5  ,0.2
1114  ,1.277e+08   ,1.8129  ,-2.5  ,0.2
1115  ,1.561e+08   ,2.053  ,-2.5  ,0.2
1116  ,2.404e+08   ,-2.2  ,-2.5  ,4.9
1117  ,2.252e+08   ,-2  ,-2.5  ,4.9
1118  ,1.809e+08   ,-1.8  ,-2.5  ,4.9
1119  ,7.597e+07   ,-1.6  ,-2.5  ,4.9
1120  ,2.928e+07   ,-1.4  ,-2.5  ,4.9
1121  ,5.823e+07   ,-1.2  ,-2.5  ,4.9
1122  ,1.242e+08   ,-1  ,-2.5  ,4.9
1123  ,1.734e+08   ,-0.8  ,-2.5  ,4.9
1124  ,2.346e+08   ,-0.6  ,-2.5  ,4.9
1125  ,2.691e+08   ,-0.4  ,-2.5  ,4.9
1126  ,2.581e+08   ,-0.2  ,-2.5  ,4.9
1127  ,2.799e+08   ,-1.7664E-15  ,-2.5  ,4.9
1128  ,3.717e+08   ,0.2  ,-2.5  ,4.9
1129  ,4.548e+08   ,0.4  ,-2.5  ,4.9
1130  ,4.845e+08   ,0.6  ,-2.5  ,4.9
1131  ,4.978e+08   ,0.8  ,-2.5  ,4.9
1132  ,4.975e+08   ,1  ,-2.5  ,4.9
1133  ,5.104e+08   ,1.2  ,-2.5  ,4.9
1134  ,4.785e+08   ,1.4  ,-2.5  ,4.9
1135  ,4.607e+08   ,1.6  ,-2.5  ,4.9
1136  ,4.760e+08   ,1.8  ,-2.5  ,4.9
1137  ,4.415e+08   ,2  ,-2.5  ,4.9
1138  ,3.073e+08   ,2.2  ,-2.5  ,4.9
1139  ,3.606e+08   ,-2.4  ,-2.5  ,4.7
1140  ,3.053e+08   ,-2.4  ,-2.5  ,4.5
1141  ,2.441e+08   ,-2.4  ,-2.5  ,4.3
1142  ,1.863e+08   ,-2.4  ,-2.5  ,4.1
1143  ,1.972e+08   ,-2.4  ,-2.5  ,3.9
1144  ,2.239e+08   ,-2.4  ,-2.5  ,3.7
1145  ,1.894e+08   ,-2.4  ,-2.5  ,3.5
1146  ,1.955e+08   ,-2.4  ,-2.5  ,3.3
1147  ,1.777e+08   ,-2.4  ,-2.5  ,3.1
1148  ,1.357e+08   ,-2.4  ,-2.5  ,2.9
1149  ,2.112e+08   ,-2.4  ,-2.5  ,2.7
1150  ,2.570e+08   ,-2.4  ,-2.5  ,2.5
1151  ,2.496e+08   ,-2.4  ,-2.5  ,2.3
1152  ,2.155e+08   ,-2.4  ,-2.5  ,2.1
1153  ,1.634e+08   ,-2.4  ,-2.5  ,1.9
1154  ,1.648e+08   ,-2.4  ,-2.5  ,1.7
1155  ,1.333e+08   ,-2.4  ,-2.5  ,1.5
1156  ,1.020e+08   ,-2.4  ,-2.5  ,1.3
1157  ,9.568e+07   ,-2.4  ,-2.5  ,1.1
1158  ,8.813e+07   ,-2.4  ,-2.5  ,0.9
1159  ,6.366e+07   ,-2.4  ,-2.5  ,0.7
1160  ,5.650e+07   ,-2.4  ,-2.5  ,0.5
1161  ,2.718e+07   ,-2.4  ,-2.5  ,0.3
1162  ,4.478e+07   ,-2.2  ,-2.5  ,0.1
1163  ,6.992e+07   ,-2  ,-2.5  ,0.1
1164  ,8.773e+07   ,-1.8  ,-2.5  ,0.1
1165  ,8.154e+07   ,-1.6  ,-2.5  ,0.1
1166  ,8.195e+07   ,-1.4  ,-2.5  ,0.1
1167  ,1.017e+08   ,-1.2  ,-2.5  ,0.1
1168  ,1.208e+08   ,-1  ,-2.5  ,0.1
1169  ,1.472e+08   ,-0.8  ,-2.5  ,0.1
1170  ,1.582e+08   ,-0.6  ,-2.5  ,0.1
1171  ,1.961e+08   ,-0.4  ,-2.5  ,0.1
1172  ,2.283e+08   ,-0.2  ,-2.5  ,0.1
1173  ,2.537e+08   ,-1.7664E-15  ,-2.5  ,0.1
1174  ,2.039e+08   ,0.2  ,-2.5  ,0.1
1175  ,1.279e+08   ,0.4  ,-2.5  ,0.1
1176  ,1.579e+08   ,0.6  ,-2.5  ,0.1
1177  ,1.959e+08   ,0.8  ,-2.5  ,0.1
1178  ,2.195e+08   ,1  ,-2.5  ,0.1
1179  ,2.330e+08   ,1.2  ,-2.5  ,0.1
1180  ,1.883e+08   ,1.4  ,-2.5  ,0.1
1181  ,2.159e+08   ,1.6  ,-2.5  ,0.1
1182  ,2.459e+08   ,1.8  ,-2.5  ,0.1
1183  ,2.388e+08   ,2  ,-2.5  ,0.1
1184  ,2.799e+08   ,2.2  ,-2.5  ,0.1
1185  ,4.157e+08   ,2.4  ,-2.5  ,4.7
1186  ,4.868e+08   ,2.4  ,-2.5  ,4.5
1187  ,5.274e+08   ,2.4  ,-2.5  ,4.3
1188  ,4.933e+08   ,2.4  ,-2.5  ,4.1
1189  ,5.516e+08   ,2.4  ,-2.5  ,3.9
1190  ,5.039e+08   ,2.4  ,-2.5  ,3.7
1191  ,4.789e+08   ,2.4  ,-2.5  ,3.5
1192  ,4.719e+08   ,2.4  ,-2.5  ,3.3
1193  ,4.377e+08   ,2.4  ,-2.5  ,3.1
1194  ,3.919e+08   ,2.4  ,-2.5  ,2.9
1195  ,3.108e+08   ,2.4  ,-2.5  ,2.7
1196  ,2.271e+08   ,2.4  ,-2.5  ,2.5
1197  ,2.202e+08   ,2.4  ,-2.5  ,2.3
1198  ,2.581e+08   ,2.4  ,-2.5  ,2.1
1199  ,2.407e+08   ,2.4  ,-2.5  ,1.9
1200  ,1.864e+08   ,2.4  ,-2.5  ,1.7
1201  ,1.111e+08   ,2.4  ,-2.5  ,1.5
1202  ,3.414e+07   ,2.4  ,-2.5  ,1.3
1203  ,4.410e+07   ,2.4  ,-2.5  ,1.1
1204  ,8.153e+07   ,2.4  ,-2.5  ,0.9
1205  ,1.871e+08   ,2.4  ,-2.5  ,0.7
1206  ,2.381e+08   ,2.4  ,-2.5  ,0.5
1207  ,2.599e+08   ,2.4  ,-2.5  ,0.3
1208  ,1.612e+08   ,2.4  ,-2.2  ,0
1209  ,1.485e+08   ,2.4  ,-2  ,0
1210  ,1.378e+08   ,2.4  ,-1.8  ,0
1211  ,1.285e+08   ,2.4  ,-1.6  ,0
1212  ,1.435e+08   ,2.4  ,-1.4  ,0
1213  ,1.429e+08   ,2.4  ,-1.2  ,0
1214  ,1.759e+08   ,2.4  ,-1  ,0
1215  ,2.009e+08   ,2.4  ,-0.8  ,0
1216  ,1.731e+08   ,2.4  ,-0.6  ,0
1217  ,1.428e+08   ,2.4  ,-0.4  ,0
1218  ,1.677e+08   ,2.4  ,-0.2  ,0
1219  ,2.241e+08   ,2.4  ,-1.7664E-15  ,0
1220  ,2.810e+08   ,2.4  ,0.2  ,0
1221  ,2.652e+08   ,2.4  ,0.4  ,0
1222  ,2.702e+08   ,2.4  ,0.6  ,0
1223  ,3.569e+08   ,2.4  ,0.8  ,0
1224  ,3.010e+08   ,2.4  ,1  ,0
1225  ,2.815e+08   ,2.4  ,1.2  ,0
1226  ,2.745e+08   ,2.4  ,1.4  ,0
1227  ,2.383e+08   ,2.4  ,1.6  ,0
1228  ,2.306e+08   ,2.4  ,1.8  ,0
1229  ,2.133e+08   ,2.4  ,2  ,0
1230  ,1.659e+08   ,2.4  ,2.2  ,0
1231  ,2.403e+07   ,-2.2  ,-2.4  ,0
1232  ,7.236e+07   ,-2  ,-2.4  ,0
1233  ,1.140e+08   ,-1.8  ,-2.4  ,0
1234  ,1.045e+08   ,-1.6  ,-2.4  ,0
1235  ,9.621e+07   ,-1.4  ,-2.4  ,0
1236  ,1.126e+08   ,-1.2  ,-2.4  ,0
1237  ,1.342e+08   ,-1  ,-2.4  ,0
1238  ,1.362e+08   ,-0.8  ,-2.4  ,0
1239  ,1.216e+08   ,-0.6  ,-2.4  ,0
1240  ,1.811e+08   ,-0.4  ,-2.4  ,0
1241  ,2.515e+08   ,-0.2  ,-2.4  ,0
1242  ,2.435e+08   ,5.8879E-16  ,-2.4  ,0
1243  ,9.568e+07   ,0.2  ,-2.4  ,0
1244  ,2.778e+07   ,0.4  ,-2.4  ,0
1245  ,9.036e+07   ,0.6  ,-2.4  ,0
1246  ,1.951e+08   ,0.8  ,-2.4  ,0
1247  ,3.383e+08   ,1  ,-2.4  ,0
1248  ,4.837e+08   ,1.2  ,-2.4  ,0
1249  ,5.323e+08   ,1.4  ,-2.4  ,0
1250  ,5.097e+08   ,1.6  ,-2.4  ,0
1251  ,4.067e+08   ,1.8  ,-2.4  ,0
1252  ,3.379e+08   ,2  ,-2.4  ,0
1253  ,2.319e+08   ,2.2  ,-2.4  ,0
1254  ,1.001e+08   ,-2.4  ,2.2  ,0
1255  ,1.803e+08   ,-2.4  ,2  ,0
1256  ,2.492e+08   ,-2.4  ,1.8  ,0
1257  ,2.803e+08   ,-2.4  ,1.6  ,0
1258  ,3.183e+08   ,-2.4  ,1.4  ,0
1259  ,3.283e+08   ,-2.4  ,1.2  ,0
1260  ,3.098e+08   ,-2.4  ,1  ,0
1261  ,2.754e+08   ,-2.4  ,0.8  ,0
1262  ,2.572e+08   ,-2.4  ,0.6  ,0
1263  ,2.328e+08   ,-2.4  ,0.4  ,0
1264  ,2.048e+08   ,-2.4  ,0.2  ,0
1265  ,1.849e+08   ,-2.4  ,5.8879E-16  ,0
1266  ,1.593e+08   ,-2.4  ,-0.2  ,0
1267  ,1.552e+08   ,-2.4  ,-0.4  ,0
1268  ,1.336e+08   ,-2.4  ,-0.6  ,0
1269  ,1.321e+08   ,-2.4  ,-0.8  ,0
1270  ,1.360e+08   ,-2.4  ,-1  ,0
1271  ,1.219e+08   ,-2.4  ,-1.2  ,0
1272  ,9.620e+07   ,-2.4  ,-1.4  ,0
1273  ,7.029e+07   ,-2.4  ,-1.6  ,0
1274  ,6.542e+07   ,-2.4  ,-1.8  ,0
1275  ,6.916e+07   ,-2.4  ,-2  ,0
1276  ,6.532e+07   ,-2.4  ,-2.2  ,0
1277  ,1.491e+08   ,2.2  ,2.4  ,0
1278  ,1.953e+08   ,2  ,2.4  ,0
1279  ,2.288e+08   ,1.8  ,2.4  ,0
1280  ,2.299e+08   ,1.6  ,2.4  ,0
1281  ,2.459e+08   ,1.4  ,2.4  ,0
1282  ,3.043e+08   ,1.2  ,2.4  ,0
1283  ,3.476e+08   ,1  ,2.4  ,0
1284  ,3.847e+08   ,0.8  ,2.4  ,0
1285  ,3.476e+08   ,0.6  ,2.4  ,0
1286  ,2.841e+08   ,0.4  ,2.4  ,0
1287  ,2.914e+08   ,0.2  ,2.4  ,0
1288  ,3.057e+08   ,5.8879E-16  ,2.4  ,0
1289  ,3.627e+08   ,-0.2  ,2.4  ,0
1290  ,3.136e+08   ,-0.4  ,2.4  ,0
1291  ,2.538e+08   ,-0.6  ,2.4  ,0
1292  ,2.282e+08   ,-0.8  ,2.4  ,0
1293  ,1.934e+08   ,-1  ,2.4  ,0
1294  ,1.800e+08   ,-1.2  ,2.4  ,0
1295  ,1.623e+08   ,-1.4  ,2.4  ,0
1296  ,1.665e+08   ,-1.6  ,2.4  ,0
1297  ,1.751e+08   ,-1.8  ,2.4  ,0
1298  ,1.640e+08   ,-2  ,2.4  ,0
1299  ,1.507e+08   ,-2.2  ,2.4  ,0
1460  ,8.227e+09   ,2.3243  ,2.3243  ,4.9577
1461  ,7.938e+09   ,2.4577  ,2.3243  ,4.8243
1462  ,6.379e+09   ,2.3243  ,2.4577  ,4.8243
1463  ,2.010e+08   ,-2.3  ,-2.1759  ,4.8
1464  ,3.399e+08   ,-2.3  ,-1.7631  ,4.8
1465  ,4.962e+08   ,-2.3  ,-1.1827  ,4.8
1466  ,5.001e+08   ,-2.3  ,-0.34986  ,4.8
1467  ,5.648e+08   ,-2.3  ,0.80545  ,4.8
1468  ,6.492e+08   ,-0.81337  ,2.3  ,4.8
1469  ,1.364e+09   ,0.67326  ,2.3  ,4.8
1470  ,4.076e+08   ,2.3  ,-2.1824  ,4.8
1471  ,2.406e+08   ,2.3  ,-1.7784  ,4.8
1472  ,4.001e+08   ,2.3  ,-1.2138  ,4.8
1473  ,7.438e+08   ,2.3  ,-0.40752  ,4.8
1474  ,1.237e+09   ,2.3  ,0.70532  ,4.8
1516  ,6.399e+08   ,2.3  ,2.3  ,1.6866
1517  ,1.320e+09   ,2.3  ,2.3  ,3.1733
1518  ,2.226e+08   ,2.3  ,-2.1759  ,0.2
1519  ,3.157e+08   ,2.3  ,-1.7631  ,0.2
1520  ,5.251e+08   ,2.3  ,-1.1827  ,0.2
1521  ,5.266e+08   ,2.3  ,-0.34986  ,0.2
1522  ,5.804e+08   ,2.3  ,0.80545  ,0.2
1564  ,5.787e+08   ,-0.76667  ,2.3  ,0.2
1565  ,5.588e+08   ,0.76667  ,2.3  ,0.2
1566  ,5.815e+08   ,-2.3  ,2.3  ,1.7333
1567  ,5.867e+08   ,-2.3  ,2.3  ,3.2667
1574  ,7.392e+07   ,-2.3  ,-2.1759  ,0.2
1575  ,8.360e+07   ,-2.3  ,-1.7631  ,0.2
1576  ,1.038e+08   ,-2.3  ,-1.1827  ,0.2
1577  ,1.029e+08   ,-2.3  ,-0.34986  ,0.2
1578  ,1.286e+08   ,-2.3  ,0.80545  ,0.2
1777  ,6.280e+08   ,-0.52764  ,2.5  ,4.9
1801  ,2.388e+08   ,-2.3  ,1.5527  ,0.2
1825  ,5.657e+08   ,-1.5333  ,2.3  ,0.2
1841  ,6.505e+08   ,0.063638  ,2.5  ,4.9
1876  ,2.794e+08   ,-0.5  ,2.4  ,0
1894  ,6.382e+08   ,2.3  ,1.5527  ,0.2
1907  ,1.476e+08   ,2.1  ,2.5  ,0.1
1928  ,1.997e+08   ,1.9  ,2.4  ,0
1974  ,2.914e+08   ,2.4  ,1.1  ,0
1981  ,1.503e+08   ,2.4  ,2.5  ,0.59273
1987  ,2.629e+08   ,-2.5  ,2.4  ,4
2004  ,1.487e+08   ,-2.4  ,2.5  ,4.6
2009  ,2.698e+08   ,2.4  ,1.3  ,0
2020  ,2.632e+08   ,2.5  ,1.1  ,0.1
2035  ,1.054e+08   ,-2.3  ,-0.76628  ,0.2
2070  ,2.403e+09   ,1.6404  ,2.4  ,5
2081  ,5.475e+08   ,2.4  ,2.5  ,1.9724
2095  ,2.198e+08   ,2.4  ,2.5  ,0.78982
2138  ,1.719e+08   ,-2.4  ,-0.1  ,0
2146  ,5.286e+08   ,-0.92182  ,2.4  ,5
2174  ,3.778e+08   ,2.4  ,2.5  ,1.184
2190  ,2.970e+08   ,2.5  ,2.4  ,0.98691
2203  ,5.386e+08   ,2.5  ,-0.13345  ,4.9
2232  ,1.165e+09   ,2.3  ,0.1489  ,4.8
2242  ,7.940e+08   ,2.4  ,2.5  ,2.9578
2293  ,2.638e+08   ,-2.5  ,0.5  ,0.1
2311  ,1.424e+09   ,2.3  ,2.3  ,2.4299
2313  ,2.672e+08   ,2.5  ,2.4  ,0.78982
2329  ,6.021e+08   ,2.4  ,2.5  ,2.1695
2355  ,1.888e+08   ,-2.4  ,2.5  ,4.4
2380  ,9.612e+07   ,-2.5  ,-1.5  ,0.1
2383  ,7.973e+08   ,0.45782  ,2.5  ,4.9
2408  ,4.194e+08   ,2.3  ,-1.4961  ,4.8
2445  ,2.477e+08   ,2.5  ,-1.5131  ,4.9
2484  ,1.657e+08   ,-2.5  ,-2.4  ,1.6
2495  ,2.434e+08   ,-2.4  ,1.7  ,5
2508  ,2.758e+08   ,2.4  ,0.3  ,0
2514  ,6.601e+08   ,2.3  ,0.2278  ,0.2
2570  ,2.372e+08   ,-2.4  ,1.5  ,5
2580  ,2.307e+09   ,1.6404  ,2.5  ,4.9
2603  ,5.825e+08   ,-1.1189  ,2.5  ,4.9
2695  ,3.880e+08   ,2.3  ,2.3  ,0.94331
2705  ,4.928e+08   ,2.4  ,2.5  ,1.3811
2714  ,6.915e+08   ,2.5  ,0.45782  ,4.9
2734  ,1.806e+08   ,2.4  ,-0.9  ,0
2775  ,2.242e+08   ,2.5  ,-0.1  ,0.1
2779  ,1.846e+08   ,2.4  ,-0.1  ,0
2801  ,3.033e+09   ,1.4166  ,2.3  ,4.8
2814  ,1.781e+09   ,1.4433  ,2.5  ,4.9
2863  ,1.860e+08   ,-2.4  ,2.5  ,0.6
2884  ,1.874e+08   ,-2.4  ,2.5  ,0.8
2886  ,2.222e+08   ,-2.4  ,2.5  ,1.2
2967  ,2.261e+08   ,2.4  ,1.7  ,0
2973  ,2.403e+08   ,2.5  ,1.5  ,0.1
2987  ,2.901e+08   ,-0.3  ,2.5  ,0.1
3008  ,5.453e+08   ,-2.3  ,2.3  ,0.96667
3012  ,2.807e+08   ,-2.5  ,2.4  ,2.6
3021  ,2.907e+08   ,-2.5  ,2.4  ,2.8
3025  ,2.687e+08   ,-2.5  ,2.4  ,2.4
3030  ,3.012e+08   ,-2.4  ,2.5  ,2.4
3033  ,2.934e+08   ,-2.4  ,2.5  ,2.2
3047  ,6.625e+08   ,2.4  ,2.5  ,2.3665
3052  ,7.326e+08   ,2.5  ,2.4  ,2.5636
3061  ,7.280e+08   ,2.4  ,2.5  ,2.5636
3081  ,2.472e+08   ,-2.4  ,1.3  ,5
3088  ,1.345e+08   ,-1.9073  ,2.4  ,5
3099  ,2.270e+08   ,-2.4  ,1.9  ,5
3107  ,1.965e+08   ,-2.4  ,2.5  ,3.8
3139  ,3.117e+08   ,-1.5131  ,2.4  ,5
3145  ,3.587e+08   ,-1.5131  ,2.5  ,4.9
3148  ,2.528e+08   ,-1.7102  ,2.5  ,4.9
3168  ,3.021e+08   ,-2.4  ,1.5  ,0
3188  ,1.215e+08   ,-2.5  ,-2.4  ,1
3202  ,6.516e+08   ,0.26073  ,2.5  ,4.9
3212  ,2.422e+09   ,2.5  ,1.6404  ,4.9
3247  ,3.855e+09   ,2.5  ,1.8375  ,4.9
3265  ,3.112e+09   ,2.3  ,1.4326  ,4.8
3271  ,6.498e+09   ,2.2299  ,2.2299  ,4.8
3284  ,1.700e+09   ,2.4  ,1.4433  ,5
3291  ,1.748e+09   ,2.5  ,1.4433  ,4.9
3296  ,6.109e+08   ,-2.3  ,-0.76628  ,4.8
3303  ,2.017e+08   ,-2.4  ,-0.9  ,5
3311  ,1.840e+08   ,-2.4  ,-0.7  ,5
3315  ,1.837e+08   ,1.9  ,2.5  ,0.1
3336  ,2.174e+08   ,-2.4  ,0.3  ,0
3340  ,1.798e+08   ,-2.5  ,0.1  ,0.1
3344  ,1.913e+08   ,-2.4  ,0.1  ,0
3356  ,3.317e+08   ,-0.3  ,2.4  ,0
3361  ,5.652e+08   ,-0.33054  ,2.5  ,4.9
3364  ,5.899e+08   ,-0.13345  ,2.5  ,4.9
3383  ,9.686e+08   ,2.4  ,2.5  ,3.5491
3402  ,5.186e+09   ,2.4  ,2.5  ,4.5345
3421  ,4.570e+08   ,-1.316  ,2.5  ,4.9
3439  ,1.670e+09   ,2.5  ,2.4  ,3.9433
3447  ,1.729e+09   ,2.4  ,2.5  ,3.9433
3451  ,1.231e+09   ,2.4  ,2.5  ,3.7462
3468  ,1.709e+09   ,1.4433  ,2.4  ,5
3480  ,1.049e+09   ,1.0491  ,2.4  ,5
3519  ,2.514e+08   ,1.5  ,2.4  ,0
3527  ,4.957e+08   ,2.3  ,-1.4729  ,0.2
3550  ,1.677e+08   ,-1.7  ,2.4  ,0
3554  ,1.775e+08   ,-1.7  ,2.5  ,0.1
3558  ,1.603e+08   ,-1.5  ,2.4  ,0
3562  ,1.960e+08   ,-1.5  ,2.5  ,0.1
3574  ,1.623e+08   ,-2.4  ,2.1  ,5
3581  ,2.597e+08   ,-2.5  ,1.7  ,0.1
3583  ,2.175e+08   ,-2.5  ,1.9  ,0.1
3584  ,1.365e+08   ,-1.9073  ,2.5  ,4.9
3591  ,2.913e+08   ,2.5  ,0.3  ,0.1
3595  ,2.608e+08   ,2.5  ,0.1  ,0.1
3603  ,1.230e+10   ,2.4577  ,2.391  ,4.7576
3663  ,5.755e+07   ,-1.933  ,-2.5  ,0.2
3669  ,7.685e+07   ,-2.1765  ,-2.5  ,0.2
3672  ,7.664e+07   ,-2.3  ,-2.3379  ,0.2
3682  ,9.318e+07   ,-1.9  ,-2.4  ,0
3700  ,3.105e+08   ,2.3  ,-2.5  ,2.7424
3712  ,2.490e+08   ,-2.1  ,-2.5  ,4.9
3715  ,2.163e+08   ,-1.9  ,-2.5  ,4.9
3740  ,8.357e+07   ,-1.3  ,-2.4  ,5
3746  ,1.204e+08   ,-1.2085  ,-2.5  ,4.8
3755  ,3.621e+07   ,-1.5  ,-2.4  ,5
3760  ,1.420e+08   ,-1.7  ,-2.5  ,4.9
3786  ,4.751e+08   ,2.4  ,2.5  ,1.5782
3813  ,7.391e+08   ,0.26073  ,2.4  ,5
3858  ,1.303e+08   ,-0.9  ,-2.4  ,5
3863  ,3.584e+08   ,-2.5  ,0.9  ,4.9
3875  ,1.065e+08   ,-1.9  ,-2.4  ,5
3885  ,4.288e+08   ,2.4  ,-0.72473  ,5
3910  ,2.048e+08   ,-2.4  ,-2.5  ,3.4
3959  ,2.460e+09   ,2.5  ,2.4  ,4.1404
3969  ,9.257e+08   ,2.5  ,1.0491  ,4.9
3992  ,1.376e+10   ,2.391  ,2.2576  ,4.9577
3993  ,1.211e+10   ,2.4577  ,2.2576  ,4.891
4016  ,7.292e+07   ,-2.3015  ,2.5  ,4.9
4018  ,8.769e+07   ,-2.4  ,2.5  ,4.8
4021  ,1.216e+09   ,1.2462  ,2.4  ,5
4042  ,1.630e+08   ,2.4  ,-1.1  ,0
4046  ,2.041e+08   ,-0.9  ,2.4  ,0
4055  ,4.504e+08   ,1.7  ,-2.5  ,4.9
4087  ,2.358e+08   ,1.7  ,2.4  ,0
4114  ,4.849e+08   ,2.5  ,-0.33054  ,4.9
4120  ,2.008e+08   ,2.4  ,-2.5  ,1.8
4125  ,2.195e+08   ,2.4  ,2.5  ,0.98691
4144  ,3.538e+09   ,2.4  ,2.5  ,4.3375
4161  ,3.482e+08   ,-2.4  ,0.3  ,5
4201  ,1.008e+08   ,1.933  ,-2.5  ,0.2
4225  ,3.793e+07   ,-2.3  ,-2.4  ,0
4230  ,5.954e+07   ,-2.3  ,-2.5  ,0.56701
4269  ,1.660e+08   ,-0.9  ,-2.5  ,4.9
4277  ,1.283e+08   ,-1.1  ,-2.4  ,5
4288  ,1.214e+09   ,-0.070055  ,2.3  ,4.8
4328  ,4.918e+08   ,-2.5  ,-2.4  ,4.2
4336  ,4.118e+08   ,-2.5  ,-2.4  ,4.4
4342  ,1.904e+08   ,-2.5  ,-2.4  ,4.6
4348  ,2.929e+08   ,-2.4  ,-2.4707  ,4.9707
4352  ,6.076e+07   ,-2.3  ,-2.5  ,4.9
4354  ,6.834e+08   ,-2.1765  ,-2.5  ,4.8
4355  ,3.565e+08   ,-2.3  ,-2.3379  ,4.8
4362  ,1.530e+08   ,2.5  ,2.4  ,0.59273
4364  ,3.216e+08   ,2.5  ,-2.4  ,2.4
4366  ,3.476e+08   ,2.5  ,-2.4  ,2.2
4372  ,2.580e+08   ,2.4  ,-2.5  ,2.2
4385  ,6.285e+07   ,-2.5  ,-1.9  ,0.1
4399  ,1.147e+08   ,-2.5  ,2.1  ,0.1
4407  ,1.231e+08   ,-0.7  ,-2.4  ,0
4436  ,1.646e+08   ,-2.5  ,-0.1  ,0.1
4462  ,5.348e+08   ,-2.3  ,2.3  ,4.0333
4491  ,4.376e+08   ,2.5  ,-0.52764  ,4.9
4494  ,9.526e+07   ,2.5  ,-2.4  ,1.4
4503  ,7.894e+07   ,2.4  ,-2.5  ,1.4
4508  ,3.145e+07   ,2.4  ,-2.5  ,1.2
4515  ,1.417e+08   ,2.5  ,-2.4  ,1.8
4517  ,1.517e+08   ,2.4  ,-2.5  ,1.6
4522  ,1.211e+08   ,0.7  ,-2.4  ,0
4538  ,5.022e+08   ,-1.1189  ,2.4  ,5
4546  ,2.320e+09   ,2.4  ,2.5  ,4.1404
4559  ,4.549e+08   ,1.7  ,-2.4  ,0
4590  ,6.336e+07   ,0.5  ,-2.4  ,0
4631  ,2.755e+08   ,2.4  ,-2.5  ,2.6
4634  ,3.454e+08   ,2.5  ,-2.4  ,2.8
4657  ,1.511e+08   ,-2.5  ,-2.4  ,2
4660  ,1.443e+08   ,-2.5  ,-2.4  ,1.8
4664  ,2.169e+08   ,-0.3  ,-2.4  ,0
4675  ,1.612e+08   ,-2.4  ,-2.5  ,4.8
4681  ,1.594e+08   ,-2.5  ,-0.3  ,0.1
4684  ,6.923e+08   ,1.7  ,-2.4  ,5
4703  ,3.986e+08   ,-2.4  ,0.7  ,5
4707  ,2.644e+08   ,-2.5  ,0.3  ,4.9
4714  ,4.264e+08   ,2.4  ,-0.33054  ,5
4723  ,5.702e+08   ,-1.5567  ,2.3  ,4.8
4739  ,5.914e+07   ,-2.1044  ,2.5  ,4.9
4763  ,1.497e+08   ,-1.9  ,2.4  ,0
4780  ,4.263e+07   ,-2.3  ,-1.9695  ,0.2
4782  ,4.020e+07   ,-2.4707  ,-2.4  ,0.029289
4784  ,6.759e+07   ,-2.4  ,-1.9  ,0
4791  ,1.560e+08   ,-2.4  ,-2.5  ,1.8
4796  ,4.215e+08   ,2.4707  ,-2.4707  ,4.9
4799  ,3.851e+08   ,2.5  ,-2.4  ,4.8
4806  ,2.056e+08   ,2.3  ,-2.5  ,4.9
4809  ,3.113e+09   ,2.3  ,2.3  ,3.9166
4833  ,1.959e+08   ,-2.4  ,2.5  ,0.4
4841  ,2.931e+08   ,-2.4  ,2.5  ,2.6
4846  ,1.829e+08   ,-2.5  ,2.1  ,4.9
4848  ,1.291e+08   ,-2.5  ,2.3  ,4.9
4849  ,1.154e+08   ,-2.5  ,2.4  ,4.8
4893  ,1.987e+08   ,-2.4  ,2.5  ,4.2
4897  ,5.570e+09   ,2.3333  ,2.1998  ,5
4900  ,1.194e+10   ,2.391  ,2.4577  ,4.7576
4908  ,1.169e+10   ,2.2576  ,2.391  ,4.9577
4911  ,1.205e+10   ,2.2576  ,2.4577  ,4.891
4926  ,1.808e+08   ,-2.5  ,2.4  ,1
4932  ,2.258e+08   ,-2.4  ,2.5  ,1.6
4937  ,2.632e+08   ,-1.1  ,2.5  ,0.1
4939  ,6.460e+09   ,2.3  ,2.2299  ,4.7299
4944  ,2.997e+08   ,2.5  ,-1.9073  ,4.9
4987  ,6.093e+08   ,-2.3  ,1.5527  ,4.8
5010  ,9.371e+09   ,2.4973  ,2.1331  ,4.923
5013  ,5.286e+09   ,2.5  ,2.0345  ,4.9
5017  ,5.449e+09   ,2.4  ,2.0345  ,5
5035  ,4.993e+08   ,1.3  ,-2.4  ,0
5038  ,1.369e+08   ,1.2085  ,-2.5  ,0.2
5092  ,1.001e+08   ,-2.4  ,-2.5  ,1.2
5123  ,1.522e+08   ,2.5  ,-2.4  ,0.6
5151  ,1.373e+08   ,-2.5  ,-0.5  ,0.1
5160  ,1.277e+08   ,-2.5  ,-0.7  ,0.1
5164  ,3.374e+08   ,-2.4  ,0.9  ,5
5168  ,3.481e+08   ,-2.4  ,0.5  ,5
5176  ,1.629e+08   ,2.5  ,-0.7  ,0.1
5179  ,1.498e+08   ,2.4  ,-0.5  ,0
5189  ,2.065e+08   ,2.4  ,-2.5  ,2.4
5194  ,1.310e+08   ,2.3  ,-2.5  ,2.2576
5198  ,4.922e+07   ,-2.3  ,-2.5  ,0.32348
5205  ,2.024e+07   ,-2.4  ,-2.5  ,0.2
5207  ,5.119e+07   ,-2.1  ,-2.5  ,0.1
5246  ,3.903e+08   ,-2.5  ,2.4  ,3.2
5257  ,2.805e+08   ,-2.5  ,1.5  ,4.9
5263  ,1.668e+08   ,-2.3  ,0.2278  ,0.2
5272  ,2.129e+08   ,-2.5  ,0.3  ,0.1
5275  ,2.780e+08   ,-2.5  ,0.5  ,4.9
5281  ,3.115e+09   ,1.8375  ,2.5  ,4.9
5297  ,2.477e+08   ,-0.9  ,2.5  ,0.1
5306  ,2.325e+08   ,-0.7  ,2.4  ,0
5309  ,2.787e+08   ,-0.5  ,2.5  ,0.1
5324  ,7.568e+08   ,2.4  ,2.5  ,2.7607
5332  ,7.882e+07   ,2.5  ,-2.4  ,0.8
5334  ,5.080e+07   ,2.4  ,-2.5  ,1
5360  ,2.575e+08   ,2.4  ,-1.7102  ,5
5362  ,2.637e+08   ,2.4  ,-1.5131  ,5
5368  ,3.433e+09   ,2.4  ,1.8375  ,5
5371  ,2.108e+10   ,2.4325  ,2.4888  ,4.6656
5372  ,5.819e+09   ,2.3333  ,2.5  ,4.6998
5376  ,4.478e+09   ,2.4707  ,2.4707  ,4.6331
5377  ,5.491e+09   ,2.5  ,2.4  ,4.5345
5379  ,5.203e+07   ,-1.5  ,-2.5  ,4.9
5406  ,2.526e+08   ,-2.5  ,-2.4  ,3.4
5420  ,1.790e+08   ,-2.3  ,-2.5  ,3.2226
5423  ,5.206e+08   ,1.5  ,-2.4  ,0
5502  ,4.485e+07   ,-2.5  ,-2.3  ,0.1
5504  ,2.334e+07   ,-2.5  ,-2.4  ,0.2
5506  ,5.347e+07   ,-2.4  ,-2.3  ,0
5511  ,5.899e+07   ,-2.5  ,-2.1  ,0.1
5513  ,2.411e+08   ,-2.4  ,0.5  ,0
5517  ,1.369e+08   ,-0.9  ,-2.5  ,0.1
5532  ,5.335e+07   ,-2.4707  ,2.4707  ,4.9
5534  ,1.784e+08   ,2.4  ,-0.7  ,0
5551  ,6.666e+08   ,2.5  ,-2.4  ,3.8
5566  ,3.820e+08   ,2.5  ,2.4  ,1.3811
5603  ,1.447e+08   ,2.4  ,-0.3  ,0
5617  ,1.826e+08   ,-2.1  ,2.5  ,0.1
5637  ,2.496e+08   ,-2.3  ,-1.9695  ,4.8
5641  ,4.639e+08   ,2.3  ,-2.5  ,3.4636
5645  ,1.888e+08   ,-2.4  ,-2.5  ,2
5649  ,2.384e+08   ,-2.4  ,-2.5  ,2.2
5659  ,1.998e+08   ,-2.3  ,-2.5  ,1.7774
5662  ,8.342e+08   ,2.1765  ,-2.5  ,4.8
5666  ,2.102e+08   ,2.4  ,-2.5  ,4.8
5669  ,5.808e+08   ,2.3  ,-2.3412  ,4.8
5695  ,2.600e+08   ,-2.4  ,0.7  ,0
5701  ,1.839e+08   ,-2.5  ,2.4  ,1.6
5715  ,2.150e+08   ,-2.4  ,2.5  ,1.8
5726  ,2.475e+08   ,-0.7  ,2.5  ,0.1
5727  ,1.961e+08   ,-1.1  ,2.4  ,0
5730  ,2.551e+08   ,2.3  ,-2.5  ,1.7774
5746  ,5.106e+08   ,2.5  ,2.4  ,1.7753
5755  ,5.376e+08   ,2.5  ,-2.4  ,4.4
5763  ,4.798e+08   ,2.4  ,-2.5  ,4.4
5773  ,1.002e+09   ,1.0491  ,2.5  ,4.9
5791  ,5.203e+08   ,-0.72473  ,2.4  ,5
5795  ,3.351e+09   ,1.8375  ,2.4  ,5
5803  ,3.777e+08   ,-0.3  ,-2.4  ,5
5810  ,2.330e+09   ,2.4  ,1.6404  ,5
5836  ,2.586e+08   ,-2.5  ,1.3  ,4.9
5860  ,9.714e+07   ,2.5  ,-2.4  ,1.6
5866  ,2.017e+08   ,1.5  ,-2.5  ,0.1
5884  ,1.832e+08   ,-2.4  ,-0.3  ,5
5888  ,1.622e+08   ,-2.5  ,-0.5  ,4.9
5901  ,9.780e+07   ,2.3  ,-2.5  ,2.5
5908  ,5.646e+07   ,2.5  ,-2.4  ,1.2
5909  ,2.481e+08   ,2.5  ,-2.4  ,2
5934  ,4.395e+08   ,1.9  ,-2.5  ,4.9
5938  ,3.161e+08   ,1.933  ,-2.5  ,4.8
5948  ,3.150e+08   ,-2.4  ,-2.5  ,4.6
5950  ,2.097e+08   ,-2.4707  ,-2.4707  ,4.9
5951  ,1.718e+08   ,-2.5  ,-2.4  ,4.8
5952  ,1.793e+08   ,-2.5  ,-2.3  ,4.9
5986  ,3.770e+08   ,2.3  ,-2.5  ,3.7085
5990  ,5.258e+08   ,-0.92182  ,2.5  ,4.9
6019  ,1.991e+08   ,2.5  ,1.9  ,0.1
6025  ,1.328e+08   ,2.4  ,-1.3  ,0
6035  ,2.467e+08   ,-2.5  ,1.9  ,4.9
6044  ,4.204e+08   ,0.1  ,2.5  ,0.1
6054  ,2.486e+08   ,2.4  ,0.1  ,0
6070  ,7.510e+07   ,-2.4  ,2.3  ,0
6071  ,8.312e+07   ,-2.3  ,2.4  ,0
6076  ,1.426e+08   ,-2.4  ,2.1  ,0
6083  ,1.807e+08   ,2.1  ,-2.4  ,0
6084  ,1.080e+08   ,2.4  ,2.3  ,0
6087  ,1.051e+08   ,2.3  ,2.4  ,0
6092  ,3.716e+07   ,-2.4  ,-2.5  ,0.4
6096  ,2.342e+07   ,-2.3  ,-2.5  ,0.1
6099  ,1.825e+08   ,0.7  ,-2.5  ,0.1
6149  ,1.342e+08   ,-2.4  ,-0.9  ,0
6159  ,1.858e+08   ,-2.5  ,-2.4  ,2.6
6183  ,1.212e+09   ,1.2462  ,2.5  ,4.9
6224  ,7.911e+08   ,2.5  ,-2.4  ,4
6228  ,5.157e+08   ,2.4  ,-2.5  ,3.8
6237  ,3.519e+08   ,2.5  ,0.7  ,0.1
6241  ,5.654e+09   ,2.5  ,2.3333  ,4.6998
6245  ,4.099e+08   ,2.5  ,2.4  ,1.5782
6259  ,3.309e+08   ,2.5  ,-2.1044  ,4.9
6265  ,3.570e+08   ,2.3  ,-1.9804  ,4.8
6267  ,3.918e+08   ,2.5  ,-2.3015  ,4.9
6268  ,3.606e+08   ,2.4707  ,-2.4  ,4.9707
6270  ,3.628e+08   ,2.4  ,-2.1044  ,5
6317  ,5.403e+08   ,-2.3  ,0.2278  ,4.8
6349  ,5.807e+08   ,-0.52764  ,2.4  ,5
6391  ,4.866e+08   ,2.4  ,2.5  ,1.7753
6440  ,2.751e+08   ,-2.5  ,2.4  ,3.8
6471  ,3.569e+08   ,2.5  ,-0.92182  ,4.9
6489  ,1.260e+09   ,2.5  ,1.2462  ,4.9
6523  ,1.186e+08   ,-1.1  ,-2.4  ,0
6528  ,1.130e+08   ,-1.1  ,-2.5  ,0.1
6535  ,1.386e+08   ,-0.9  ,-2.4  ,0
6538  ,7.387e+08   ,1.5  ,-2.4  ,5
6541  ,4.737e+08   ,1.5  ,-2.5  ,4.9
6551  ,4.038e+08   ,2.5  ,-0.72473  ,4.9
6564  ,9.767e+09   ,2.1331  ,2.4973  ,4.923
6565  ,5.394e+09   ,2.0345  ,2.5  ,4.9
6572  ,1.319e+08   ,2.4  ,-1.7  ,0
6581  ,6.404e+08   ,0  ,2.3  ,0.2
6592  ,2.425e+08   ,2.3  ,-1.9695  ,0.2
6594  ,2.878e+08   ,0.3  ,2.4  ,0
6601  ,3.715e+08   ,0.5  ,2.5  ,0.1
6605  ,1.082e+08   ,-2.4  ,-1.3  ,0
6606  ,1.311e+08   ,-2.4  ,-1.1  ,0
6615  ,1.601e+08   ,-2.4  ,-0.3  ,0
6634  ,3.843e+08   ,2.1  ,-2.5  ,4.9
6635  ,4.300e+08   ,2.4  ,-2.4707  ,4.9707
6636  ,3.845e+08   ,2.3  ,-2.4  ,5
6647  ,1.464e+08   ,0.5  ,-2.5  ,0.1
6704  ,4.046e+07   ,-2.4707  ,2.4707  ,0.1
6708  ,7.707e+07   ,-2.5  ,2.4  ,0.2
6712  ,2.281e+08   ,-2.4  ,2.5  ,3.6
6715  ,3.240e+08   ,-2.4  ,2.5  ,3.4
6728  ,3.231e+08   ,-2.5  ,0.7  ,4.9
6753  ,1.057e+08   ,-2.1044  ,2.4  ,5
6788  ,3.644e+09   ,2.5  ,2.4  ,4.3375
6791  ,3.848e+08   ,-1.933  ,-2.5  ,4.8
6795  ,5.253e+09   ,2.1998  ,2.5  ,4.8333
6837  ,8.272e+07   ,-2.3  ,-2.5  ,0.8063
6869  ,2.661e+08   ,2.5  ,-1.7102  ,4.9
6873  ,3.317e+08   ,2.4  ,-1.9073  ,5
6880  ,3.568e+08   ,2.4  ,-0.92182  ,5
6885  ,4.516e+08   ,2.4  ,-0.52764  ,5
6893  ,1.134e+09   ,2.4  ,1.2462  ,5
6914  ,3.844e+08   ,0.7  ,2.5  ,0.1
6920  ,3.703e+08   ,0.9  ,2.4  ,0
6923  ,3.734e+08   ,0.7  ,2.4  ,0
6936  ,4.673e+08   ,2.4  ,-2.5  ,3.4
6939  ,5.340e+08   ,2.3  ,-2.5  ,3.2226
6961  ,2.607e+08   ,-0.1  ,-2.5  ,4.9
6967  ,1.434e+08   ,-2.5  ,-1.5  ,4.9
6975  ,2.578e+08   ,-2.4  ,1.1  ,5
6978  ,1.625e+08   ,-2.4  ,2.5  ,0.2
6987  ,2.725e+08   ,2.4  ,-1.316  ,5
6994  ,1.466e+08   ,2.4  ,-1.5  ,0
7004  ,4.884e+08   ,2.4  ,-2.5  ,3.6
7011  ,8.057e+08   ,2.4  ,0.65491  ,5
7016  ,7.104e+08   ,2.4  ,0.45782  ,5
7019  ,6.218e+08   ,2.5  ,2.4  ,2.1695
7021  ,5.743e+08   ,2.5  ,2.4  ,1.9724
7052  ,1.975e+08   ,-1.3  ,2.5  ,0.1
7054  ,7.696e+07   ,-2.4  ,-2.5  ,0.8
7057  ,1.485e+08   ,0.3  ,-2.5  ,0.1
7065  ,2.776e+08   ,0.24243  ,-2.5  ,0.2
7075  ,2.099e+10   ,2.4888  ,2.4325  ,4.6656
7113  ,2.494e+08   ,-2.4  ,-2.5  ,2.6
7121  ,1.762e+08   ,-2.4  ,-2.5  ,2.8
7126  ,5.543e+07   ,-2.5  ,-2.4  ,2.8
7128  ,4.241e+07   ,-2.4707  ,-2.4707  ,0.1
7129  ,4.209e+07   ,-2.4  ,-2.4707  ,0.029289
7141  ,4.982e+07   ,-1.7  ,-2.4  ,5
7145  ,3.208e+08   ,1.1  ,2.4  ,0
7163  ,1.946e+08   ,-1.7102  ,2.4  ,5
7172  ,3.208e+08   ,2.5  ,-2.4  ,3.2
7174  ,2.875e+08   ,-2.5  ,2.4  ,3.6
7183  ,7.865e+07   ,-1.4531  ,-2.5  ,4.8
7204  ,9.560e+08   ,2.3  ,-0.81068  ,4.8
7220  ,5.431e+08   ,2.5  ,0.063638  ,4.9
7227  ,1.381e+08   ,2.5  ,-1.9  ,0.1
7256  ,3.726e+08   ,-0.1  ,-2.4  ,5
7280  ,6.055e+08   ,-0.33054  ,2.4  ,5
7299  ,2.891e+08   ,2.5  ,-1.1189  ,4.9
7316  ,9.430e+07   ,-2.5  ,-2.4  ,0.8
7323  ,1.057e+08   ,-2.4  ,-2.5  ,1
7396  ,5.315e+08   ,1.1  ,-2.4  ,5
7400  ,2.720e+08   ,-2.5  ,0.7  ,0.1
7409  ,6.576e+08   ,1.3  ,-2.4  ,5
7420  ,1.335e+08   ,2.5  ,2.1  ,0.1
7429  ,2.212e+08   ,2.4  ,1.9  ,0
7436  ,1.167e+08   ,2.5  ,-1.7  ,0.1
7438  ,3.645e+08   ,2.4  ,-2.5  ,2.8
7445  ,1.751e+10   ,2.4325  ,2.1656  ,4.9888
7464  ,1.016e+08   ,2.5  ,-1.5  ,0.1
7480  ,2.870e+08   ,2.5  ,-2.4  ,0.2
7482  ,1.912e+08   ,1.9  ,-2.5  ,0.1
7483  ,2.108e+08   ,1.7  ,-2.5  ,0.1
7486  ,4.670e+08   ,1.9  ,-2.4  ,5
7488  ,1.455e+08   ,1.6937  ,-2.5  ,4.8
7492  ,1.935e+08   ,2.1  ,-2.4  ,5
7495  ,2.354e+08   ,0.1  ,-2.5  ,0.1
7504  ,1.857e+07   ,0.3  ,-2.4  ,0
7507  ,2.151e+08   ,0.9  ,-2.5  ,0.1
7533  ,2.937e+08   ,-2.5  ,0.9  ,0.1
7536  ,1.910e+08   ,-2.4  ,-2.5  ,3.2
7540  ,1.402e+08   ,-2.4  ,-2.5  ,3
7545  ,4.075e+07   ,-2.5  ,-2.4  ,3
7582  ,2.250e+08   ,1.3  ,2.5  ,0.1
7588  ,7.234e+08   ,2.5  ,2.4  ,2.3665
7598  ,2.570e+08   ,-2.5  ,2.4  ,4.2
7607  ,5.238e+08   ,1.5333  ,2.3  ,0.2
7627  ,2.711e+08   ,-2.5  ,1.1  ,4.9
7651  ,1.363e+08   ,2.4  ,-1.9  ,0
7656  ,1.177e+08   ,2.5  ,2.4  ,0.39564
7660  ,6.482e+09   ,2.2299  ,2.3  ,4.7299
7668  ,1.688e+08   ,1.4531  ,-2.5  ,4.8
7676  ,3.300e+08   ,0.1  ,-2.5  ,4.9
7683  ,4.053e+08   ,0.1  ,-2.4  ,5
7686  ,1.769e+08   ,-2.4  ,-1.1  ,5
7702  ,1.144e+08   ,-2.3  ,-2.5  ,4.433
7710  ,4.022e+08   ,-2.3  ,-2.5  ,4.6765
7752  ,4.419e+08   ,0.9  ,-2.4  ,5
7763  ,3.524e+08   ,0.24243  ,-2.5  ,4.8
7767  ,1.455e+08   ,-2.5  ,-2.4  ,3.2
7768  ,7.102e+07   ,-2.4  ,-2.1  ,0
7776  ,2.888e+08   ,-2.4  ,0.9  ,0
7786  ,2.013e+08   ,-0.4838  ,-2.5  ,4.8
7800  ,2.474e+08   ,2.5  ,-2.4  ,4.6
7805  ,1.358e+08   ,-2.5  ,-1.3  ,4.9
7811  ,1.589e+08   ,-2.5  ,-1.1  ,4.9
7820  ,1.589e+08   ,2.5  ,-2.1  ,0.1
7824  ,1.495e+08   ,2.4  ,-2.1  ,0
7828  ,5.088e+08   ,2.4  ,-2.5  ,4.2
7831  ,5.298e+08   ,2.4  ,-2.5  ,4
7838  ,7.806e+08   ,2.5  ,-2.4  ,4.2
7839  ,7.313e+08   ,2.5  ,2.4  ,2.7607
7840  ,7.651e+08   ,2.5  ,2.4  ,2.9578
7863  ,8.342e+07   ,-2.4  ,-1.5  ,0
7890  ,3.299e+08   ,2.4  ,0.9  ,0
7897  ,1.313e+08   ,-2.4  ,-0.7  ,0
7912  ,1.057e+08   ,-1.5  ,-2.4  ,0
7917  ,9.437e+07   ,-1.3  ,-2.5  ,0.1
7931  ,3.070e+08   ,0.5  ,2.4  ,0
7934  ,3.898e+08   ,1.1  ,-2.4  ,0
7937  ,1.432e+08   ,2.4  ,-2.5  ,0.8
7941  ,6.036e+07   ,-2.4  ,-2.5  ,0.6
7969  ,5.599e+07   ,-2.5  ,2.3  ,0.1
7971  ,2.089e+08   ,-2.4  ,1.9  ,0
7972  ,1.580e+08   ,-1.9  ,2.5  ,0.1
7978  ,3.122e+08   ,-2.4  ,1.1  ,0
7996  ,1.920e+08   ,-2.4  ,-0.5  ,5
8000  ,7.283e+07   ,-2.5  ,-2.4  ,0.6
8003  ,3.241e+07   ,-2.5  ,-2.4  ,0.4
8025  ,3.258e+08   ,0.9  ,2.5  ,0.1
8035  ,3.721e+08   ,0.3  ,2.5  ,0.1
8039  ,6.606e+08   ,2.3  ,-2.5  ,0.32348
8041  ,3.644e+08   ,2.3  ,-2.3379  ,0.2
8043  ,3.691e+08   ,2.1765  ,-2.5  ,0.2
8045  ,1.302e+08   ,-0.96359  ,-2.5  ,0.2
8054  ,2.788e+08   ,1.3  ,2.4  ,0
8058  ,2.792e+08   ,1.1  ,2.5  ,0.1
8062  ,1.924e+08   ,-2.5  ,2.4  ,1.4
8067  ,1.725e+08   ,-2.5  ,2.4  ,0.8
8087  ,3.022e+08   ,-2.5  ,1.5  ,0.1
8132  ,7.031e+08   ,-0.13345  ,2.4  ,5
8183  ,1.747e+08   ,2.5  ,-0.9  ,0.1
8184  ,1.613e+08   ,1.6937  ,-2.5  ,0.2
8214  ,1.861e+08   ,-2.4707  ,-2.4  ,4.9707
8217  ,2.590e+08   ,-2.1  ,-2.4  ,5
8219  ,2.352e+08   ,-2.4  ,-2.5  ,4.4
8227  ,8.553e+08   ,2.5  ,2.4  ,3.1549
8242  ,4.825e+08   ,0.7  ,-2.5  ,4.9
8248  ,5.138e+08   ,2.5  ,-2.4  ,3.6
8254  ,1.914e+08   ,2.5  ,-0.3  ,0.1
8256  ,1.617e+08   ,2.5  ,-0.5  ,0.1
8258  ,2.808e+08   ,-0.3  ,-2.5  ,4.9
8263  ,2.606e+08   ,-0.5  ,-2.5  ,4.9
8268  ,1.172e+08   ,-2.3  ,-2.5  ,3.7085
8277  ,2.376e+08   ,-0.1  ,-2.5  ,0.1
8285  ,4.948e+08   ,1.1  ,-2.5  ,4.9
8307  ,2.874e+08   ,0.1  ,2.4  ,0
8308  ,3.294e+08   ,-0.1  ,2.5  ,0.1
8309  ,3.220e+08   ,-0.1  ,2.4  ,0
8313  ,1.923e+08   ,2.5  ,-2.3  ,0.1
8318  ,2.900e+08   ,2.5  ,-2.4  ,3
8338  ,8.573e+08   ,2.5  ,2.4  ,3.352
8339  ,8.258e+08   ,2.4  ,2.5  ,3.1549
8344  ,3.604e+08   ,-2.5  ,2.4  ,3.4
8357  ,1.652e+10   ,2.4888  ,2.1656  ,4.9325
8358  ,5.257e+09   ,2.5  ,2.1998  ,4.8333
8383  ,1.165e+08   ,-1.7  ,-2.4  ,0
8396  ,2.183e+08   ,1.1  ,-2.5  ,0.1
8399  ,6.467e+09   ,2.4526  ,2.1331  ,4.9851
8405  ,5.369e+07   ,2.5  ,-2.4  ,1
8412  ,2.502e+08   ,2.3  ,-2.5  ,0.8063
8417  ,1.857e+08   ,-2.3  ,-2.5  ,2.5
8434  ,4.697e+08   ,0.9636  ,-2.5  ,4.8
8438  ,2.244e+08   ,-0.3  ,-2.5  ,0.1
8452  ,2.189e+08   ,-2.4  ,-0.1  ,5
8468  ,1.245e+09   ,2.5  ,2.4  ,3.7462
8471  ,2.846e+07   ,-1.3  ,-2.5  ,4.9
8493  ,9.973e+07   ,-1.1  ,-2.5  ,4.9
8509  ,6.917e+07   ,-2.5  ,-1.7  ,0.1
8517  ,3.608e+08   ,-2.4  ,2.5  ,3
8531  ,2.620e+08   ,-2.4  ,1.7  ,0
8556  ,1.016e+09   ,2.5  ,2.4  ,3.5491
8573  ,4.044e+08   ,-1.316  ,2.4  ,5
8576  ,3.153e+08   ,-2.4  ,1.3  ,0
8611  ,1.245e+08   ,2.3  ,-2.5  ,1.2915
8618  ,1.892e+08   ,-2.4  ,2.5  ,4
8646  ,3.267e+08   ,-2.5  ,1.1  ,0.1
8656  ,1.652e+08   ,2.5  ,-1.3  ,0.1
8657  ,1.901e+08   ,2.4  ,2.1  ,0
8673  ,1.626e+08   ,-1.3  ,2.4  ,0
8692  ,5.767e+08   ,0.72263  ,-2.5  ,4.8
8696  ,6.760e+07   ,2.3  ,-2.5  ,1.0469
8706  ,7.840e+08   ,2.5  ,0.65491  ,4.9
8721  ,1.599e+08   ,-2.4  ,-2.5  ,1.6
8725  ,9.642e+08   ,0.65491  ,2.4  ,5
8739  ,1.777e+10   ,2.1656  ,2.4325  ,4.9888
8741  ,5.665e+09   ,2.1998  ,2.3333  ,5
8746  ,4.361e+07   ,-2.1  ,-2.4  ,0
8748  ,1.265e+08   ,-2.5  ,-2.4  ,1.2
8752  ,7.527e+09   ,2.1331  ,2.4526  ,4.9851
8759  ,7.918e+07   ,-2.3  ,-2.5  ,1.0469
8787  ,2.652e+08   ,-0.1  ,-2.4  ,0
8793  ,1.625e+08   ,-2.3  ,-2.5  ,2.2576
8795  ,2.511e+08   ,-2.4  ,-2.5  ,2.4
8798  ,1.609e+08   ,-2.3  ,-2.5  ,4.1937
8808  ,1.682e+08   ,-2.3  ,-2.5  ,3.9531
8814  ,1.995e+08   ,-2.4  ,-1.5  ,5
8849  ,6.028e+08   ,0.4838  ,-2.5  ,4.8
8851  ,2.084e+08   ,-2.4  ,-2.5  ,4.2
8868  ,4.172e+08   ,2.4  ,-2.5  ,3
8874  ,9.275e+08   ,0.852  ,2.4  ,5
8883  ,2.698e+08   ,-0.5  ,-2.4  ,5
8886  ,2.329e+08   ,-0.72262  ,-2.5  ,4.8
8893  ,2.081e+08   ,-0.7  ,-2.5  ,4.9
8897  ,3.826e+08   ,-2.5  ,-2.4  ,3.6
8899  ,6.106e+07   ,-2.3  ,-2.5  ,3.4636
8900  ,1.061e+08   ,-2.3  ,-1.4729  ,0.2
8906  ,1.148e+08   ,-2.5  ,-1.3  ,0.1
8910  ,9.577e+08   ,0.852  ,2.5  ,4.9
8925  ,2.033e+08   ,-2.4  ,2.5  ,1.4
8941  ,5.734e+07   ,2.4707  ,2.4  ,0.029289
8942  ,8.049e+07   ,2.5  ,2.3  ,0.1
8945  ,2.255e+08   ,-2.5  ,0.1  ,4.9
8950  ,4.350e+07   ,2.4707  ,2.4707  ,0.1
8951  ,4.962e+07   ,2.4  ,2.4707  ,0.029289
8959  ,5.684e+08   ,2.4  ,0.26073  ,5
8965  ,7.812e+08   ,0.45782  ,2.4  ,5
8978  ,8.142e+08   ,2.4  ,0.852  ,5
8983  ,1.638e+08   ,2.5  ,-1.1  ,0.1
8991  ,1.661e+08   ,-2.5  ,2.4  ,0.6
9008  ,7.958e+08   ,2.5  ,0.852  ,4.9
9011  ,1.369e+08   ,-2.4  ,-0.5  ,0
9025  ,8.671e+07   ,-1.5  ,-2.5  ,0.1
9038  ,2.573e+08   ,2.4  ,-2.5  ,2
9041  ,3.126e+08   ,2.5  ,0.9  ,0.1
9050  ,3.310e+08   ,2.5  ,0.5  ,0.1
9054  ,2.493e+08   ,0.9  ,-2.4  ,0
9060  ,2.782e+08   ,2.4  ,-2.5  ,0.4
9062  ,4.042e+08   ,2.3  ,-2.5  ,0.56701
9064  ,2.467e+08   ,2.5  ,-2.4  ,0.4
9069  ,2.263e+08   ,2.4  ,-2.5  ,0.6
9071  ,2.096e+08   ,1.4531  ,-2.5  ,0.2
9082  ,4.885e+07   ,-2.3  ,-2.5  ,1.2915
9086  ,1.212e+08   ,-2.4  ,-2.5  ,1.4
9091  ,1.426e+08   ,-2.5  ,-2.4  ,1.4
9094  ,4.957e+08   ,1.3  ,-2.5  ,4.9
9097  ,1.455e+08   ,-0.7  ,-2.5  ,0.1
9137  ,1.771e+08   ,-2.5  ,-0.7  ,4.9
9143  ,2.189e+08   ,-2.5  ,-0.1  ,4.9
9146  ,1.567e+08   ,-2.1  ,2.4  ,0
9148  ,2.558e+08   ,-2.5  ,1.7  ,4.9
9173  ,3.184e+08   ,-2.5  ,2.4  ,3
9192  ,1.681e+08   ,-0.7  ,-2.4  ,5
9195  ,1.895e+08   ,0.72263  ,-2.5  ,0.2
9209  ,4.045e+08   ,2.5  ,-2.4  ,3.4
9215  ,9.015e+07   ,0.9636  ,-2.5  ,0.2
9217  ,4.585e+08   ,2.4  ,-2.5  ,3.2
9218  ,2.083e+08   ,-0.96359  ,-2.5  ,4.8
9229  ,3.142e+08   ,-2.4  ,2.5  ,2.8
9248  ,3.143e+08   ,2.3  ,-2.5  ,4.433
9255  ,2.504e+08   ,2.5  ,1.3  ,0.1
9257  ,2.514e+08   ,2.4  ,1.5  ,0
9262  ,3.344e+08   ,0.5  ,-2.4  ,5
9264  ,4.617e+08   ,2.4  ,-0.13345  ,5
9272  ,6.361e+08   ,0.063638  ,2.4  ,5
9277  ,1.787e+08   ,-2.5  ,2.4  ,1.2
9279  ,5.958e+08   ,2.5  ,0.26073  ,4.9
9282  ,3.386e+08   ,1.2085  ,-2.5  ,4.8
9286  ,5.006e+08   ,0.9  ,-2.5  ,4.9
9292  ,5.631e+07   ,-2.4  ,2.4707  ,4.9707
9293  ,6.365e+07   ,-2.3015  ,2.4  ,5
9296  ,1.672e+08   ,-2.4  ,-2.1  ,5
9303  ,1.396e+08   ,-2.4  ,-1.9  ,5
9311  ,1.123e+08   ,-2.4  ,2.3  ,5
9313  ,2.615e+08   ,-2.4  ,0.1  ,5
9319  ,1.329e+08   ,-0.5  ,-2.4  ,0
9328  ,1.130e+08   ,-2.3  ,-2.5  ,1.5364
9334  ,1.686e+08   ,-2.3  ,2.5  ,0.1
9338  ,2.778e+08   ,-2.5  ,-2.4  ,2.4
9339  ,3.217e+08   ,-2.5  ,1.3  ,0.1
9341  ,2.906e+08   ,-2.3  ,-2.5  ,2.7424
9344  ,2.448e+08   ,-2.5  ,-2.4  ,2.2
9358  ,1.000e+09   ,-2.3  ,2.3  ,2.5
9364  ,1.597e+08   ,-2.5  ,-2.1  ,4.9
9367  ,2.203e+08   ,-2.4  ,-2.3  ,5
9374  ,1.818e+08   ,-2.4  ,-1.3  ,5
9378  ,1.974e+08   ,-2.5  ,2.4  ,1.8
9384  ,2.034e+08   ,2.3  ,-2.5  ,2.0162
9385  ,2.248e+08   ,-2.5  ,2.4  ,4.4
9389  ,2.021e+08   ,-2.5  ,2.4  ,2
9395  ,3.760e+08   ,2.4  ,-2.3015  ,5
9396  ,6.348e+07   ,-2.4  ,-1.7  ,0
9407  ,4.743e+08   ,-2.3  ,-1.4729  ,4.8
9411  ,1.606e+08   ,-2.5  ,-1.7  ,4.9
9423  ,1.935e+08   ,-2.4  ,-2.5  ,3.6
9432  ,3.385e+08   ,0.7  ,-2.4  ,5
9438  ,1.736e+08   ,-2.5  ,-0.9  ,4.9
9443  ,1.694e+08   ,-2.5  ,-0.3  ,4.9
9445  ,6.688e+07   ,-2.4707  ,2.4  ,4.9707
9448  ,2.836e+08   ,2.4  ,-1.1189  ,5
9453  ,3.065e+08   ,2.4  ,0.7  ,0
9455  ,3.352e+08   ,2.5  ,-2.4  ,2.6
9457  ,5.393e+08   ,2.3  ,-2.5  ,2.9838
9494  ,1.986e+08   ,-2.4  ,2.5  ,1
9500  ,4.377e+08   ,0.3  ,-2.5  ,4.9
9504  ,4.089e+08   ,0.3  ,-2.4  ,5
9506  ,2.547e+08   ,2.1  ,-2.5  ,0.1
9518  ,7.886e+07   ,-1.9  ,-2.5  ,0.1
9528  ,1.495e+08   ,2.3  ,-2.5  ,0.1
9531  ,2.927e+08   ,2.4707  ,-2.4707  ,0.1
9533  ,1.871e+08   ,2.4707  ,-2.4  ,0.029289
9534  ,2.173e+08   ,2.4  ,-2.4707  ,0.029289
9541  ,4.720e+08   ,0.5  ,-2.5  ,4.9
9544  ,1.714e+08   ,-0.5  ,-2.5  ,0.1
9559  ,1.387e+08   ,-2.5  ,-1.9  ,4.9
9562  ,1.789e+08   ,-2.5  ,2.4  ,4.6
9565  ,2.688e+08   ,-2.4  ,2.5  ,2
9571  ,4.626e+08   ,-2.5  ,-2.4  ,3.8
9574  ,1.938e+08   ,-2.4  ,-2.5  ,3.8
9577  ,1.917e+08   ,1.3  ,-2.5  ,0.1
9582  ,1.257e+08   ,-2.5  ,-0.9  ,0.1
9596  ,1.655e+08   ,2.1  ,2.4  ,0
9598  ,4.173e+08   ,-2.4  ,2.5  ,3.2
9602  ,2.071e+08   ,1.5  ,2.5  ,0.1
9610  ,9.407e+07   ,2.4  ,2.5  ,0.39564
9612  ,5.824e+08   ,-0.72473  ,2.5  ,4.9
9614  ,1.995e+08   ,1.7  ,2.5  ,0.1
9635  ,2.244e+08   ,2.5  ,1.7  ,0.1
9646  ,1.006e+08   ,2.3  ,2.5  ,0.1
9651  ,1.668e+10   ,2.1656  ,2.4888  ,4.9325
9653  ,2.736e+08   ,2.5  ,-1.316  ,4.9
9656  ,1.125e+08   ,-2.4  ,-1.7  ,5
9659  ,8.688e+08   ,2.3  ,-2.5  ,4.6765
9661  ,2.326e+08   ,2.3  ,-2.5  ,3.9531
9664  ,2.924e+08   ,-2.3  ,-2.4  ,5
9666  ,3.652e+08   ,1.9  ,-2.4  ,0
9677  ,2.732e+08   ,2.4  ,0.5  ,0
9678  ,1.285e+08   ,-2.5  ,-1.1  ,0.1
9680  ,3.214e+08   ,2.5  ,2.4  ,1.184
9681  ,4.580e+07   ,2.5  ,2.4  ,0.19855
9696  ,2.162e+08   ,-2.3  ,-2.5  ,2.0162
9698  ,1.959e+08   ,2.4  ,-2.3  ,0
9699  ,1.623e+08   ,-0.24243  ,-2.5  ,0.2
9701  ,1.782e+08   ,0.1  ,-2.4  ,0
9704  ,2.072e+08   ,-0.4838  ,-2.5  ,0.2
9718  ,1.822e+08   ,-0.72262  ,-2.5  ,0.2
9726  ,7.326e+08   ,2.3  ,-0.76628  ,0.2
9727  ,1.561e+08   ,-2.5  ,2.4  ,0.4
9730  ,1.442e+08   ,1.9433E-06  ,-2.5  ,4.8
9731  ,1.484e+08   ,-0.24243  ,-2.5  ,4.8
9732  ,2.464e+08   ,-2.5  ,2.4  ,2.2
9738  ,5.020e+08   ,-2.5  ,-2.4  ,4
9743  ,2.603e+08   ,-1.6937  ,-2.5  ,4.8
9744  ,1.906e+08   ,-2.4  ,-2.5  ,4
9750  ,8.803e+07   ,-1.7  ,-2.5  ,0.1
9752  ,6.743e+07   ,-1.6937  ,-2.5  ,0.2
9754  ,1.023e+08   ,-1.3  ,-2.4  ,0
9759  ,3.654e+07   ,-2.4707  ,2.4  ,0.029289
9760  ,3.305e+07   ,-2.4  ,2.4707  ,0.029289
9768  ,1.491e+08   ,2.3  ,-2.5  ,4.1937
9770  ,1.642e+08   ,1.9433E-06  ,-2.5  ,0.2
9771  ,2.924e+08   ,0.4838  ,-2.5  ,0.2
9772  ,5.605e+07   ,2.4  ,-2.5  ,0.2
9773  ,4.831e+08   ,2.4  ,-2.5  ,4.6
9776  ,4.593e+08   ,2.4  ,0.063638  ,5
9780  ,8.672e+08   ,0.65491  ,2.5  ,4.9
9781  ,7.113e+07   ,2.4  ,2.5  ,0.19855
9782  ,3.006e+08   ,-2.3  ,-2.5  ,2.9838
9786  ,8.692e+07   ,-1.2085  ,-2.5  ,0.2
9787  ,5.366e+07   ,-1.4531  ,-2.5  ,0.2
9790  ,1.636e+08   ,2.3  ,-2.4  ,0
9793  ,5.407e+09   ,2.0345  ,2.4  ,5
9797  ,2.397e+08   ,2.3  ,-2.5  ,1.5364
9798  ,9.527e+08   ,2.4  ,1.0491  ,5
9809  ,8.013e+08   ,2.4  ,2.5  ,3.352
