Date:  11:16, Monday, July 10, 2023
Model name: Hollow_DropBox
Study name: Drop Test_hollow_draft1(-Default-)
Plot type:  Stress1
Plot step: 6   time : 31.4662 Microseconds
Result Type: von Mises 


Node  ,Value (N/m^2)  ,X (in)  ,Y (in)  ,Z (in)
1  ,3.967e+09   ,2.5  ,2.1331  ,4.9
2  ,1.953e+10   ,2.4577  ,2.1908  ,4.9577
3  ,5.873e+09   ,2.4894  ,2.1331  ,4.9447
4  ,4.040e+09   ,2.1331  ,2.5  ,4.9
5  ,5.929e+09   ,2.1331  ,2.4894  ,4.9447
6  ,1.765e+10   ,2.1908  ,2.4577  ,4.9577
7  ,7.121e+07   ,-2.4  ,2.4  ,5
8  ,4.492e+07   ,-2.4  ,-2.4  ,5
9  ,4.260e+07   ,2.4  ,-2.4  ,5
10  ,4.010e+09   ,2.4  ,2.1331  ,5
11  ,4.445e+09   ,2.1331  ,2.4  ,5
12  ,4.799e+07   ,2.5  ,-2.4  ,4.9
13  ,3.925e+07   ,2.5  ,-2.4  ,0.1
14  ,6.830e+07   ,2.5  ,2.4  ,0.1
15  ,4.700e+09   ,2.5  ,2.4  ,4.6331
16  ,6.954e+07   ,2.4  ,2.5  ,0.1
17  ,3.937e+07   ,-2.4  ,2.5  ,0.1
18  ,5.969e+07   ,-2.4  ,2.5  ,4.9
19  ,4.593e+09   ,2.4  ,2.5  ,4.6331
20  ,4.620e+07   ,-2.5  ,2.4  ,0.1
21  ,5.448e+05   ,-2.5  ,-2.4  ,0.1
22  ,3.240e+07   ,-2.5  ,-2.4  ,4.9
23  ,4.016e+07   ,-2.5  ,2.4  ,4.9
24  ,7.660e+05   ,-2.3  ,-2.5  ,0.2
25  ,7.377e+07   ,-2.3  ,-2.5  ,4.8
26  ,8.533e+07   ,2.3  ,-2.5  ,4.8
27  ,6.599e+07   ,2.3  ,-2.5  ,0.2
28  ,5.608e+07   ,-2.4  ,-2.5  ,4.9
29  ,4.650e+07   ,2.4  ,-2.5  ,4.9
30  ,8.120e+05   ,-2.4  ,-2.5  ,0.1
31  ,4.472e+07   ,2.4  ,-2.5  ,0.1
32  ,2.707e+07   ,2.4  ,-2.4  ,0
33  ,6.232e+07   ,2.4  ,2.4  ,0
34  ,5.048e+05   ,-2.4  ,-2.4  ,0
35  ,4.676e+07   ,-2.4  ,2.4  ,0
36  ,1.653e+10   ,2.4577  ,2.4577  ,4.6908
37  ,7.961e+07   ,-2.3  ,2.3  ,4.8
38  ,4.904e+09   ,2.1599  ,2.3  ,4.8
39  ,4.841e+09   ,2.3  ,2.1599  ,4.8
40  ,4.770e+09   ,2.3  ,2.3  ,4.6599
41  ,7.936e+07   ,2.3  ,2.3  ,0.2
42  ,8.310e+07   ,-2.3  ,2.3  ,0.2
43  ,7.870e+07   ,-2.4  ,2.2  ,5
44  ,1.167e+08   ,-2.4  ,2  ,5
45  ,9.424e+07   ,-2.4  ,1.8  ,5
46  ,9.320e+07   ,-2.4  ,1.6  ,5
47  ,9.154e+07   ,-2.4  ,1.4  ,5
48  ,1.072e+08   ,-2.4  ,1.2  ,5
49  ,1.107e+08   ,-2.4  ,1  ,5
50  ,1.588e+08   ,-2.4  ,0.8  ,5
51  ,1.349e+08   ,-2.4  ,0.6  ,5
52  ,1.102e+08   ,-2.4  ,0.4  ,5
53  ,1.065e+08   ,-2.4  ,0.2  ,5
54  ,7.986e+07   ,-2.4  ,5.8879E-16  ,5
55  ,7.931e+07   ,-2.4  ,-0.2  ,5
56  ,1.030e+08   ,-2.4  ,-0.4  ,5
57  ,1.348e+08   ,-2.4  ,-0.6  ,5
58  ,1.477e+08   ,-2.4  ,-0.8  ,5
59  ,1.476e+08   ,-2.4  ,-1  ,5
60  ,1.130e+08   ,-2.4  ,-1.2  ,5
61  ,8.791e+07   ,-2.4  ,-1.4  ,5
62  ,7.248e+07   ,-2.4  ,-1.6  ,5
63  ,8.446e+07   ,-2.4  ,-1.8  ,5
64  ,9.173e+07   ,-2.4  ,-2  ,5
65  ,7.754e+07   ,-2.4  ,-2.2  ,5
66  ,4.374e+07   ,-2.2  ,-2.4  ,5
67  ,8.820e+07   ,-2  ,-2.4  ,5
68  ,1.226e+08   ,-1.8  ,-2.4  ,5
69  ,1.300e+08   ,-1.6  ,-2.4  ,5
70  ,1.439e+08   ,-1.4  ,-2.4  ,5
71  ,1.497e+08   ,-1.2  ,-2.4  ,5
72  ,1.403e+08   ,-1  ,-2.4  ,5
73  ,1.350e+08   ,-0.8  ,-2.4  ,5
74  ,1.181e+08   ,-0.6  ,-2.4  ,5
75  ,9.500e+07   ,-0.4  ,-2.4  ,5
76  ,6.008e+07   ,-0.2  ,-2.4  ,5
77  ,6.766e+07   ,-5.8879E-16  ,-2.4  ,5
78  ,1.013e+08   ,0.2  ,-2.4  ,5
79  ,1.254e+08   ,0.4  ,-2.4  ,5
80  ,1.408e+08   ,0.6  ,-2.4  ,5
81  ,1.468e+08   ,0.8  ,-2.4  ,5
82  ,1.231e+08   ,1  ,-2.4  ,5
83  ,9.972e+07   ,1.2  ,-2.4  ,5
84  ,8.098e+07   ,1.4  ,-2.4  ,5
85  ,1.295e+08   ,1.6  ,-2.4  ,5
86  ,1.499e+08   ,1.8  ,-2.4  ,5
87  ,1.066e+08   ,2  ,-2.4  ,5
88  ,2.695e+07   ,2.2  ,-2.4  ,5
89  ,5.628e+07   ,2.4  ,-2.2029  ,5
90  ,6.893e+07   ,2.4  ,-2.0058  ,5
91  ,5.542e+07   ,2.4  ,-1.8087  ,5
92  ,1.105e+08   ,2.4  ,-1.6116  ,5
93  ,1.648e+08   ,2.4  ,-1.4145  ,5
94  ,2.248e+08   ,2.4  ,-1.2175  ,5
95  ,1.037e+08   ,2.4  ,-1.0204  ,5
96  ,1.243e+08   ,2.4  ,-0.82327  ,5
97  ,2.122e+08   ,2.4  ,-0.62618  ,5
98  ,3.595e+08   ,2.4  ,-0.42909  ,5
99  ,2.913e+08   ,2.4  ,-0.232  ,5
100  ,2.665e+08   ,2.4  ,-0.034907  ,5
101  ,3.393e+08   ,2.4  ,0.16218  ,5
102  ,4.593e+08   ,2.4  ,0.35927  ,5
103  ,7.262e+08   ,2.4  ,0.55637  ,5
104  ,9.664e+08   ,2.4  ,0.75346  ,5
105  ,8.519e+08   ,2.4  ,0.95055  ,5
106  ,7.937e+08   ,2.4  ,1.1476  ,5
107  ,1.111e+09   ,2.4  ,1.3447  ,5
108  ,1.557e+09   ,2.4  ,1.5418  ,5
109  ,1.996e+09   ,2.4  ,1.7389  ,5
110  ,3.236e+09   ,2.4  ,1.936  ,5
111  ,4.462e+09   ,2.2665  ,2.2665  ,5
112  ,3.316e+09   ,1.936  ,2.4  ,5
113  ,1.879e+09   ,1.7389  ,2.4  ,5
114  ,1.407e+09   ,1.5418  ,2.4  ,5
115  ,9.830e+08   ,1.3447  ,2.4  ,5
116  ,7.627e+08   ,1.1476  ,2.4  ,5
117  ,7.307e+08   ,0.95055  ,2.4  ,5
118  ,1.016e+09   ,0.75346  ,2.4  ,5
119  ,8.208e+08   ,0.55637  ,2.4  ,5
120  ,6.118e+08   ,0.35927  ,2.4  ,5
121  ,4.764e+08   ,0.16218  ,2.4  ,5
122  ,3.933e+08   ,-0.034907  ,2.4  ,5
123  ,3.846e+08   ,-0.232  ,2.4  ,5
124  ,2.051e+08   ,-0.42909  ,2.4  ,5
125  ,1.490e+08   ,-0.62618  ,2.4  ,5
126  ,8.484e+07   ,-0.82327  ,2.4  ,5
127  ,4.564e+07   ,-1.0204  ,2.4  ,5
128  ,4.749e+07   ,-1.2175  ,2.4  ,5
129  ,4.821e+07   ,-1.4145  ,2.4  ,5
130  ,1.138e+08   ,-1.6116  ,2.4  ,5
131  ,1.285e+08   ,-1.8087  ,2.4  ,5
132  ,1.367e+08   ,-2.0058  ,2.4  ,5
133  ,1.257e+08   ,-2.2029  ,2.4  ,5
294  ,5.112e+07   ,2.5  ,-2.2029  ,4.9
295  ,7.168e+07   ,2.5  ,-2.0058  ,4.9
296  ,4.743e+07   ,2.5  ,-1.8087  ,4.9
297  ,8.974e+07   ,2.5  ,-1.6116  ,4.9
298  ,2.070e+08   ,2.5  ,-1.4145  ,4.9
299  ,2.035e+08   ,2.5  ,-1.2175  ,4.9
300  ,7.920e+07   ,2.5  ,-1.0204  ,4.9
301  ,1.027e+08   ,2.5  ,-0.82327  ,4.9
302  ,2.240e+08   ,2.5  ,-0.62618  ,4.9
303  ,3.377e+08   ,2.5  ,-0.42909  ,4.9
304  ,3.024e+08   ,2.5  ,-0.232  ,4.9
305  ,3.046e+08   ,2.5  ,-0.034907  ,4.9
306  ,4.079e+08   ,2.5  ,0.16218  ,4.9
307  ,4.648e+08   ,2.5  ,0.35927  ,4.9
308  ,6.838e+08   ,2.5  ,0.55637  ,4.9
309  ,9.297e+08   ,2.5  ,0.75346  ,4.9
310  ,8.681e+08   ,2.5  ,0.95055  ,4.9
311  ,9.521e+08   ,2.5  ,1.1476  ,4.9
312  ,1.155e+09   ,2.5  ,1.3447  ,4.9
313  ,1.569e+09   ,2.5  ,1.5418  ,4.9
314  ,2.289e+09   ,2.5  ,1.7389  ,4.9
315  ,3.479e+09   ,2.5  ,1.936  ,4.9
316  ,3.758e+07   ,2.5  ,-2.4  ,4.7
317  ,1.113e+08   ,2.5  ,-2.4  ,4.5
318  ,1.384e+08   ,2.5  ,-2.4  ,4.3
319  ,9.728e+07   ,2.5  ,-2.4  ,4.1
320  ,7.961e+07   ,2.5  ,-2.4  ,3.9
321  ,1.243e+08   ,2.5  ,-2.4  ,3.7
322  ,1.479e+08   ,2.5  ,-2.4  ,3.5
323  ,1.378e+08   ,2.5  ,-2.4  ,3.3
324  ,1.131e+08   ,2.5  ,-2.4  ,3.1
325  ,1.000e+08   ,2.5  ,-2.4  ,2.9
326  ,7.701e+07   ,2.5  ,-2.4  ,2.7
327  ,5.336e+07   ,2.5  ,-2.4  ,2.5
328  ,5.113e+07   ,2.5  ,-2.4  ,2.3
329  ,7.803e+07   ,2.5  ,-2.4  ,2.1
330  ,9.814e+07   ,2.5  ,-2.4  ,1.9
331  ,1.187e+08   ,2.5  ,-2.4  ,1.7
332  ,1.305e+08   ,2.5  ,-2.4  ,1.5
333  ,1.508e+08   ,2.5  ,-2.4  ,1.3
334  ,1.443e+08   ,2.5  ,-2.4  ,1.1
335  ,1.264e+08   ,2.5  ,-2.4  ,0.9
336  ,1.036e+08   ,2.5  ,-2.4  ,0.7
337  ,7.498e+07   ,2.5  ,-2.4  ,0.5
338  ,5.103e+07   ,2.5  ,-2.4  ,0.3
339  ,6.649e+07   ,2.5  ,-2.2  ,0.1
340  ,7.598e+07   ,2.5  ,-2  ,0.1
341  ,7.679e+07   ,2.5  ,-1.8  ,0.1
342  ,7.578e+07   ,2.5  ,-1.6  ,0.1
343  ,8.208e+07   ,2.5  ,-1.4  ,0.1
344  ,1.184e+08   ,2.5  ,-1.2  ,0.1
345  ,1.471e+08   ,2.5  ,-1  ,0.1
346  ,1.428e+08   ,2.5  ,-0.8  ,0.1
347  ,1.190e+08   ,2.5  ,-0.6  ,0.1
348  ,7.990e+07   ,2.5  ,-0.4  ,0.1
349  ,6.328e+07   ,2.5  ,-0.2  ,0.1
350  ,7.550e+07   ,2.5  ,-1.7664E-15  ,0.1
351  ,8.827e+07   ,2.5  ,0.2  ,0.1
352  ,1.473e+08   ,2.5  ,0.4  ,0.1
353  ,1.452e+08   ,2.5  ,0.6  ,0.1
354  ,1.561e+08   ,2.5  ,0.8  ,0.1
355  ,1.280e+08   ,2.5  ,1  ,0.1
356  ,1.070e+08   ,2.5  ,1.2  ,0.1
357  ,9.841e+07   ,2.5  ,1.4  ,0.1
358  ,1.073e+08   ,2.5  ,1.6  ,0.1
359  ,7.305e+07   ,2.5  ,1.8  ,0.1
360  ,7.683e+07   ,2.5  ,2  ,0.1
361  ,1.049e+08   ,2.5  ,2.2  ,0.1
362  ,3.330e+09   ,2.5  ,2.4  ,4.436
363  ,2.169e+09   ,2.5  ,2.4  ,4.2389
364  ,1.365e+09   ,2.5  ,2.4  ,4.0418
365  ,1.082e+09   ,2.5  ,2.4  ,3.8447
366  ,7.832e+08   ,2.5  ,2.4  ,3.6476
367  ,8.434e+08   ,2.5  ,2.4  ,3.4505
368  ,1.030e+09   ,2.5  ,2.4  ,3.2535
369  ,8.495e+08   ,2.5  ,2.4  ,3.0564
370  ,5.803e+08   ,2.5  ,2.4  ,2.8593
371  ,4.196e+08   ,2.5  ,2.4  ,2.6622
372  ,3.707e+08   ,2.5  ,2.4  ,2.4651
373  ,2.732e+08   ,2.5  ,2.4  ,2.268
374  ,2.257e+08   ,2.5  ,2.4  ,2.0709
375  ,1.600e+08   ,2.5  ,2.4  ,1.8738
376  ,1.492e+08   ,2.5  ,2.4  ,1.6767
377  ,7.106e+07   ,2.5  ,2.4  ,1.4796
378  ,6.083e+07   ,2.5  ,2.4  ,1.2825
379  ,1.030e+08   ,2.5  ,2.4  ,1.0855
380  ,1.611e+08   ,2.5  ,2.4  ,0.88836
381  ,1.977e+08   ,2.5  ,2.4  ,0.69127
382  ,1.870e+08   ,2.5  ,2.4  ,0.49418
383  ,1.162e+08   ,2.5  ,2.4  ,0.29709
384  ,4.387e+09   ,2.5  ,2.2665  ,4.7665
544  ,7.222e+07   ,2.2  ,2.5  ,0.1
545  ,6.417e+07   ,2  ,2.5  ,0.1
546  ,7.058e+07   ,1.8  ,2.5  ,0.1
547  ,8.082e+07   ,1.6  ,2.5  ,0.1
548  ,8.258e+07   ,1.4  ,2.5  ,0.1
549  ,1.034e+08   ,1.2  ,2.5  ,0.1
550  ,9.227e+07   ,1  ,2.5  ,0.1
551  ,1.240e+08   ,0.8  ,2.5  ,0.1
552  ,1.555e+08   ,0.6  ,2.5  ,0.1
553  ,9.363e+07   ,0.4  ,2.5  ,0.1
554  ,8.612e+07   ,0.2  ,2.5  ,0.1
555  ,8.425e+07   ,5.8879E-16  ,2.5  ,0.1
556  ,1.293e+08   ,-0.2  ,2.5  ,0.1
557  ,8.708e+07   ,-0.4  ,2.5  ,0.1
558  ,8.908e+07   ,-0.6  ,2.5  ,0.1
559  ,1.184e+08   ,-0.8  ,2.5  ,0.1
560  ,1.230e+08   ,-1  ,2.5  ,0.1
561  ,1.319e+08   ,-1.2  ,2.5  ,0.1
562  ,1.267e+08   ,-1.4  ,2.5  ,0.1
563  ,1.202e+08   ,-1.6  ,2.5  ,0.1
564  ,1.058e+08   ,-1.8  ,2.5  ,0.1
565  ,7.736e+07   ,-2  ,2.5  ,0.1
566  ,4.357e+07   ,-2.2  ,2.5  ,0.1
567  ,5.048e+07   ,-2.4  ,2.5  ,4.7
568  ,5.843e+07   ,-2.4  ,2.5  ,4.5
569  ,6.072e+07   ,-2.4  ,2.5  ,4.3
570  ,6.709e+07   ,-2.4  ,2.5  ,4.1
571  ,8.284e+07   ,-2.4  ,2.5  ,3.9
572  ,1.070e+08   ,-2.4  ,2.5  ,3.7
573  ,1.212e+08   ,-2.4  ,2.5  ,3.5
574  ,1.223e+08   ,-2.4  ,2.5  ,3.3
575  ,1.325e+08   ,-2.4  ,2.5  ,3.1
576  ,1.234e+08   ,-2.4  ,2.5  ,2.9
577  ,1.112e+08   ,-2.4  ,2.5  ,2.7
578  ,1.097e+08   ,-2.4  ,2.5  ,2.5
579  ,8.939e+07   ,-2.4  ,2.5  ,2.3
580  ,8.470e+07   ,-2.4  ,2.5  ,2.1
581  ,9.912e+07   ,-2.4  ,2.5  ,1.9
582  ,1.376e+08   ,-2.4  ,2.5  ,1.7
583  ,1.211e+08   ,-2.4  ,2.5  ,1.5
584  ,1.222e+08   ,-2.4  ,2.5  ,1.3
585  ,1.137e+08   ,-2.4  ,2.5  ,1.1
586  ,1.101e+08   ,-2.4  ,2.5  ,0.9
587  ,1.034e+08   ,-2.4  ,2.5  ,0.7
588  ,8.097e+07   ,-2.4  ,2.5  ,0.5
589  ,5.425e+07   ,-2.4  ,2.5  ,0.3
590  ,3.503e+09   ,1.936  ,2.5  ,4.9
591  ,1.810e+09   ,1.7389  ,2.5  ,4.9
592  ,1.304e+09   ,1.5418  ,2.5  ,4.9
593  ,9.407e+08   ,1.3447  ,2.5  ,4.9
594  ,7.634e+08   ,1.1476  ,2.5  ,4.9
595  ,8.186e+08   ,0.95055  ,2.5  ,4.9
596  ,1.010e+09   ,0.75346  ,2.5  ,4.9
597  ,8.356e+08   ,0.55637  ,2.5  ,4.9
598  ,6.347e+08   ,0.35927  ,2.5  ,4.9
599  ,4.923e+08   ,0.16218  ,2.5  ,4.9
600  ,3.743e+08   ,-0.034907  ,2.5  ,4.9
601  ,3.167e+08   ,-0.232  ,2.5  ,4.9
602  ,2.640e+08   ,-0.42909  ,2.5  ,4.9
603  ,1.657e+08   ,-0.62618  ,2.5  ,4.9
604  ,5.276e+07   ,-0.82327  ,2.5  ,4.9
605  ,4.526e+07   ,-1.0204  ,2.5  ,4.9
606  ,6.153e+07   ,-1.2175  ,2.5  ,4.9
607  ,6.301e+07   ,-1.4145  ,2.5  ,4.9
608  ,1.054e+08   ,-1.6116  ,2.5  ,4.9
609  ,1.331e+08   ,-1.8087  ,2.5  ,4.9
610  ,1.383e+08   ,-2.0058  ,2.5  ,4.9
611  ,1.352e+08   ,-2.2029  ,2.5  ,4.9
612  ,4.502e+09   ,2.2665  ,2.5  ,4.7665
613  ,3.191e+09   ,2.4  ,2.5  ,4.436
614  ,1.994e+09   ,2.4  ,2.5  ,4.2389
615  ,1.318e+09   ,2.4  ,2.5  ,4.0418
616  ,1.054e+09   ,2.4  ,2.5  ,3.8447
617  ,8.840e+08   ,2.4  ,2.5  ,3.6476
618  ,8.661e+08   ,2.4  ,2.5  ,3.4505
619  ,1.032e+09   ,2.4  ,2.5  ,3.2535
620  ,8.783e+08   ,2.4  ,2.5  ,3.0564
621  ,5.714e+08   ,2.4  ,2.5  ,2.8593
622  ,4.183e+08   ,2.4  ,2.5  ,2.6622
623  ,3.083e+08   ,2.4  ,2.5  ,2.4651
624  ,2.389e+08   ,2.4  ,2.5  ,2.268
625  ,1.876e+08   ,2.4  ,2.5  ,2.0709
626  ,1.857e+08   ,2.4  ,2.5  ,1.8738
627  ,1.870e+08   ,2.4  ,2.5  ,1.6767
628  ,5.206e+07   ,2.4  ,2.5  ,1.4796
629  ,7.498e+07   ,2.4  ,2.5  ,1.2825
630  ,1.140e+08   ,2.4  ,2.5  ,1.0855
631  ,1.669e+08   ,2.4  ,2.5  ,0.88836
632  ,2.035e+08   ,2.4  ,2.5  ,0.69127
633  ,1.971e+08   ,2.4  ,2.5  ,0.49418
634  ,1.206e+08   ,2.4  ,2.5  ,0.29709
796  ,5.001e+07   ,-2.5  ,2.2  ,0.1
797  ,2.861e+07   ,-2.5  ,2  ,0.1
798  ,2.082e+07   ,-2.5  ,1.8  ,0.1
799  ,1.596e+07   ,-2.5  ,1.6  ,0.1
800  ,1.644e+07   ,-2.5  ,1.4  ,0.1
801  ,1.535e+07   ,-2.5  ,1.2  ,0.1
802  ,1.329e+07   ,-2.5  ,1  ,0.1
803  ,1.021e+07   ,-2.5  ,0.8  ,0.1
804  ,4.815e+06   ,-2.5  ,0.6  ,0.1
805  ,3.811e+06   ,-2.5  ,0.4  ,0.1
806  ,2.610e+06   ,-2.5  ,0.2  ,0.1
807  ,3.480e+06   ,-2.5  ,5.8879E-16  ,0.1
808  ,7.277e+06   ,-2.5  ,-0.2  ,0.1
809  ,8.042e+06   ,-2.5  ,-0.4  ,0.1
810  ,1.356e+06   ,-2.5  ,-0.6  ,0.1
811  ,3.478e+06   ,-2.5  ,-0.8  ,0.1
812  ,4.312e+06   ,-2.5  ,-1  ,0.1
813  ,2.638e+06   ,-2.5  ,-1.2  ,0.1
814  ,1.716e+06   ,-2.5  ,-1.4  ,0.1
815  ,1.603e+06   ,-2.5  ,-1.6  ,0.1
816  ,8.871e+05   ,-2.5  ,-1.8  ,0.1
817  ,7.495e+05   ,-2.5  ,-2  ,0.1
818  ,6.189e+05   ,-2.5  ,-2.2  ,0.1
819  ,2.834e+07   ,-2.5  ,-2.4  ,4.7
820  ,2.530e+07   ,-2.5  ,-2.4  ,4.5
821  ,1.644e+07   ,-2.5  ,-2.4  ,4.3
822  ,9.191e+06   ,-2.5  ,-2.4  ,4.1
823  ,4.912e+06   ,-2.5  ,-2.4  ,3.9
824  ,5.854e+06   ,-2.5  ,-2.4  ,3.7
825  ,5.888e+06   ,-2.5  ,-2.4  ,3.5
826  ,4.049e+06   ,-2.5  ,-2.4  ,3.3
827  ,1.825e+06   ,-2.5  ,-2.4  ,3.1
828  ,2.633e+06   ,-2.5  ,-2.4  ,2.9
829  ,2.246e+06   ,-2.5  ,-2.4  ,2.7
830  ,1.438e+06   ,-2.5  ,-2.4  ,2.5
831  ,1.388e+06   ,-2.5  ,-2.4  ,2.3
832  ,1.180e+06   ,-2.5  ,-2.4  ,2.1
833  ,7.633e+05   ,-2.5  ,-2.4  ,1.9
834  ,1.501e+06   ,-2.5  ,-2.4  ,1.7
835  ,1.847e+06   ,-2.5  ,-2.4  ,1.5
836  ,1.282e+06   ,-2.5  ,-2.4  ,1.3
837  ,8.429e+05   ,-2.5  ,-2.4  ,1.1
838  ,5.467e+05   ,-2.5  ,-2.4  ,0.9
839  ,5.653e+05   ,-2.5  ,-2.4  ,0.7
840  ,7.496e+05   ,-2.5  ,-2.4  ,0.5
841  ,6.007e+05   ,-2.5  ,-2.4  ,0.3
842  ,8.496e+07   ,-2.5  ,2.2  ,4.9
843  ,8.780e+07   ,-2.5  ,2  ,4.9
844  ,8.220e+07   ,-2.5  ,1.8  ,4.9
845  ,8.185e+07   ,-2.5  ,1.6  ,4.9
846  ,7.342e+07   ,-2.5  ,1.4  ,4.9
847  ,7.645e+07   ,-2.5  ,1.2  ,4.9
848  ,9.769e+07   ,-2.5  ,1  ,4.9
849  ,1.368e+08   ,-2.5  ,0.8  ,4.9
850  ,9.235e+07   ,-2.5  ,0.6  ,4.9
851  ,8.391e+07   ,-2.5  ,0.4  ,4.9
852  ,9.233e+07   ,-2.5  ,0.2  ,4.9
853  ,8.667e+07   ,-2.5  ,5.8879E-16  ,4.9
854  ,7.878e+07   ,-2.5  ,-0.2  ,4.9
855  ,8.547e+07   ,-2.5  ,-0.4  ,4.9
856  ,1.014e+08   ,-2.5  ,-0.6  ,4.9
857  ,1.183e+08   ,-2.5  ,-0.8  ,4.9
858  ,1.320e+08   ,-2.5  ,-1  ,4.9
859  ,1.267e+08   ,-2.5  ,-1.2  ,4.9
860  ,9.429e+07   ,-2.5  ,-1.4  ,4.9
861  ,7.392e+07   ,-2.5  ,-1.6  ,4.9
862  ,8.182e+07   ,-2.5  ,-1.8  ,4.9
863  ,7.429e+07   ,-2.5  ,-2  ,4.9
864  ,6.028e+07   ,-2.5  ,-2.2  ,4.9
865  ,6.611e+07   ,-2.5  ,2.4  ,4.7
866  ,1.077e+08   ,-2.5  ,2.4  ,4.5
867  ,1.279e+08   ,-2.5  ,2.4  ,4.3
868  ,8.952e+07   ,-2.5  ,2.4  ,4.1
869  ,1.349e+08   ,-2.5  ,2.4  ,3.9
870  ,1.269e+08   ,-2.5  ,2.4  ,3.7
871  ,1.175e+08   ,-2.5  ,2.4  ,3.5
872  ,1.193e+08   ,-2.5  ,2.4  ,3.3
873  ,1.105e+08   ,-2.5  ,2.4  ,3.1
874  ,1.395e+08   ,-2.5  ,2.4  ,2.9
875  ,1.044e+08   ,-2.5  ,2.4  ,2.7
876  ,8.815e+07   ,-2.5  ,2.4  ,2.5
877  ,6.068e+07   ,-2.5  ,2.4  ,2.3
878  ,5.723e+07   ,-2.5  ,2.4  ,2.1
879  ,8.602e+07   ,-2.5  ,2.4  ,1.9
880  ,1.275e+08   ,-2.5  ,2.4  ,1.7
881  ,1.162e+08   ,-2.5  ,2.4  ,1.5
882  ,1.033e+08   ,-2.5  ,2.4  ,1.3
883  ,1.032e+08   ,-2.5  ,2.4  ,1.1
884  ,9.948e+07   ,-2.5  ,2.4  ,0.9
885  ,9.303e+07   ,-2.5  ,2.4  ,0.7
886  ,7.733e+07   ,-2.5  ,2.4  ,0.5
887  ,6.413e+07   ,-2.5  ,2.4  ,0.3
1044  ,1.021e+06   ,-2.3  ,-2.5  ,0.44697
1045  ,4.801e+05   ,-2.3  ,-2.5  ,0.68705
1046  ,8.811e+05   ,-2.3  ,-2.5  ,0.92554
1047  ,9.590e+05   ,-2.3  ,-2.5  ,1.1682
1048  ,5.810e+05   ,-2.3  ,-2.5  ,1.4148
1049  ,7.960e+05   ,-2.3  ,-2.5  ,1.6581
1050  ,6.083e+05   ,-2.3  ,-2.5  ,1.8967
1051  ,1.825e+06   ,-2.3  ,-2.5  ,2.1357
1052  ,2.586e+06   ,-2.3  ,-2.5  ,2.3794
1053  ,2.184e+06   ,-2.3  ,-2.5  ,2.6206
1054  ,2.735e+06   ,-2.3  ,-2.5  ,2.8643
1055  ,4.103e+06   ,-2.3  ,-2.5  ,3.1033
1056  ,4.068e+06   ,-2.3  ,-2.5  ,3.342
1057  ,5.410e+06   ,-2.3  ,-2.5  ,3.5852
1058  ,7.668e+06   ,-2.3  ,-2.5  ,3.8318
1059  ,7.235e+06   ,-2.3  ,-2.5  ,4.0745
1060  ,2.878e+06   ,-2.3  ,-2.5  ,4.3129
1061  ,2.300e+07   ,-2.3  ,-2.5  ,4.553
1062  ,8.992e+07   ,-2.053  ,-2.5  ,4.8
1063  ,1.001e+08   ,-1.8129  ,-2.5  ,4.8
1064  ,1.200e+08   ,-1.5745  ,-2.5  ,4.8
1065  ,1.165e+08   ,-1.3318  ,-2.5  ,4.8
1066  ,9.636e+07   ,-1.0852  ,-2.5  ,4.8
1067  ,1.081e+08   ,-0.84195  ,-2.5  ,4.8
1068  ,1.046e+08   ,-0.60329  ,-2.5  ,4.8
1069  ,8.604e+07   ,-0.3643  ,-2.5  ,4.8
1070  ,6.990e+07   ,-0.12055  ,-2.5  ,4.8
1071  ,5.170e+07   ,0.12056  ,-2.5  ,4.8
1072  ,5.290e+07   ,0.3643  ,-2.5  ,4.8
1073  ,8.261e+07   ,0.6033  ,-2.5  ,4.8
1074  ,1.002e+08   ,0.84195  ,-2.5  ,4.8
1075  ,1.394e+08   ,1.0852  ,-2.5  ,4.8
1076  ,1.719e+08   ,1.3318  ,-2.5  ,4.8
1077  ,1.204e+08   ,1.5745  ,-2.5  ,4.8
1078  ,7.791e+07   ,1.8129  ,-2.5  ,4.8
1079  ,7.095e+07   ,2.053  ,-2.5  ,4.8
1080  ,6.559e+07   ,2.3  ,-2.5  ,4.553
1081  ,6.364e+07   ,2.3  ,-2.5  ,4.3129
1082  ,1.258e+08   ,2.3  ,-2.5  ,4.0745
1083  ,1.641e+08   ,2.3  ,-2.5  ,3.8318
1084  ,1.192e+08   ,2.3  ,-2.5  ,3.5852
1085  ,7.703e+07   ,2.3  ,-2.5  ,3.3419
1086  ,6.722e+07   ,2.3  ,-2.5  ,3.1033
1087  ,4.212e+07   ,2.3  ,-2.5  ,2.8643
1088  ,4.322e+07   ,2.3  ,-2.5  ,2.6206
1089  ,5.214e+07   ,2.3  ,-2.5  ,2.3794
1090  ,6.938e+07   ,2.3  ,-2.5  ,2.1357
1091  ,9.828e+07   ,2.3  ,-2.5  ,1.8967
1092  ,1.031e+08   ,2.3  ,-2.5  ,1.658
1093  ,9.160e+07   ,2.3  ,-2.5  ,1.4148
1094  ,1.146e+08   ,2.3  ,-2.5  ,1.1682
1095  ,1.272e+08   ,2.3  ,-2.5  ,0.92554
1096  ,1.098e+08   ,2.3  ,-2.5  ,0.68705
1097  ,8.298e+07   ,2.3  ,-2.5  ,0.44697
1098  ,1.138e+06   ,-2.053  ,-2.5  ,0.2
1099  ,4.861e+05   ,-1.8129  ,-2.5  ,0.2
1100  ,1.613e+06   ,-1.5745  ,-2.5  ,0.2
1101  ,1.590e+06   ,-1.3318  ,-2.5  ,0.2
1102  ,1.117e+06   ,-1.0852  ,-2.5  ,0.2
1103  ,1.593e+06   ,-0.84195  ,-2.5  ,0.2
1104  ,9.854e+05   ,-0.60329  ,-2.5  ,0.2
1105  ,7.905e+05   ,-0.3643  ,-2.5  ,0.2
1106  ,1.430e+06   ,-0.12055  ,-2.5  ,0.2
1107  ,1.896e+06   ,0.12056  ,-2.5  ,0.2
1108  ,2.526e+06   ,0.3643  ,-2.5  ,0.2
1109  ,4.639e+06   ,0.6033  ,-2.5  ,0.2
1110  ,6.119e+06   ,0.84195  ,-2.5  ,0.2
1111  ,4.889e+06   ,1.0852  ,-2.5  ,0.2
1112  ,8.417e+06   ,1.3318  ,-2.5  ,0.2
1113  ,1.017e+07   ,1.5745  ,-2.5  ,0.2
1114  ,4.559e+06   ,1.8129  ,-2.5  ,0.2
1115  ,1.274e+07   ,2.053  ,-2.5  ,0.2
1116  ,4.532e+07   ,-2.2  ,-2.5  ,4.9
1117  ,9.613e+07   ,-2  ,-2.5  ,4.9
1118  ,1.095e+08   ,-1.8  ,-2.5  ,4.9
1119  ,1.226e+08   ,-1.6  ,-2.5  ,4.9
1120  ,1.375e+08   ,-1.4  ,-2.5  ,4.9
1121  ,1.348e+08   ,-1.2  ,-2.5  ,4.9
1122  ,1.272e+08   ,-1  ,-2.5  ,4.9
1123  ,1.287e+08   ,-0.8  ,-2.5  ,4.9
1124  ,1.006e+08   ,-0.6  ,-2.5  ,4.9
1125  ,8.202e+07   ,-0.4  ,-2.5  ,4.9
1126  ,6.508e+07   ,-0.2  ,-2.5  ,4.9
1127  ,6.496e+07   ,-1.7664E-15  ,-2.5  ,4.9
1128  ,7.528e+07   ,0.2  ,-2.5  ,4.9
1129  ,9.146e+07   ,0.4  ,-2.5  ,4.9
1130  ,9.370e+07   ,0.6  ,-2.5  ,4.9
1131  ,1.092e+08   ,0.8  ,-2.5  ,4.9
1132  ,1.209e+08   ,1  ,-2.5  ,4.9
1133  ,1.223e+08   ,1.2  ,-2.5  ,4.9
1134  ,1.240e+08   ,1.4  ,-2.5  ,4.9
1135  ,1.260e+08   ,1.6  ,-2.5  ,4.9
1136  ,1.178e+08   ,1.8  ,-2.5  ,4.9
1137  ,1.040e+08   ,2  ,-2.5  ,4.9
1138  ,4.859e+07   ,2.2  ,-2.5  ,4.9
1139  ,2.969e+07   ,-2.4  ,-2.5  ,4.7
1140  ,1.166e+07   ,-2.4  ,-2.5  ,4.5
1141  ,9.838e+06   ,-2.4  ,-2.5  ,4.3
1142  ,8.574e+06   ,-2.4  ,-2.5  ,4.1
1143  ,7.125e+06   ,-2.4  ,-2.5  ,3.9
1144  ,6.585e+06   ,-2.4  ,-2.5  ,3.7
1145  ,5.105e+06   ,-2.4  ,-2.5  ,3.5
1146  ,3.488e+06   ,-2.4  ,-2.5  ,3.3
1147  ,2.900e+06   ,-2.4  ,-2.5  ,3.1
1148  ,2.808e+06   ,-2.4  ,-2.5  ,2.9
1149  ,2.087e+06   ,-2.4  ,-2.5  ,2.7
1150  ,1.965e+06   ,-2.4  ,-2.5  ,2.5
1151  ,2.010e+06   ,-2.4  ,-2.5  ,2.3
1152  ,1.598e+06   ,-2.4  ,-2.5  ,2.1
1153  ,7.692e+05   ,-2.4  ,-2.5  ,1.9
1154  ,8.408e+05   ,-2.4  ,-2.5  ,1.7
1155  ,1.156e+06   ,-2.4  ,-2.5  ,1.5
1156  ,8.918e+05   ,-2.4  ,-2.5  ,1.3
1157  ,8.651e+05   ,-2.4  ,-2.5  ,1.1
1158  ,5.430e+05   ,-2.4  ,-2.5  ,0.9
1159  ,2.680e+05   ,-2.4  ,-2.5  ,0.7
1160  ,5.916e+05   ,-2.4  ,-2.5  ,0.5
1161  ,1.115e+06   ,-2.4  ,-2.5  ,0.3
1162  ,5.948e+05   ,-2.2  ,-2.5  ,0.1
1163  ,1.276e+06   ,-2  ,-2.5  ,0.1
1164  ,9.388e+05   ,-1.8  ,-2.5  ,0.1
1165  ,1.474e+06   ,-1.6  ,-2.5  ,0.1
1166  ,1.444e+06   ,-1.4  ,-2.5  ,0.1
1167  ,9.958e+05   ,-1.2  ,-2.5  ,0.1
1168  ,1.393e+06   ,-1  ,-2.5  ,0.1
1169  ,1.593e+06   ,-0.8  ,-2.5  ,0.1
1170  ,8.381e+05   ,-0.6  ,-2.5  ,0.1
1171  ,5.538e+05   ,-0.4  ,-2.5  ,0.1
1172  ,8.291e+05   ,-0.2  ,-2.5  ,0.1
1173  ,1.466e+06   ,-1.7664E-15  ,-2.5  ,0.1
1174  ,1.538e+06   ,0.2  ,-2.5  ,0.1
1175  ,2.769e+06   ,0.4  ,-2.5  ,0.1
1176  ,3.143e+06   ,0.6  ,-2.5  ,0.1
1177  ,5.648e+06   ,0.8  ,-2.5  ,0.1
1178  ,6.246e+06   ,1  ,-2.5  ,0.1
1179  ,6.928e+06   ,1.2  ,-2.5  ,0.1
1180  ,8.942e+06   ,1.4  ,-2.5  ,0.1
1181  ,1.086e+07   ,1.6  ,-2.5  ,0.1
1182  ,1.064e+07   ,1.8  ,-2.5  ,0.1
1183  ,1.238e+07   ,2  ,-2.5  ,0.1
1184  ,2.627e+07   ,2.2  ,-2.5  ,0.1
1185  ,4.860e+07   ,2.4  ,-2.5  ,4.7
1186  ,1.011e+08   ,2.4  ,-2.5  ,4.5
1187  ,1.042e+08   ,2.4  ,-2.5  ,4.3
1188  ,1.132e+08   ,2.4  ,-2.5  ,4.1
1189  ,1.122e+08   ,2.4  ,-2.5  ,3.9
1190  ,1.422e+08   ,2.4  ,-2.5  ,3.7
1191  ,1.200e+08   ,2.4  ,-2.5  ,3.5
1192  ,1.020e+08   ,2.4  ,-2.5  ,3.3
1193  ,8.031e+07   ,2.4  ,-2.5  ,3.1
1194  ,7.697e+07   ,2.4  ,-2.5  ,2.9
1195  ,5.829e+07   ,2.4  ,-2.5  ,2.7
1196  ,5.308e+07   ,2.4  ,-2.5  ,2.5
1197  ,5.363e+07   ,2.4  ,-2.5  ,2.3
1198  ,6.847e+07   ,2.4  ,-2.5  ,2.1
1199  ,9.059e+07   ,2.4  ,-2.5  ,1.9
1200  ,1.179e+08   ,2.4  ,-2.5  ,1.7
1201  ,1.230e+08   ,2.4  ,-2.5  ,1.5
1202  ,1.333e+08   ,2.4  ,-2.5  ,1.3
1203  ,1.316e+08   ,2.4  ,-2.5  ,1.1
1204  ,1.208e+08   ,2.4  ,-2.5  ,0.9
1205  ,1.064e+08   ,2.4  ,-2.5  ,0.7
1206  ,7.920e+07   ,2.4  ,-2.5  ,0.5
1207  ,5.042e+07   ,2.4  ,-2.5  ,0.3
1208  ,5.082e+07   ,2.4  ,-2.2  ,0
1209  ,6.257e+07   ,2.4  ,-2  ,0
1210  ,7.759e+07   ,2.4  ,-1.8  ,0
1211  ,7.638e+07   ,2.4  ,-1.6  ,0
1212  ,1.022e+08   ,2.4  ,-1.4  ,0
1213  ,1.254e+08   ,2.4  ,-1.2  ,0
1214  ,1.296e+08   ,2.4  ,-1  ,0
1215  ,1.182e+08   ,2.4  ,-0.8  ,0
1216  ,9.555e+07   ,2.4  ,-0.6  ,0
1217  ,7.343e+07   ,2.4  ,-0.4  ,0
1218  ,6.477e+07   ,2.4  ,-0.2  ,0
1219  ,7.160e+07   ,2.4  ,-1.7664E-15  ,0
1220  ,1.077e+08   ,2.4  ,0.2  ,0
1221  ,1.092e+08   ,2.4  ,0.4  ,0
1222  ,9.629e+07   ,2.4  ,0.6  ,0
1223  ,1.372e+08   ,2.4  ,0.8  ,0
1224  ,1.059e+08   ,2.4  ,1  ,0
1225  ,9.638e+07   ,2.4  ,1.2  ,0
1226  ,7.547e+07   ,2.4  ,1.4  ,0
1227  ,7.461e+07   ,2.4  ,1.6  ,0
1228  ,6.384e+07   ,2.4  ,1.8  ,0
1229  ,7.633e+07   ,2.4  ,2  ,0
1230  ,9.488e+07   ,2.4  ,2.2  ,0
1231  ,1.026e+06   ,-2.2  ,-2.4  ,0
1232  ,1.368e+06   ,-2  ,-2.4  ,0
1233  ,7.935e+05   ,-1.8  ,-2.4  ,0
1234  ,1.322e+06   ,-1.6  ,-2.4  ,0
1235  ,1.426e+06   ,-1.4  ,-2.4  ,0
1236  ,1.131e+06   ,-1.2  ,-2.4  ,0
1237  ,1.814e+06   ,-1  ,-2.4  ,0
1238  ,1.868e+06   ,-0.8  ,-2.4  ,0
1239  ,9.390e+05   ,-0.6  ,-2.4  ,0
1240  ,4.450e+05   ,-0.4  ,-2.4  ,0
1241  ,6.680e+05   ,-0.2  ,-2.4  ,0
1242  ,1.187e+06   ,5.8879E-16  ,-2.4  ,0
1243  ,1.776e+06   ,0.2  ,-2.4  ,0
1244  ,2.420e+06   ,0.4  ,-2.4  ,0
1245  ,3.129e+06   ,0.6  ,-2.4  ,0
1246  ,5.722e+06   ,0.8  ,-2.4  ,0
1247  ,6.714e+06   ,1  ,-2.4  ,0
1248  ,6.955e+06   ,1.2  ,-2.4  ,0
1249  ,6.332e+06   ,1.4  ,-2.4  ,0
1250  ,9.373e+06   ,1.6  ,-2.4  ,0
1251  ,1.551e+07   ,1.8  ,-2.4  ,0
1252  ,2.366e+07   ,2  ,-2.4  ,0
1253  ,2.185e+07   ,2.2  ,-2.4  ,0
1254  ,4.862e+07   ,-2.4  ,2.2  ,0
1255  ,2.734e+07   ,-2.4  ,2  ,0
1256  ,2.009e+07   ,-2.4  ,1.8  ,0
1257  ,1.693e+07   ,-2.4  ,1.6  ,0
1258  ,1.567e+07   ,-2.4  ,1.4  ,0
1259  ,1.314e+07   ,-2.4  ,1.2  ,0
1260  ,1.200e+07   ,-2.4  ,1  ,0
1261  ,1.209e+07   ,-2.4  ,0.8  ,0
1262  ,6.079e+06   ,-2.4  ,0.6  ,0
1263  ,2.505e+06   ,-2.4  ,0.4  ,0
1264  ,2.528e+06   ,-2.4  ,0.2  ,0
1265  ,3.678e+06   ,-2.4  ,5.8879E-16  ,0
1266  ,7.832e+06   ,-2.4  ,-0.2  ,0
1267  ,1.039e+07   ,-2.4  ,-0.4  ,0
1268  ,2.627e+06   ,-2.4  ,-0.6  ,0
1269  ,5.173e+06   ,-2.4  ,-0.8  ,0
1270  ,4.992e+06   ,-2.4  ,-1  ,0
1271  ,2.396e+06   ,-2.4  ,-1.2  ,0
1272  ,1.228e+06   ,-2.4  ,-1.4  ,0
1273  ,1.503e+06   ,-2.4  ,-1.6  ,0
1274  ,4.033e+05   ,-2.4  ,-1.8  ,0
1275  ,8.443e+05   ,-2.4  ,-2  ,0
1276  ,1.232e+06   ,-2.4  ,-2.2  ,0
1277  ,6.452e+07   ,2.2  ,2.4  ,0
1278  ,7.343e+07   ,2  ,2.4  ,0
1279  ,7.869e+07   ,1.8  ,2.4  ,0
1280  ,7.243e+07   ,1.6  ,2.4  ,0
1281  ,7.096e+07   ,1.4  ,2.4  ,0
1282  ,1.002e+08   ,1.2  ,2.4  ,0
1283  ,1.030e+08   ,1  ,2.4  ,0
1284  ,9.313e+07   ,0.8  ,2.4  ,0
1285  ,7.791e+07   ,0.6  ,2.4  ,0
1286  ,5.091e+07   ,0.4  ,2.4  ,0
1287  ,5.949e+07   ,0.2  ,2.4  ,0
1288  ,6.816e+07   ,5.8879E-16  ,2.4  ,0
1289  ,8.874e+07   ,-0.2  ,2.4  ,0
1290  ,7.228e+07   ,-0.4  ,2.4  ,0
1291  ,8.391e+07   ,-0.6  ,2.4  ,0
1292  ,1.052e+08   ,-0.8  ,2.4  ,0
1293  ,1.087e+08   ,-1  ,2.4  ,0
1294  ,1.127e+08   ,-1.2  ,2.4  ,0
1295  ,1.041e+08   ,-1.4  ,2.4  ,0
1296  ,1.038e+08   ,-1.6  ,2.4  ,0
1297  ,9.968e+07   ,-1.8  ,2.4  ,0
1298  ,7.672e+07   ,-2  ,2.4  ,0
1299  ,5.277e+07   ,-2.2  ,2.4  ,0
1460  ,6.263e+09   ,2.3243  ,2.3243  ,4.9577
1461  ,5.848e+09   ,2.4577  ,2.3243  ,4.8243
1462  ,4.792e+09   ,2.3243  ,2.4577  ,4.8243
1463  ,8.351e+07   ,-2.3  ,-2.1759  ,4.8
1464  ,1.217e+08   ,-2.3  ,-1.7631  ,4.8
1465  ,1.735e+08   ,-2.3  ,-1.1827  ,4.8
1466  ,1.176e+08   ,-2.3  ,-0.34986  ,4.8
1467  ,1.711e+08   ,-2.3  ,0.80545  ,4.8
1468  ,3.193e+08   ,-0.81337  ,2.3  ,4.8
1469  ,1.065e+09   ,0.67326  ,2.3  ,4.8
1470  ,5.282e+07   ,2.3  ,-2.1824  ,4.8
1471  ,9.226e+07   ,2.3  ,-1.7784  ,4.8
1472  ,2.398e+08   ,2.3  ,-1.2138  ,4.8
1473  ,4.401e+08   ,2.3  ,-0.40752  ,4.8
1474  ,1.073e+09   ,2.3  ,0.70532  ,4.8
1516  ,3.007e+08   ,2.3  ,2.3  ,1.6866
1517  ,1.067e+09   ,2.3  ,2.3  ,3.1733
1518  ,7.640e+07   ,2.3  ,-2.1759  ,0.2
1519  ,1.252e+08   ,2.3  ,-1.7631  ,0.2
1520  ,1.677e+08   ,2.3  ,-1.1827  ,0.2
1521  ,1.132e+08   ,2.3  ,-0.34986  ,0.2
1522  ,1.633e+08   ,2.3  ,0.80545  ,0.2
1564  ,1.357e+08   ,-0.76667  ,2.3  ,0.2
1565  ,1.660e+08   ,0.76667  ,2.3  ,0.2
1566  ,1.323e+08   ,-2.3  ,2.3  ,1.7333
1567  ,1.658e+08   ,-2.3  ,2.3  ,3.2667
1574  ,7.775e+05   ,-2.3  ,-2.1759  ,0.2
1575  ,1.454e+06   ,-2.3  ,-1.7631  ,0.2
1576  ,2.520e+06   ,-2.3  ,-1.1827  ,0.2
1577  ,3.472e+06   ,-2.3  ,-0.34986  ,0.2
1578  ,1.235e+07   ,-2.3  ,0.80545  ,0.2
1777  ,2.177e+08   ,-0.52764  ,2.5  ,4.9
1801  ,4.156e+07   ,-2.3  ,1.5527  ,0.2
1825  ,1.554e+08   ,-1.5333  ,2.3  ,0.2
1841  ,4.300e+08   ,0.063638  ,2.5  ,4.9
1876  ,7.243e+07   ,-0.5  ,2.4  ,0
1894  ,1.882e+08   ,2.3  ,1.5527  ,0.2
1907  ,6.350e+07   ,2.1  ,2.5  ,0.1
1928  ,7.193e+07   ,1.9  ,2.4  ,0
1974  ,1.011e+08   ,2.4  ,1.1  ,0
1981  ,2.084e+08   ,2.4  ,2.5  ,0.59273
1987  ,1.262e+08   ,-2.5  ,2.4  ,4
2004  ,5.369e+07   ,-2.4  ,2.5  ,4.6
2009  ,8.249e+07   ,2.4  ,1.3  ,0
2020  ,1.156e+08   ,2.5  ,1.1  ,0.1
2035  ,3.006e+06   ,-2.3  ,-0.76628  ,0.2
2070  ,1.538e+09   ,1.6404  ,2.4  ,5
2081  ,1.711e+08   ,2.4  ,2.5  ,1.9724
2095  ,1.873e+08   ,2.4  ,2.5  ,0.78982
2138  ,6.337e+06   ,-2.4  ,-0.1  ,0
2146  ,7.390e+07   ,-0.92182  ,2.4  ,5
2174  ,8.375e+07   ,2.4  ,2.5  ,1.184
2190  ,1.204e+08   ,2.5  ,2.4  ,0.98691
2203  ,3.041e+08   ,2.5  ,-0.13345  ,4.9
2232  ,8.485e+08   ,2.3  ,0.1489  ,4.8
2242  ,6.893e+08   ,2.4  ,2.5  ,2.9578
2293  ,4.135e+06   ,-2.5  ,0.5  ,0.1
2311  ,9.130e+08   ,2.3  ,2.3  ,2.4299
2313  ,1.863e+08   ,2.5  ,2.4  ,0.78982
2329  ,2.041e+08   ,2.4  ,2.5  ,2.1695
2355  ,6.118e+07   ,-2.4  ,2.5  ,4.4
2380  ,1.635e+06   ,-2.5  ,-1.5  ,0.1
2383  ,6.993e+08   ,0.45782  ,2.5  ,4.9
2408  ,9.797e+07   ,2.3  ,-1.4961  ,4.8
2445  ,1.536e+08   ,2.5  ,-1.5131  ,4.9
2484  ,1.827e+06   ,-2.5  ,-2.4  ,1.6
2495  ,9.020e+07   ,-2.4  ,1.7  ,5
2508  ,1.076e+08   ,2.4  ,0.3  ,0
2514  ,2.326e+08   ,2.3  ,0.2278  ,0.2
2570  ,9.250e+07   ,-2.4  ,1.5  ,5
2580  ,1.628e+09   ,1.6404  ,2.5  ,4.9
2603  ,5.173e+07   ,-1.1189  ,2.5  ,4.9
2695  ,7.644e+07   ,2.3  ,2.3  ,0.94331
2705  ,5.648e+07   ,2.4  ,2.5  ,1.3811
2714  ,5.694e+08   ,2.5  ,0.45782  ,4.9
2734  ,1.215e+08   ,2.4  ,-0.9  ,0
2775  ,6.460e+07   ,2.5  ,-0.1  ,0.1
2779  ,6.066e+07   ,2.4  ,-0.1  ,0
2801  ,2.185e+09   ,1.4166  ,2.3  ,4.8
2814  ,1.124e+09   ,1.4433  ,2.5  ,4.9
2863  ,9.264e+07   ,-2.4  ,2.5  ,0.6
2884  ,1.043e+08   ,-2.4  ,2.5  ,0.8
2886  ,1.167e+08   ,-2.4  ,2.5  ,1.2
2967  ,5.926e+07   ,2.4  ,1.7  ,0
2973  ,1.026e+08   ,2.5  ,1.5  ,0.1
2987  ,1.061e+08   ,-0.3  ,2.5  ,0.1
3008  ,1.704e+08   ,-2.3  ,2.3  ,0.96667
3012  ,9.504e+07   ,-2.5  ,2.4  ,2.6
3021  ,9.751e+07   ,-2.5  ,2.4  ,2.8
3025  ,7.247e+07   ,-2.5  ,2.4  ,2.4
3030  ,1.017e+08   ,-2.4  ,2.5  ,2.4
3033  ,8.449e+07   ,-2.4  ,2.5  ,2.2
3047  ,2.867e+08   ,2.4  ,2.5  ,2.3665
3052  ,3.895e+08   ,2.5  ,2.4  ,2.5636
3061  ,3.505e+08   ,2.4  ,2.5  ,2.5636
3081  ,9.958e+07   ,-2.4  ,1.3  ,5
3088  ,1.302e+08   ,-1.9073  ,2.4  ,5
3099  ,1.003e+08   ,-2.4  ,1.9  ,5
3107  ,9.565e+07   ,-2.4  ,2.5  ,3.8
3139  ,7.332e+07   ,-1.5131  ,2.4  ,5
3145  ,8.655e+07   ,-1.5131  ,2.5  ,4.9
3148  ,1.207e+08   ,-1.7102  ,2.5  ,4.9
3168  ,1.523e+07   ,-2.4  ,1.5  ,0
3188  ,7.898e+05   ,-2.5  ,-2.4  ,1
3202  ,5.290e+08   ,0.26073  ,2.5  ,4.9
3212  ,1.815e+09   ,2.5  ,1.6404  ,4.9
3247  ,2.728e+09   ,2.5  ,1.8375  ,4.9
3265  ,2.307e+09   ,2.3  ,1.4326  ,4.8
3271  ,4.566e+09   ,2.2299  ,2.2299  ,4.8
3284  ,1.318e+09   ,2.4  ,1.4433  ,5
3291  ,1.243e+09   ,2.5  ,1.4433  ,4.9
3296  ,1.683e+08   ,-2.3  ,-0.76628  ,4.8
3303  ,1.478e+08   ,-2.4  ,-0.9  ,5
3311  ,1.374e+08   ,-2.4  ,-0.7  ,5
3315  ,6.614e+07   ,1.9  ,2.5  ,0.1
3336  ,2.469e+06   ,-2.4  ,0.3  ,0
3340  ,2.897e+06   ,-2.5  ,0.1  ,0.1
3344  ,3.199e+06   ,-2.4  ,0.1  ,0
3356  ,7.535e+07   ,-0.3  ,2.4  ,0
3361  ,2.914e+08   ,-0.33054  ,2.5  ,4.9
3364  ,3.618e+08   ,-0.13345  ,2.5  ,4.9
3383  ,8.611e+08   ,2.4  ,2.5  ,3.5491
3402  ,3.785e+09   ,2.4  ,2.5  ,4.5345
3421  ,5.108e+07   ,-1.316  ,2.5  ,4.9
3439  ,1.097e+09   ,2.5  ,2.4  ,3.9433
3447  ,1.179e+09   ,2.4  ,2.5  ,3.9433
3451  ,9.359e+08   ,2.4  ,2.5  ,3.7462
3468  ,1.168e+09   ,1.4433  ,2.4  ,5
3480  ,7.209e+08   ,1.0491  ,2.4  ,5
3519  ,9.004e+07   ,1.5  ,2.4  ,0
3527  ,1.793e+08   ,2.3  ,-1.4729  ,0.2
3550  ,1.020e+08   ,-1.7  ,2.4  ,0
3554  ,1.159e+08   ,-1.7  ,2.5  ,0.1
3558  ,1.018e+08   ,-1.5  ,2.4  ,0
3562  ,1.243e+08   ,-1.5  ,2.5  ,0.1
3574  ,9.926e+07   ,-2.4  ,2.1  ,5
3581  ,1.931e+07   ,-2.5  ,1.7  ,0.1
3583  ,2.174e+07   ,-2.5  ,1.9  ,0.1
3584  ,1.329e+08   ,-1.9073  ,2.5  ,4.9
3591  ,1.093e+08   ,2.5  ,0.3  ,0.1
3595  ,7.678e+07   ,2.5  ,0.1  ,0.1
3603  ,8.919e+09   ,2.4577  ,2.391  ,4.7576
3663  ,9.787e+05   ,-1.933  ,-2.5  ,0.2
3669  ,4.346e+05   ,-2.1765  ,-2.5  ,0.2
3672  ,8.595e+05   ,-2.3  ,-2.3379  ,0.2
3682  ,1.093e+06   ,-1.9  ,-2.4  ,0
3700  ,2.799e+07   ,2.3  ,-2.5  ,2.7424
3712  ,5.654e+07   ,-2.1  ,-2.5  ,4.9
3715  ,1.051e+08   ,-1.9  ,-2.5  ,4.9
3740  ,1.489e+08   ,-1.3  ,-2.4  ,5
3746  ,1.096e+08   ,-1.2085  ,-2.5  ,4.8
3755  ,1.396e+08   ,-1.5  ,-2.4  ,5
3760  ,1.101e+08   ,-1.7  ,-2.5  ,4.9
3786  ,1.324e+08   ,2.4  ,2.5  ,1.5782
3813  ,5.630e+08   ,0.26073  ,2.4  ,5
3858  ,1.313e+08   ,-0.9  ,-2.4  ,5
3863  ,1.179e+08   ,-2.5  ,0.9  ,4.9
3875  ,1.130e+08   ,-1.9  ,-2.4  ,5
3885  ,1.534e+08   ,2.4  ,-0.72473  ,5
3910  ,4.450e+06   ,-2.4  ,-2.5  ,3.4
3959  ,1.694e+09   ,2.5  ,2.4  ,4.1404
3969  ,9.176e+08   ,2.5  ,1.0491  ,4.9
3992  ,1.038e+10   ,2.391  ,2.2576  ,4.9577
3993  ,9.041e+09   ,2.4577  ,2.2576  ,4.891
4016  ,9.580e+07   ,-2.3015  ,2.5  ,4.9
4018  ,4.742e+07   ,-2.4  ,2.5  ,4.8
4021  ,8.854e+08   ,1.2462  ,2.4  ,5
4042  ,1.273e+08   ,2.4  ,-1.1  ,0
4046  ,1.066e+08   ,-0.9  ,2.4  ,0
4055  ,1.232e+08   ,1.7  ,-2.5  ,4.9
4087  ,6.418e+07   ,1.7  ,2.4  ,0
4114  ,3.393e+08   ,2.5  ,-0.33054  ,4.9
4120  ,1.143e+08   ,2.4  ,-2.5  ,1.8
4125  ,1.378e+08   ,2.4  ,2.5  ,0.98691
4144  ,2.623e+09   ,2.4  ,2.5  ,4.3375
4161  ,1.161e+08   ,-2.4  ,0.3  ,5
4201  ,7.990e+06   ,1.933  ,-2.5  ,0.2
4225  ,6.220e+05   ,-2.3  ,-2.4  ,0
4230  ,7.755e+05   ,-2.3  ,-2.5  ,0.56701
4269  ,1.372e+08   ,-0.9  ,-2.5  ,4.9
4277  ,1.464e+08   ,-1.1  ,-2.4  ,5
4288  ,8.185e+08   ,-0.070055  ,2.3  ,4.8
4328  ,1.248e+07   ,-2.5  ,-2.4  ,4.2
4336  ,2.087e+07   ,-2.5  ,-2.4  ,4.4
4342  ,2.341e+07   ,-2.5  ,-2.4  ,4.6
4348  ,4.193e+07   ,-2.4  ,-2.4707  ,4.9707
4352  ,4.948e+07   ,-2.3  ,-2.5  ,4.9
4354  ,9.579e+07   ,-2.1765  ,-2.5  ,4.8
4355  ,8.697e+07   ,-2.3  ,-2.3379  ,4.8
4362  ,1.995e+08   ,2.5  ,2.4  ,0.59273
4364  ,5.168e+07   ,2.5  ,-2.4  ,2.4
4366  ,6.424e+07   ,2.5  ,-2.4  ,2.2
4372  ,6.347e+07   ,2.4  ,-2.5  ,2.2
4385  ,6.741e+05   ,-2.5  ,-1.9  ,0.1
4399  ,3.771e+07   ,-2.5  ,2.1  ,0.1
4407  ,1.674e+06   ,-0.7  ,-2.4  ,0
4436  ,5.311e+06   ,-2.5  ,-0.1  ,0.1
4462  ,1.338e+08   ,-2.3  ,2.3  ,4.0333
4491  ,2.973e+08   ,2.5  ,-0.52764  ,4.9
4494  ,1.416e+08   ,2.5  ,-2.4  ,1.4
4503  ,1.279e+08   ,2.4  ,-2.5  ,1.4
4508  ,1.399e+08   ,2.4  ,-2.5  ,1.2
4515  ,1.114e+08   ,2.5  ,-2.4  ,1.8
4517  ,1.285e+08   ,2.4  ,-2.5  ,1.6
4522  ,3.685e+06   ,0.7  ,-2.4  ,0
4538  ,4.289e+07   ,-1.1189  ,2.4  ,5
4546  ,1.614e+09   ,2.4  ,2.5  ,4.1404
4559  ,1.209e+07   ,1.7  ,-2.4  ,0
4590  ,2.449e+06   ,0.5  ,-2.4  ,0
4631  ,5.487e+07   ,2.4  ,-2.5  ,2.6
4634  ,8.074e+07   ,2.5  ,-2.4  ,2.8
4657  ,8.343e+05   ,-2.5  ,-2.4  ,2
4660  ,1.240e+06   ,-2.5  ,-2.4  ,1.8
4664  ,3.401e+05   ,-0.3  ,-2.4  ,0
4675  ,3.603e+07   ,-2.4  ,-2.5  ,4.8
4681  ,7.996e+06   ,-2.5  ,-0.3  ,0.1
4684  ,1.410e+08   ,1.7  ,-2.4  ,5
4703  ,1.555e+08   ,-2.4  ,0.7  ,5
4707  ,8.957e+07   ,-2.5  ,0.3  ,4.9
4714  ,3.329e+08   ,2.4  ,-0.33054  ,5
4723  ,9.723e+07   ,-1.5567  ,2.3  ,4.8
4739  ,1.352e+08   ,-2.1044  ,2.5  ,4.9
4763  ,8.697e+07   ,-1.9  ,2.4  ,0
4780  ,1.230e+06   ,-2.3  ,-1.9695  ,0.2
4782  ,4.751e+05   ,-2.4707  ,-2.4  ,0.029289
4784  ,4.174e+05   ,-2.4  ,-1.9  ,0
4791  ,8.201e+05   ,-2.4  ,-2.5  ,1.8
4796  ,4.577e+07   ,2.4707  ,-2.4707  ,4.9
4799  ,2.640e+07   ,2.5  ,-2.4  ,4.8
4806  ,3.009e+07   ,2.3  ,-2.5  ,4.9
4809  ,2.255e+09   ,2.3  ,2.3  ,3.9166
4833  ,6.815e+07   ,-2.4  ,2.5  ,0.4
4841  ,1.133e+08   ,-2.4  ,2.5  ,2.6
4846  ,8.961e+07   ,-2.5  ,2.1  ,4.9
4848  ,5.786e+07   ,-2.5  ,2.3  ,4.9
4849  ,4.849e+07   ,-2.5  ,2.4  ,4.8
4893  ,6.617e+07   ,-2.4  ,2.5  ,4.2
4897  ,3.943e+09   ,2.3333  ,2.1998  ,5
4900  ,8.747e+09   ,2.391  ,2.4577  ,4.7576
4908  ,8.654e+09   ,2.2576  ,2.391  ,4.9577
4911  ,8.714e+09   ,2.2576  ,2.4577  ,4.891
4926  ,9.723e+07   ,-2.5  ,2.4  ,1
4932  ,1.329e+08   ,-2.4  ,2.5  ,1.6
4937  ,1.308e+08   ,-1.1  ,2.5  ,0.1
4939  ,4.586e+09   ,2.3  ,2.2299  ,4.7299
4944  ,6.708e+07   ,2.5  ,-1.9073  ,4.9
4987  ,1.759e+08   ,-2.3  ,1.5527  ,4.8
5010  ,4.911e+09   ,2.4973  ,2.1331  ,4.923
5013  ,3.711e+09   ,2.5  ,2.0345  ,4.9
5017  ,4.004e+09   ,2.4  ,2.0345  ,5
5035  ,6.734e+06   ,1.3  ,-2.4  ,0
5038  ,5.155e+06   ,1.2085  ,-2.5  ,0.2
5092  ,9.729e+05   ,-2.4  ,-2.5  ,1.2
5123  ,8.311e+07   ,2.5  ,-2.4  ,0.6
5151  ,4.571e+06   ,-2.5  ,-0.5  ,0.1
5160  ,1.791e+06   ,-2.5  ,-0.7  ,0.1
5164  ,1.359e+08   ,-2.4  ,0.9  ,5
5168  ,1.253e+08   ,-2.4  ,0.5  ,5
5176  ,1.361e+08   ,2.5  ,-0.7  ,0.1
5179  ,8.555e+07   ,2.4  ,-0.5  ,0
5189  ,5.116e+07   ,2.4  ,-2.5  ,2.4
5194  ,6.280e+07   ,2.3  ,-2.5  ,2.2576
5198  ,1.099e+06   ,-2.3  ,-2.5  ,0.32348
5205  ,1.109e+06   ,-2.4  ,-2.5  ,0.2
5207  ,1.043e+06   ,-2.1  ,-2.5  ,0.1
5246  ,1.155e+08   ,-2.5  ,2.4  ,3.2
5257  ,8.139e+07   ,-2.5  ,1.5  ,4.9
5263  ,7.198e+06   ,-2.3  ,0.2278  ,0.2
5272  ,3.255e+06   ,-2.5  ,0.3  ,0.1
5275  ,9.614e+07   ,-2.5  ,0.5  ,4.9
5281  ,2.251e+09   ,1.8375  ,2.5  ,4.9
5297  ,1.174e+08   ,-0.9  ,2.5  ,0.1
5306  ,9.359e+07   ,-0.7  ,2.4  ,0
5309  ,8.177e+07   ,-0.5  ,2.5  ,0.1
5324  ,5.009e+08   ,2.4  ,2.5  ,2.7607
5332  ,1.164e+08   ,2.5  ,-2.4  ,0.8
5334  ,1.322e+08   ,2.4  ,-2.5  ,1
5360  ,4.799e+07   ,2.4  ,-1.7102  ,5
5362  ,1.624e+08   ,2.4  ,-1.5131  ,5
5368  ,2.447e+09   ,2.4  ,1.8375  ,5
5371  ,1.513e+10   ,2.4325  ,2.4888  ,4.6656
5372  ,4.099e+09   ,2.3333  ,2.5  ,4.6998
5376  ,3.420e+09   ,2.4707  ,2.4707  ,4.6331
5377  ,4.216e+09   ,2.5  ,2.4  ,4.5345
5379  ,1.338e+08   ,-1.5  ,-2.5  ,4.9
5406  ,4.940e+06   ,-2.5  ,-2.4  ,3.4
5420  ,4.201e+06   ,-2.3  ,-2.5  ,3.2226
5423  ,6.878e+06   ,1.5  ,-2.4  ,0
5502  ,4.027e+05   ,-2.5  ,-2.3  ,0.1
5504  ,6.307e+05   ,-2.5  ,-2.4  ,0.2
5506  ,7.664e+05   ,-2.4  ,-2.3  ,0
5511  ,6.216e+05   ,-2.5  ,-2.1  ,0.1
5513  ,3.421e+06   ,-2.4  ,0.5  ,0
5517  ,1.634e+06   ,-0.9  ,-2.5  ,0.1
5532  ,4.162e+07   ,-2.4707  ,2.4707  ,4.9
5534  ,1.079e+08   ,2.4  ,-0.7  ,0
5551  ,9.666e+07   ,2.5  ,-2.4  ,3.8
5566  ,3.000e+07   ,2.5  ,2.4  ,1.3811
5603  ,6.547e+07   ,2.4  ,-0.3  ,0
5617  ,6.044e+07   ,-2.1  ,2.5  ,0.1
5637  ,8.544e+07   ,-2.3  ,-1.9695  ,4.8
5641  ,8.946e+07   ,2.3  ,-2.5  ,3.4636
5645  ,1.280e+06   ,-2.4  ,-2.5  ,2
5649  ,2.020e+06   ,-2.4  ,-2.5  ,2.2
5659  ,7.013e+05   ,-2.3  ,-2.5  ,1.7774
5662  ,9.287e+07   ,2.1765  ,-2.5  ,4.8
5666  ,2.064e+07   ,2.4  ,-2.5  ,4.8
5669  ,8.252e+07   ,2.3  ,-2.3412  ,4.8
5695  ,9.680e+06   ,-2.4  ,0.7  ,0
5701  ,1.281e+08   ,-2.5  ,2.4  ,1.6
5715  ,1.184e+08   ,-2.4  ,2.5  ,1.8
5726  ,1.004e+08   ,-0.7  ,2.5  ,0.1
5727  ,1.059e+08   ,-1.1  ,2.4  ,0
5730  ,1.059e+08   ,2.3  ,-2.5  ,1.7774
5746  ,1.527e+08   ,2.5  ,2.4  ,1.7753
5755  ,1.254e+08   ,2.5  ,-2.4  ,4.4
5763  ,9.558e+07   ,2.4  ,-2.5  ,4.4
5773  ,8.013e+08   ,1.0491  ,2.5  ,4.9
5791  ,1.201e+08   ,-0.72473  ,2.4  ,5
5795  ,2.379e+09   ,1.8375  ,2.4  ,5
5803  ,7.876e+07   ,-0.3  ,-2.4  ,5
5810  ,1.723e+09   ,2.4  ,1.6404  ,5
5836  ,6.945e+07   ,-2.5  ,1.3  ,4.9
5860  ,1.239e+08   ,2.5  ,-2.4  ,1.6
5866  ,1.046e+07   ,1.5  ,-2.5  ,0.1
5884  ,8.491e+07   ,-2.4  ,-0.3  ,5
5888  ,9.056e+07   ,-2.5  ,-0.5  ,4.9
5901  ,4.761e+07   ,2.3  ,-2.5  ,2.5
5908  ,1.523e+08   ,2.5  ,-2.4  ,1.2
5909  ,9.145e+07   ,2.5  ,-2.4  ,2
5934  ,1.065e+08   ,1.9  ,-2.5  ,4.9
5938  ,8.646e+07   ,1.933  ,-2.5  ,4.8
5948  ,1.241e+07   ,-2.4  ,-2.5  ,4.6
5950  ,4.098e+07   ,-2.4707  ,-2.4707  ,4.9
5951  ,2.352e+07   ,-2.5  ,-2.4  ,4.8
5952  ,4.598e+07   ,-2.5  ,-2.3  ,4.9
5986  ,1.501e+08   ,2.3  ,-2.5  ,3.7085
5990  ,7.442e+07   ,-0.92182  ,2.5  ,4.9
6019  ,7.971e+07   ,2.5  ,1.9  ,0.1
6025  ,1.126e+08   ,2.4  ,-1.3  ,0
6035  ,8.625e+07   ,-2.5  ,1.9  ,4.9
6044  ,9.129e+07   ,0.1  ,2.5  ,0.1
6054  ,8.544e+07   ,2.4  ,0.1  ,0
6070  ,4.843e+07   ,-2.4  ,2.3  ,0
6071  ,4.147e+07   ,-2.3  ,2.4  ,0
6076  ,3.130e+07   ,-2.4  ,2.1  ,0
6083  ,2.178e+07   ,2.1  ,-2.4  ,0
6084  ,7.528e+07   ,2.4  ,2.3  ,0
6087  ,5.743e+07   ,2.3  ,2.4  ,0
6092  ,8.517e+05   ,-2.4  ,-2.5  ,0.4
6096  ,2.796e+05   ,-2.3  ,-2.5  ,0.1
6099  ,3.870e+06   ,0.7  ,-2.5  ,0.1
6149  ,5.300e+06   ,-2.4  ,-0.9  ,0
6159  ,1.429e+06   ,-2.5  ,-2.4  ,2.6
6183  ,8.111e+08   ,1.2462  ,2.5  ,4.9
6224  ,7.752e+07   ,2.5  ,-2.4  ,4
6228  ,1.273e+08   ,2.4  ,-2.5  ,3.8
6237  ,1.548e+08   ,2.5  ,0.7  ,0.1
6241  ,4.083e+09   ,2.5  ,2.3333  ,4.6998
6245  ,1.224e+08   ,2.5  ,2.4  ,1.5782
6259  ,6.071e+07   ,2.5  ,-2.1044  ,4.9
6265  ,5.799e+07   ,2.3  ,-1.9804  ,4.8
6267  ,4.802e+07   ,2.5  ,-2.3015  ,4.9
6268  ,3.403e+07   ,2.4707  ,-2.4  ,4.9707
6270  ,6.145e+07   ,2.4  ,-2.1044  ,5
6317  ,1.598e+08   ,-2.3  ,0.2278  ,4.8
6349  ,1.684e+08   ,-0.52764  ,2.4  ,5
6391  ,1.888e+08   ,2.4  ,2.5  ,1.7753
6440  ,1.349e+08   ,-2.5  ,2.4  ,3.8
6471  ,7.004e+07   ,2.5  ,-0.92182  ,4.9
6489  ,1.027e+09   ,2.5  ,1.2462  ,4.9
6523  ,1.179e+06   ,-1.1  ,-2.4  ,0
6528  ,1.026e+06   ,-1.1  ,-2.5  ,0.1
6535  ,1.811e+06   ,-0.9  ,-2.4  ,0
6538  ,9.681e+07   ,1.5  ,-2.4  ,5
6541  ,1.195e+08   ,1.5  ,-2.5  ,4.9
6551  ,1.469e+08   ,2.5  ,-0.72473  ,4.9
6564  ,4.899e+09   ,2.1331  ,2.4973  ,4.923
6565  ,3.881e+09   ,2.0345  ,2.5  ,4.9
6572  ,7.519e+07   ,2.4  ,-1.7  ,0
6581  ,2.246e+08   ,0  ,2.3  ,0.2
6592  ,8.857e+07   ,2.3  ,-1.9695  ,0.2
6594  ,6.015e+07   ,0.3  ,2.4  ,0
6601  ,1.674e+08   ,0.5  ,2.5  ,0.1
6605  ,1.236e+06   ,-2.4  ,-1.3  ,0
6606  ,3.822e+06   ,-2.4  ,-1.1  ,0
6615  ,1.021e+07   ,-2.4  ,-0.3  ,0
6634  ,6.916e+07   ,2.1  ,-2.5  ,4.9
6635  ,4.307e+07   ,2.4  ,-2.4707  ,4.9707
6636  ,1.869e+07   ,2.3  ,-2.4  ,5
6647  ,3.026e+06   ,0.5  ,-2.5  ,0.1
6704  ,3.240e+07   ,-2.4707  ,2.4707  ,0.1
6708  ,4.970e+07   ,-2.5  ,2.4  ,0.2
6712  ,1.197e+08   ,-2.4  ,2.5  ,3.6
6715  ,1.197e+08   ,-2.4  ,2.5  ,3.4
6728  ,1.115e+08   ,-2.5  ,0.7  ,4.9
6753  ,1.371e+08   ,-2.1044  ,2.4  ,5
6788  ,2.633e+09   ,2.5  ,2.4  ,4.3375
6791  ,1.049e+08   ,-1.933  ,-2.5  ,4.8
6795  ,3.658e+09   ,2.1998  ,2.5  ,4.8333
6837  ,6.037e+05   ,-2.3  ,-2.5  ,0.8063
6869  ,4.435e+07   ,2.5  ,-1.7102  ,4.9
6873  ,7.248e+07   ,2.4  ,-1.9073  ,5
6880  ,6.817e+07   ,2.4  ,-0.92182  ,5
6885  ,2.981e+08   ,2.4  ,-0.52764  ,5
6893  ,9.814e+08   ,2.4  ,1.2462  ,5
6914  ,1.482e+08   ,0.7  ,2.5  ,0.1
6920  ,9.829e+07   ,0.9  ,2.4  ,0
6923  ,8.667e+07   ,0.7  ,2.4  ,0
6936  ,1.191e+08   ,2.4  ,-2.5  ,3.4
6939  ,6.871e+07   ,2.3  ,-2.5  ,3.2226
6961  ,6.203e+07   ,-0.1  ,-2.5  ,4.9
6967  ,7.102e+07   ,-2.5  ,-1.5  ,4.9
6975  ,9.742e+07   ,-2.4  ,1.1  ,5
6978  ,4.156e+07   ,-2.4  ,2.5  ,0.2
6987  ,1.932e+08   ,2.4  ,-1.316  ,5
6994  ,8.512e+07   ,2.4  ,-1.5  ,0
7004  ,1.346e+08   ,2.4  ,-2.5  ,3.6
7011  ,8.857e+08   ,2.4  ,0.65491  ,5
7016  ,5.980e+08   ,2.4  ,0.45782  ,5
7019  ,2.530e+08   ,2.5  ,2.4  ,2.1695
7021  ,1.814e+08   ,2.5  ,2.4  ,1.9724
7052  ,1.218e+08   ,-1.3  ,2.5  ,0.1
7054  ,3.966e+05   ,-2.4  ,-2.5  ,0.8
7057  ,2.363e+06   ,0.3  ,-2.5  ,0.1
7065  ,2.001e+06   ,0.24243  ,-2.5  ,0.2
7075  ,1.508e+10   ,2.4888  ,2.4325  ,4.6656
7113  ,1.787e+06   ,-2.4  ,-2.5  ,2.6
7121  ,2.429e+06   ,-2.4  ,-2.5  ,2.8
7126  ,2.405e+06   ,-2.5  ,-2.4  ,2.8
7128  ,7.667e+05   ,-2.4707  ,-2.4707  ,0.1
7129  ,4.278e+05   ,-2.4  ,-2.4707  ,0.029289
7141  ,1.260e+08   ,-1.7  ,-2.4  ,5
7145  ,1.052e+08   ,1.1  ,2.4  ,0
7163  ,1.278e+08   ,-1.7102  ,2.4  ,5
7172  ,1.202e+08   ,2.5  ,-2.4  ,3.2
7174  ,1.256e+08   ,-2.5  ,2.4  ,3.6
7183  ,1.222e+08   ,-1.4531  ,-2.5  ,4.8
7204  ,3.923e+08   ,2.3  ,-0.81068  ,4.8
7220  ,3.297e+08   ,2.5  ,0.063638  ,4.9
7227  ,7.876e+07   ,2.5  ,-1.9  ,0.1
7256  ,6.312e+07   ,-0.1  ,-2.4  ,5
7280  ,2.918e+08   ,-0.33054  ,2.4  ,5
7299  ,1.443e+08   ,2.5  ,-1.1189  ,4.9
7316  ,4.786e+05   ,-2.5  ,-2.4  ,0.8
7323  ,9.812e+05   ,-2.4  ,-2.5  ,1
7396  ,1.156e+08   ,1.1  ,-2.4  ,5
7400  ,6.978e+06   ,-2.5  ,0.7  ,0.1
7409  ,8.475e+07   ,1.3  ,-2.4  ,5
7420  ,9.491e+07   ,2.5  ,2.1  ,0.1
7429  ,6.818e+07   ,2.4  ,1.9  ,0
7436  ,7.429e+07   ,2.5  ,-1.7  ,0.1
7438  ,7.273e+07   ,2.4  ,-2.5  ,2.8
7445  ,1.382e+10   ,2.4325  ,2.1656  ,4.9888
7464  ,7.255e+07   ,2.5  ,-1.5  ,0.1
7480  ,4.145e+07   ,2.5  ,-2.4  ,0.2
7482  ,1.065e+07   ,1.9  ,-2.5  ,0.1
7483  ,1.011e+07   ,1.7  ,-2.5  ,0.1
7486  ,1.318e+08   ,1.9  ,-2.4  ,5
7488  ,9.122e+07   ,1.6937  ,-2.5  ,4.8
7492  ,6.706e+07   ,2.1  ,-2.4  ,5
7495  ,1.359e+06   ,0.1  ,-2.5  ,0.1
7504  ,2.198e+06   ,0.3  ,-2.4  ,0
7507  ,6.982e+06   ,0.9  ,-2.5  ,0.1
7533  ,1.128e+07   ,-2.5  ,0.9  ,0.1
7536  ,2.738e+06   ,-2.4  ,-2.5  ,3.2
7540  ,3.302e+06   ,-2.4  ,-2.5  ,3
7545  ,2.536e+06   ,-2.5  ,-2.4  ,3
7582  ,9.587e+07   ,1.3  ,2.5  ,0.1
7588  ,3.178e+08   ,2.5  ,2.4  ,2.3665
7598  ,1.222e+08   ,-2.5  ,2.4  ,4.2
7607  ,1.478e+08   ,1.5333  ,2.3  ,0.2
7627  ,8.186e+07   ,-2.5  ,1.1  ,4.9
7651  ,7.476e+07   ,2.4  ,-1.9  ,0
7656  ,1.470e+08   ,2.5  ,2.4  ,0.39564
7660  ,4.451e+09   ,2.2299  ,2.3  ,4.7299
7668  ,1.567e+08   ,1.4531  ,-2.5  ,4.8
7676  ,6.807e+07   ,0.1  ,-2.5  ,4.9
7683  ,7.547e+07   ,0.1  ,-2.4  ,5
7686  ,1.318e+08   ,-2.4  ,-1.1  ,5
7702  ,7.605e+06   ,-2.3  ,-2.5  ,4.433
7710  ,3.477e+07   ,-2.3  ,-2.5  ,4.6765
7752  ,1.344e+08   ,0.9  ,-2.4  ,5
7763  ,3.030e+07   ,0.24243  ,-2.5  ,4.8
7767  ,2.176e+06   ,-2.5  ,-2.4  ,3.2
7768  ,1.272e+06   ,-2.4  ,-2.1  ,0
7776  ,1.138e+07   ,-2.4  ,0.9  ,0
7786  ,9.731e+07   ,-0.4838  ,-2.5  ,4.8
7800  ,7.810e+07   ,2.5  ,-2.4  ,4.6
7805  ,1.153e+08   ,-2.5  ,-1.3  ,4.9
7811  ,1.273e+08   ,-2.5  ,-1.1  ,4.9
7820  ,6.724e+07   ,2.5  ,-2.1  ,0.1
7824  ,5.538e+07   ,2.4  ,-2.1  ,0
7828  ,1.088e+08   ,2.4  ,-2.5  ,4.2
7831  ,1.050e+08   ,2.4  ,-2.5  ,4
7838  ,1.215e+08   ,2.5  ,-2.4  ,4.2
7839  ,4.882e+08   ,2.5  ,2.4  ,2.7607
7840  ,7.066e+08   ,2.5  ,2.4  ,2.9578
7863  ,1.533e+06   ,-2.4  ,-1.5  ,0
7890  ,1.166e+08   ,2.4  ,0.9  ,0
7897  ,3.935e+06   ,-2.4  ,-0.7  ,0
7912  ,1.536e+06   ,-1.5  ,-2.4  ,0
7917  ,1.151e+06   ,-1.3  ,-2.5  ,0.1
7931  ,6.508e+07   ,0.5  ,2.4  ,0
7934  ,7.129e+06   ,1.1  ,-2.4  ,0
7937  ,1.179e+08   ,2.4  ,-2.5  ,0.8
7941  ,3.044e+05   ,-2.4  ,-2.5  ,0.6
7969  ,4.814e+07   ,-2.5  ,2.3  ,0.1
7971  ,2.388e+07   ,-2.4  ,1.9  ,0
7972  ,8.685e+07   ,-1.9  ,2.5  ,0.1
7978  ,1.222e+07   ,-2.4  ,1.1  ,0
7996  ,1.156e+08   ,-2.4  ,-0.5  ,5
8000  ,5.994e+05   ,-2.5  ,-2.4  ,0.6
8003  ,5.234e+05   ,-2.5  ,-2.4  ,0.4
8025  ,1.021e+08   ,0.9  ,2.5  ,0.1
8035  ,9.021e+07   ,0.3  ,2.5  ,0.1
8039  ,9.140e+07   ,2.3  ,-2.5  ,0.32348
8041  ,7.538e+07   ,2.3  ,-2.3379  ,0.2
8043  ,2.564e+07   ,2.1765  ,-2.5  ,0.2
8045  ,1.254e+06   ,-0.96359  ,-2.5  ,0.2
8054  ,8.987e+07   ,1.3  ,2.4  ,0
8058  ,1.089e+08   ,1.1  ,2.5  ,0.1
8062  ,1.047e+08   ,-2.5  ,2.4  ,1.4
8067  ,9.635e+07   ,-2.5  ,2.4  ,0.8
8087  ,1.661e+07   ,-2.5  ,1.5  ,0.1
8132  ,3.975e+08   ,-0.13345  ,2.4  ,5
8183  ,1.444e+08   ,2.5  ,-0.9  ,0.1
8184  ,5.641e+06   ,1.6937  ,-2.5  ,0.2
8214  ,3.114e+07   ,-2.4707  ,-2.4  ,4.9707
8217  ,5.164e+07   ,-2.1  ,-2.4  ,5
8219  ,1.098e+07   ,-2.4  ,-2.5  ,4.4
8227  ,9.713e+08   ,2.5  ,2.4  ,3.1549
8242  ,1.056e+08   ,0.7  ,-2.5  ,4.9
8248  ,1.365e+08   ,2.5  ,-2.4  ,3.6
8254  ,6.757e+07   ,2.5  ,-0.3  ,0.1
8256  ,1.002e+08   ,2.5  ,-0.5  ,0.1
8258  ,8.266e+07   ,-0.3  ,-2.5  ,4.9
8263  ,1.039e+08   ,-0.5  ,-2.5  ,4.9
8268  ,5.969e+06   ,-2.3  ,-2.5  ,3.7085
8277  ,1.316e+06   ,-0.1  ,-2.5  ,0.1
8285  ,1.228e+08   ,1.1  ,-2.5  ,4.9
8307  ,5.464e+07   ,0.1  ,2.4  ,0
8308  ,1.766e+08   ,-0.1  ,2.5  ,0.1
8309  ,8.172e+07   ,-0.1  ,2.4  ,0
8313  ,4.794e+07   ,2.5  ,-2.3  ,0.1
8318  ,1.011e+08   ,2.5  ,-2.4  ,3
8338  ,9.029e+08   ,2.5  ,2.4  ,3.352
8339  ,1.014e+09   ,2.4  ,2.5  ,3.1549
8344  ,1.168e+08   ,-2.5  ,2.4  ,3.4
8357  ,1.343e+10   ,2.4888  ,2.1656  ,4.9325
8358  ,3.623e+09   ,2.5  ,2.1998  ,4.8333
8383  ,9.032e+05   ,-1.7  ,-2.4  ,0
8396  ,6.548e+06   ,1.1  ,-2.5  ,0.1
8399  ,3.846e+09   ,2.4526  ,2.1331  ,4.9851
8405  ,1.394e+08   ,2.5  ,-2.4  ,1
8412  ,1.245e+08   ,2.3  ,-2.5  ,0.8063
8417  ,2.561e+06   ,-2.3  ,-2.5  ,2.5
8434  ,1.170e+08   ,0.9636  ,-2.5  ,4.8
8438  ,3.022e+05   ,-0.3  ,-2.5  ,0.1
8452  ,7.578e+07   ,-2.4  ,-0.1  ,5
8468  ,9.350e+08   ,2.5  ,2.4  ,3.7462
8471  ,1.417e+08   ,-1.3  ,-2.5  ,4.9
8493  ,1.332e+08   ,-1.1  ,-2.5  ,4.9
8509  ,1.351e+06   ,-2.5  ,-1.7  ,0.1
8517  ,1.224e+08   ,-2.4  ,2.5  ,3
8531  ,1.988e+07   ,-2.4  ,1.7  ,0
8556  ,8.054e+08   ,2.5  ,2.4  ,3.5491
8573  ,4.628e+07   ,-1.316  ,2.4  ,5
8576  ,1.545e+07   ,-2.4  ,1.3  ,0
8611  ,1.060e+08   ,2.3  ,-2.5  ,1.2915
8618  ,8.068e+07   ,-2.4  ,2.5  ,4
8646  ,1.420e+07   ,-2.5  ,1.1  ,0.1
8656  ,1.028e+08   ,2.5  ,-1.3  ,0.1
8657  ,8.078e+07   ,2.4  ,2.1  ,0
8673  ,1.021e+08   ,-1.3  ,2.4  ,0
8692  ,8.698e+07   ,0.72263  ,-2.5  ,4.8
8696  ,1.247e+08   ,2.3  ,-2.5  ,1.0469
8706  ,8.087e+08   ,2.5  ,0.65491  ,4.9
8721  ,1.226e+06   ,-2.4  ,-2.5  ,1.6
8725  ,9.806e+08   ,0.65491  ,2.4  ,5
8739  ,1.410e+10   ,2.1656  ,2.4325  ,4.9888
8741  ,4.115e+09   ,2.1998  ,2.3333  ,5
8746  ,1.376e+06   ,-2.1  ,-2.4  ,0
8748  ,1.091e+06   ,-2.5  ,-2.4  ,1.2
8752  ,4.120e+09   ,2.1331  ,2.4526  ,4.9851
8759  ,1.075e+06   ,-2.3  ,-2.5  ,1.0469
8787  ,8.948e+05   ,-0.1  ,-2.4  ,0
8793  ,2.330e+06   ,-2.3  ,-2.5  ,2.2576
8795  ,2.189e+06   ,-2.4  ,-2.5  ,2.4
8798  ,4.515e+06   ,-2.3  ,-2.5  ,4.1937
8808  ,8.136e+06   ,-2.3  ,-2.5  ,3.9531
8814  ,8.018e+07   ,-2.4  ,-1.5  ,5
8849  ,6.668e+07   ,0.4838  ,-2.5  ,4.8
8851  ,8.665e+06   ,-2.4  ,-2.5  ,4.2
8868  ,8.466e+07   ,2.4  ,-2.5  ,3
8874  ,9.147e+08   ,0.852  ,2.4  ,5
8883  ,1.180e+08   ,-0.5  ,-2.4  ,5
8886  ,1.108e+08   ,-0.72262  ,-2.5  ,4.8
8893  ,1.180e+08   ,-0.7  ,-2.5  ,4.9
8897  ,6.369e+06   ,-2.5  ,-2.4  ,3.6
8899  ,4.789e+06   ,-2.3  ,-2.5  ,3.4636
8900  ,1.493e+06   ,-2.3  ,-1.4729  ,0.2
8906  ,1.895e+06   ,-2.5  ,-1.3  ,0.1
8910  ,9.080e+08   ,0.852  ,2.5  ,4.9
8925  ,1.204e+08   ,-2.4  ,2.5  ,1.4
8941  ,5.856e+07   ,2.4707  ,2.4  ,0.029289
8942  ,8.130e+07   ,2.5  ,2.3  ,0.1
8945  ,8.230e+07   ,-2.5  ,0.1  ,4.9
8950  ,5.800e+07   ,2.4707  ,2.4707  ,0.1
8951  ,5.167e+07   ,2.4  ,2.4707  ,0.029289
8959  ,3.917e+08   ,2.4  ,0.26073  ,5
8965  ,7.018e+08   ,0.45782  ,2.4  ,5
8978  ,8.558e+08   ,2.4  ,0.852  ,5
8983  ,1.339e+08   ,2.5  ,-1.1  ,0.1
8991  ,8.659e+07   ,-2.5  ,2.4  ,0.6
9008  ,8.802e+08   ,2.5  ,0.852  ,4.9
9011  ,5.291e+06   ,-2.4  ,-0.5  ,0
9025  ,1.727e+06   ,-1.5  ,-2.5  ,0.1
9038  ,8.879e+07   ,2.4  ,-2.5  ,2
9041  ,1.360e+08   ,2.5  ,0.9  ,0.1
9050  ,1.403e+08   ,2.5  ,0.5  ,0.1
9054  ,6.825e+06   ,0.9  ,-2.4  ,0
9060  ,6.523e+07   ,2.4  ,-2.5  ,0.4
9062  ,1.035e+08   ,2.3  ,-2.5  ,0.56701
9064  ,6.814e+07   ,2.5  ,-2.4  ,0.4
9069  ,9.115e+07   ,2.4  ,-2.5  ,0.6
9071  ,1.080e+07   ,1.4531  ,-2.5  ,0.2
9082  ,6.836e+05   ,-2.3  ,-2.5  ,1.2915
9086  ,9.747e+05   ,-2.4  ,-2.5  ,1.4
9091  ,1.392e+06   ,-2.5  ,-2.4  ,1.4
9094  ,1.244e+08   ,1.3  ,-2.5  ,4.9
9097  ,1.507e+06   ,-0.7  ,-2.5  ,0.1
9137  ,1.043e+08   ,-2.5  ,-0.7  ,4.9
9143  ,8.440e+07   ,-2.5  ,-0.1  ,4.9
9146  ,6.556e+07   ,-2.1  ,2.4  ,0
9148  ,8.087e+07   ,-2.5  ,1.7  ,4.9
9173  ,1.091e+08   ,-2.5  ,2.4  ,3
9192  ,1.202e+08   ,-0.7  ,-2.4  ,5
9195  ,5.477e+06   ,0.72263  ,-2.5  ,0.2
9209  ,1.457e+08   ,2.5  ,-2.4  ,3.4
9215  ,5.884e+06   ,0.9636  ,-2.5  ,0.2
9217  ,9.688e+07   ,2.4  ,-2.5  ,3.2
9218  ,9.321e+07   ,-0.96359  ,-2.5  ,4.8
9229  ,1.256e+08   ,-2.4  ,2.5  ,2.8
9248  ,7.443e+07   ,2.3  ,-2.5  ,4.433
9255  ,9.773e+07   ,2.5  ,1.3  ,0.1
9257  ,6.826e+07   ,2.4  ,1.5  ,0
9262  ,1.285e+08   ,0.5  ,-2.4  ,5
9264  ,2.771e+08   ,2.4  ,-0.13345  ,5
9272  ,3.943e+08   ,0.063638  ,2.4  ,5
9277  ,9.926e+07   ,-2.5  ,2.4  ,1.2
9279  ,4.178e+08   ,2.5  ,0.26073  ,4.9
9282  ,1.607e+08   ,1.2085  ,-2.5  ,4.8
9286  ,1.172e+08   ,0.9  ,-2.5  ,4.9
9292  ,6.165e+07   ,-2.4  ,2.4707  ,4.9707
9293  ,9.846e+07   ,-2.3015  ,2.4  ,5
9296  ,8.650e+07   ,-2.4  ,-2.1  ,5
9303  ,9.299e+07   ,-2.4  ,-1.9  ,5
9311  ,6.490e+07   ,-2.4  ,2.3  ,5
9313  ,8.347e+07   ,-2.4  ,0.1  ,5
9319  ,6.409e+05   ,-0.5  ,-2.4  ,0
9328  ,6.357e+05   ,-2.3  ,-2.5  ,1.5364
9334  ,3.785e+07   ,-2.3  ,2.5  ,0.1
9338  ,1.697e+06   ,-2.5  ,-2.4  ,2.4
9339  ,1.632e+07   ,-2.5  ,1.3  ,0.1
9341  ,1.876e+06   ,-2.3  ,-2.5  ,2.7424
9344  ,1.336e+06   ,-2.5  ,-2.4  ,2.2
9358  ,3.900e+08   ,-2.3  ,2.3  ,2.5
9364  ,6.392e+07   ,-2.5  ,-2.1  ,4.9
9367  ,5.319e+07   ,-2.4  ,-2.3  ,5
9374  ,9.219e+07   ,-2.4  ,-1.3  ,5
9378  ,1.056e+08   ,-2.5  ,2.4  ,1.8
9384  ,8.550e+07   ,2.3  ,-2.5  ,2.0162
9385  ,1.120e+08   ,-2.5  ,2.4  ,4.4
9389  ,6.721e+07   ,-2.5  ,2.4  ,2
9395  ,4.477e+07   ,2.4  ,-2.3015  ,5
9396  ,1.070e+06   ,-2.4  ,-1.7  ,0
9407  ,1.665e+08   ,-2.3  ,-1.4729  ,4.8
9411  ,7.574e+07   ,-2.5  ,-1.7  ,4.9
9423  ,6.089e+06   ,-2.4  ,-2.5  ,3.6
9432  ,1.360e+08   ,0.7  ,-2.4  ,5
9438  ,1.238e+08   ,-2.5  ,-0.9  ,4.9
9443  ,8.050e+07   ,-2.5  ,-0.3  ,4.9
9445  ,4.876e+07   ,-2.4707  ,2.4  ,4.9707
9448  ,1.602e+08   ,2.4  ,-1.1189  ,5
9453  ,1.155e+08   ,2.4  ,0.7  ,0
9455  ,5.889e+07   ,2.5  ,-2.4  ,2.6
9457  ,4.987e+07   ,2.3  ,-2.5  ,2.9838
9494  ,1.100e+08   ,-2.4  ,2.5  ,1
9500  ,8.779e+07   ,0.3  ,-2.5  ,4.9
9504  ,1.057e+08   ,0.3  ,-2.4  ,5
9506  ,1.545e+07   ,2.1  ,-2.5  ,0.1
9518  ,9.293e+05   ,-1.9  ,-2.5  ,0.1
9528  ,2.636e+07   ,2.3  ,-2.5  ,0.1
9531  ,3.550e+07   ,2.4707  ,-2.4707  ,0.1
9533  ,2.783e+07   ,2.4707  ,-2.4  ,0.029289
9534  ,3.191e+07   ,2.4  ,-2.4707  ,0.029289
9541  ,1.026e+08   ,0.5  ,-2.5  ,4.9
9544  ,6.077e+05   ,-0.5  ,-2.5  ,0.1
9559  ,7.914e+07   ,-2.5  ,-1.9  ,4.9
9562  ,8.311e+07   ,-2.5  ,2.4  ,4.6
9565  ,8.670e+07   ,-2.4  ,2.5  ,2
9571  ,5.042e+06   ,-2.5  ,-2.4  ,3.8
9574  ,6.729e+06   ,-2.4  ,-2.5  ,3.8
9577  ,7.981e+06   ,1.3  ,-2.5  ,0.1
9582  ,4.138e+06   ,-2.5  ,-0.9  ,0.1
9596  ,6.468e+07   ,2.1  ,2.4  ,0
9598  ,1.314e+08   ,-2.4  ,2.5  ,3.2
9602  ,8.783e+07   ,1.5  ,2.5  ,0.1
9610  ,1.579e+08   ,2.4  ,2.5  ,0.39564
9612  ,9.098e+07   ,-0.72473  ,2.5  ,4.9
9614  ,8.034e+07   ,1.7  ,2.5  ,0.1
9635  ,1.003e+08   ,2.5  ,1.7  ,0.1
9646  ,6.999e+07   ,2.3  ,2.5  ,0.1
9651  ,1.312e+10   ,2.1656  ,2.4888  ,4.9325
9653  ,2.010e+08   ,2.5  ,-1.316  ,4.9
9656  ,7.273e+07   ,-2.4  ,-1.7  ,5
9659  ,8.687e+07   ,2.3  ,-2.5  ,4.6765
9661  ,1.565e+08   ,2.3  ,-2.5  ,3.9531
9664  ,4.739e+07   ,-2.3  ,-2.4  ,5
9666  ,1.838e+07   ,1.9  ,-2.4  ,0
9677  ,1.085e+08   ,2.4  ,0.5  ,0
9678  ,3.629e+06   ,-2.5  ,-1.1  ,0.1
9680  ,8.323e+07   ,2.5  ,2.4  ,1.184
9681  ,8.766e+07   ,2.5  ,2.4  ,0.19855
9696  ,1.003e+06   ,-2.3  ,-2.5  ,2.0162
9698  ,3.818e+07   ,2.4  ,-2.3  ,0
9699  ,9.208e+05   ,-0.24243  ,-2.5  ,0.2
9701  ,1.259e+06   ,0.1  ,-2.4  ,0
9704  ,5.570e+05   ,-0.4838  ,-2.5  ,0.2
9718  ,1.580e+06   ,-0.72262  ,-2.5  ,0.2
9726  ,1.737e+08   ,2.3  ,-0.76628  ,0.2
9727  ,6.911e+07   ,-2.5  ,2.4  ,0.4
9730  ,5.986e+07   ,1.9433E-06  ,-2.5  ,4.8
9731  ,8.358e+07   ,-0.24243  ,-2.5  ,4.8
9732  ,5.709e+07   ,-2.5  ,2.4  ,2.2
9738  ,5.924e+06   ,-2.5  ,-2.4  ,4
9743  ,1.162e+08   ,-1.6937  ,-2.5  ,4.8
9744  ,7.871e+06   ,-2.4  ,-2.5  ,4
9750  ,1.268e+06   ,-1.7  ,-2.5  ,0.1
9752  ,9.799e+05   ,-1.6937  ,-2.5  ,0.2
9754  ,1.327e+06   ,-1.3  ,-2.4  ,0
9759  ,4.277e+07   ,-2.4707  ,2.4  ,0.029289
9760  ,3.384e+07   ,-2.4  ,2.4707  ,0.029289
9768  ,8.617e+07   ,2.3  ,-2.5  ,4.1937
9770  ,1.850e+06   ,1.9433E-06  ,-2.5  ,0.2
9771  ,3.799e+06   ,0.4838  ,-2.5  ,0.2
9772  ,4.502e+07   ,2.4  ,-2.5  ,0.2
9773  ,7.504e+07   ,2.4  ,-2.5  ,4.6
9776  ,3.003e+08   ,2.4  ,0.063638  ,5
9780  ,9.239e+08   ,0.65491  ,2.5  ,4.9
9781  ,8.674e+07   ,2.4  ,2.5  ,0.19855
9782  ,3.603e+06   ,-2.3  ,-2.5  ,2.9838
9786  ,1.216e+06   ,-1.2085  ,-2.5  ,0.2
9787  ,1.810e+06   ,-1.4531  ,-2.5  ,0.2
9790  ,1.719e+07   ,2.3  ,-2.4  ,0
9793  ,4.089e+09   ,2.0345  ,2.4  ,5
9797  ,8.802e+07   ,2.3  ,-2.5  ,1.5364
9798  ,8.870e+08   ,2.4  ,1.0491  ,5
9809  ,9.095e+08   ,2.4  ,2.5  ,3.352
