Date:  11:23, Monday, July 10, 2023
Model name: Hollow_DropBox
Study name: Drop Test_hollow_draft1(-Default-)
Plot type:  Stress1
Plot step: 15   time : 78.7011 Microseconds
Result Type: von Mises 


Node  ,Value (N/m^2)  ,X (in)  ,Y (in)  ,Z (in)
1  ,6.278e+09   ,2.5  ,2.1331  ,4.9
2  ,2.245e+10   ,2.4577  ,2.1908  ,4.9577
3  ,1.311e+10   ,2.4894  ,2.1331  ,4.9447
4  ,6.773e+09   ,2.1331  ,2.5  ,4.9
5  ,1.482e+10   ,2.1331  ,2.4894  ,4.9447
6  ,2.064e+10   ,2.1908  ,2.4577  ,4.9577
7  ,1.520e+08   ,-2.4  ,2.4  ,5
8  ,6.463e+08   ,-2.4  ,-2.4  ,5
9  ,9.994e+08   ,2.4  ,-2.4  ,5
10  ,5.747e+09   ,2.4  ,2.1331  ,5
11  ,6.292e+09   ,2.1331  ,2.4  ,5
12  ,1.086e+09   ,2.5  ,-2.4  ,4.9
13  ,6.355e+08   ,2.5  ,-2.4  ,0.1
14  ,1.053e+08   ,2.5  ,2.4  ,0.1
15  ,6.771e+09   ,2.5  ,2.4  ,4.6331
16  ,1.130e+08   ,2.4  ,2.5  ,0.1
17  ,8.640e+07   ,-2.4  ,2.5  ,0.1
18  ,1.228e+08   ,-2.4  ,2.5  ,4.9
19  ,6.684e+09   ,2.4  ,2.5  ,4.6331
20  ,7.899e+07   ,-2.5  ,2.4  ,0.1
21  ,3.720e+08   ,-2.5  ,-2.4  ,0.1
22  ,4.444e+08   ,-2.5  ,-2.4  ,4.9
23  ,1.553e+08   ,-2.5  ,2.4  ,4.9
24  ,4.215e+08   ,-2.3  ,-2.5  ,0.2
25  ,6.818e+08   ,-2.3  ,-2.5  ,4.8
26  ,8.920e+08   ,2.3  ,-2.5  ,4.8
27  ,7.194e+08   ,2.3  ,-2.5  ,0.2
28  ,6.388e+08   ,-2.4  ,-2.5  ,4.9
29  ,1.146e+09   ,2.4  ,-2.5  ,4.9
30  ,3.928e+08   ,-2.4  ,-2.5  ,0.1
31  ,6.684e+08   ,2.4  ,-2.5  ,0.1
32  ,5.045e+08   ,2.4  ,-2.4  ,0
33  ,1.352e+08   ,2.4  ,2.4  ,0
34  ,4.136e+08   ,-2.4  ,-2.4  ,0
35  ,9.490e+07   ,-2.4  ,2.4  ,0
36  ,2.548e+10   ,2.4577  ,2.4577  ,4.6908
37  ,4.038e+08   ,-2.3  ,2.3  ,4.8
38  ,7.417e+09   ,2.1599  ,2.3  ,4.8
39  ,7.155e+09   ,2.3  ,2.1599  ,4.8
40  ,7.168e+09   ,2.3  ,2.3  ,4.6599
41  ,4.092e+08   ,2.3  ,2.3  ,0.2
42  ,2.405e+08   ,-2.3  ,2.3  ,0.2
43  ,1.960e+08   ,-2.4  ,2.2  ,5
44  ,2.985e+08   ,-2.4  ,2  ,5
45  ,2.880e+08   ,-2.4  ,1.8  ,5
46  ,2.845e+08   ,-2.4  ,1.6  ,5
47  ,2.974e+08   ,-2.4  ,1.4  ,5
48  ,3.778e+08   ,-2.4  ,1.2  ,5
49  ,3.857e+08   ,-2.4  ,1  ,5
50  ,4.811e+08   ,-2.4  ,0.8  ,5
51  ,4.391e+08   ,-2.4  ,0.6  ,5
52  ,3.961e+08   ,-2.4  ,0.4  ,5
53  ,4.019e+08   ,-2.4  ,0.2  ,5
54  ,3.490e+08   ,-2.4  ,5.8879E-16  ,5
55  ,3.380e+08   ,-2.4  ,-0.2  ,5
56  ,4.299e+08   ,-2.4  ,-0.4  ,5
57  ,4.596e+08   ,-2.4  ,-0.6  ,5
58  ,4.666e+08   ,-2.4  ,-0.8  ,5
59  ,4.712e+08   ,-2.4  ,-1  ,5
60  ,4.416e+08   ,-2.4  ,-1.2  ,5
61  ,5.127e+08   ,-2.4  ,-1.4  ,5
62  ,4.122e+08   ,-2.4  ,-1.6  ,5
63  ,3.866e+08   ,-2.4  ,-1.8  ,5
64  ,5.297e+08   ,-2.4  ,-2  ,5
65  ,5.357e+08   ,-2.4  ,-2.2  ,5
66  ,9.345e+08   ,-2.2  ,-2.4  ,5
67  ,9.854e+08   ,-2  ,-2.4  ,5
68  ,9.826e+08   ,-1.8  ,-2.4  ,5
69  ,8.395e+08   ,-1.6  ,-2.4  ,5
70  ,7.029e+08   ,-1.4  ,-2.4  ,5
71  ,5.768e+08   ,-1.2  ,-2.4  ,5
72  ,4.036e+08   ,-1  ,-2.4  ,5
73  ,3.362e+08   ,-0.8  ,-2.4  ,5
74  ,3.033e+08   ,-0.6  ,-2.4  ,5
75  ,3.093e+08   ,-0.4  ,-2.4  ,5
76  ,2.295e+08   ,-0.2  ,-2.4  ,5
77  ,1.472e+08   ,-5.8879E-16  ,-2.4  ,5
78  ,3.765e+08   ,0.2  ,-2.4  ,5
79  ,7.591e+08   ,0.4  ,-2.4  ,5
80  ,1.203e+09   ,0.6  ,-2.4  ,5
81  ,1.356e+09   ,0.8  ,-2.4  ,5
82  ,1.360e+09   ,1  ,-2.4  ,5
83  ,1.204e+09   ,1.2  ,-2.4  ,5
84  ,9.798e+08   ,1.4  ,-2.4  ,5
85  ,4.573e+08   ,1.6  ,-2.4  ,5
86  ,2.953e+08   ,1.8  ,-2.4  ,5
87  ,6.213e+08   ,2  ,-2.4  ,5
88  ,1.647e+09   ,2.2  ,-2.4  ,5
89  ,8.716e+08   ,2.4  ,-2.2029  ,5
90  ,9.851e+08   ,2.4  ,-2.0058  ,5
91  ,7.769e+08   ,2.4  ,-1.8087  ,5
92  ,7.173e+08   ,2.4  ,-1.6116  ,5
93  ,7.815e+08   ,2.4  ,-1.4145  ,5
94  ,6.769e+08   ,2.4  ,-1.2175  ,5
95  ,7.298e+08   ,2.4  ,-1.0204  ,5
96  ,8.332e+08   ,2.4  ,-0.82327  ,5
97  ,7.817e+08   ,2.4  ,-0.62618  ,5
98  ,7.451e+08   ,2.4  ,-0.42909  ,5
99  ,6.610e+08   ,2.4  ,-0.232  ,5
100  ,5.976e+08   ,2.4  ,-0.034907  ,5
101  ,6.000e+08   ,2.4  ,0.16218  ,5
102  ,6.216e+08   ,2.4  ,0.35927  ,5
103  ,7.824e+08   ,2.4  ,0.55637  ,5
104  ,8.613e+08   ,2.4  ,0.75346  ,5
105  ,8.947e+08   ,2.4  ,0.95055  ,5
106  ,9.551e+08   ,2.4  ,1.1476  ,5
107  ,1.512e+09   ,2.4  ,1.3447  ,5
108  ,2.093e+09   ,2.4  ,1.5418  ,5
109  ,2.844e+09   ,2.4  ,1.7389  ,5
110  ,4.617e+09   ,2.4  ,1.936  ,5
111  ,6.289e+09   ,2.2665  ,2.2665  ,5
112  ,5.060e+09   ,1.936  ,2.4  ,5
113  ,3.044e+09   ,1.7389  ,2.4  ,5
114  ,2.434e+09   ,1.5418  ,2.4  ,5
115  ,1.779e+09   ,1.3447  ,2.4  ,5
116  ,1.364e+09   ,1.1476  ,2.4  ,5
117  ,1.266e+09   ,0.95055  ,2.4  ,5
118  ,1.304e+09   ,0.75346  ,2.4  ,5
119  ,1.203e+09   ,0.55637  ,2.4  ,5
120  ,1.101e+09   ,0.35927  ,2.4  ,5
121  ,1.034e+09   ,0.16218  ,2.4  ,5
122  ,1.028e+09   ,-0.034907  ,2.4  ,5
123  ,1.018e+09   ,-0.232  ,2.4  ,5
124  ,9.122e+08   ,-0.42909  ,2.4  ,5
125  ,8.952e+08   ,-0.62618  ,2.4  ,5
126  ,1.003e+09   ,-0.82327  ,2.4  ,5
127  ,9.266e+08   ,-1.0204  ,2.4  ,5
128  ,8.375e+08   ,-1.2175  ,2.4  ,5
129  ,7.054e+08   ,-1.4145  ,2.4  ,5
130  ,4.725e+08   ,-1.6116  ,2.4  ,5
131  ,3.231e+08   ,-1.8087  ,2.4  ,5
132  ,2.173e+08   ,-2.0058  ,2.4  ,5
133  ,1.580e+08   ,-2.2029  ,2.4  ,5
294  ,7.562e+08   ,2.5  ,-2.2029  ,4.9
295  ,9.724e+08   ,2.5  ,-2.0058  ,4.9
296  ,7.812e+08   ,2.5  ,-1.8087  ,4.9
297  ,8.016e+08   ,2.5  ,-1.6116  ,4.9
298  ,6.637e+08   ,2.5  ,-1.4145  ,4.9
299  ,6.936e+08   ,2.5  ,-1.2175  ,4.9
300  ,7.721e+08   ,2.5  ,-1.0204  ,4.9
301  ,6.488e+08   ,2.5  ,-0.82327  ,4.9
302  ,7.246e+08   ,2.5  ,-0.62618  ,4.9
303  ,7.297e+08   ,2.5  ,-0.42909  ,4.9
304  ,7.987e+08   ,2.5  ,-0.232  ,4.9
305  ,8.845e+08   ,2.5  ,-0.034907  ,4.9
306  ,7.328e+08   ,2.5  ,0.16218  ,4.9
307  ,6.207e+08   ,2.5  ,0.35927  ,4.9
308  ,7.213e+08   ,2.5  ,0.55637  ,4.9
309  ,8.010e+08   ,2.5  ,0.75346  ,4.9
310  ,8.891e+08   ,2.5  ,0.95055  ,4.9
311  ,1.191e+09   ,2.5  ,1.1476  ,4.9
312  ,1.576e+09   ,2.5  ,1.3447  ,4.9
313  ,2.133e+09   ,2.5  ,1.5418  ,4.9
314  ,3.296e+09   ,2.5  ,1.7389  ,4.9
315  ,5.069e+09   ,2.5  ,1.936  ,4.9
316  ,1.705e+09   ,2.5  ,-2.4  ,4.7
317  ,5.769e+08   ,2.5  ,-2.4  ,4.5
318  ,2.056e+08   ,2.5  ,-2.4  ,4.3
319  ,4.764e+08   ,2.5  ,-2.4  ,4.1
320  ,9.214e+08   ,2.5  ,-2.4  ,3.9
321  ,1.259e+09   ,2.5  ,-2.4  ,3.7
322  ,1.400e+09   ,2.5  ,-2.4  ,3.5
323  ,1.275e+09   ,2.5  ,-2.4  ,3.3
324  ,1.048e+09   ,2.5  ,-2.4  ,3.1
325  ,7.328e+08   ,2.5  ,-2.4  ,2.9
326  ,4.085e+08   ,2.5  ,-2.4  ,2.7
327  ,1.151e+08   ,2.5  ,-2.4  ,2.5
328  ,2.367e+08   ,2.5  ,-2.4  ,2.3
329  ,3.637e+08   ,2.5  ,-2.4  ,2.1
330  ,3.925e+08   ,2.5  ,-2.4  ,1.9
331  ,4.309e+08   ,2.5  ,-2.4  ,1.7
332  ,4.925e+08   ,2.5  ,-2.4  ,1.5
333  ,5.979e+08   ,2.5  ,-2.4  ,1.3
334  ,6.663e+08   ,2.5  ,-2.4  ,1.1
335  ,7.744e+08   ,2.5  ,-2.4  ,0.9
336  ,9.476e+08   ,2.5  ,-2.4  ,0.7
337  ,9.711e+08   ,2.5  ,-2.4  ,0.5
338  ,9.611e+08   ,2.5  ,-2.4  ,0.3
339  ,5.620e+08   ,2.5  ,-2.2  ,0.1
340  ,5.332e+08   ,2.5  ,-2  ,0.1
341  ,3.455e+08   ,2.5  ,-1.8  ,0.1
342  ,3.293e+08   ,2.5  ,-1.6  ,0.1
343  ,3.490e+08   ,2.5  ,-1.4  ,0.1
344  ,4.277e+08   ,2.5  ,-1.2  ,0.1
345  ,4.445e+08   ,2.5  ,-1  ,0.1
346  ,4.216e+08   ,2.5  ,-0.8  ,0.1
347  ,4.322e+08   ,2.5  ,-0.6  ,0.1
348  ,3.885e+08   ,2.5  ,-0.4  ,0.1
349  ,3.752e+08   ,2.5  ,-0.2  ,0.1
350  ,3.839e+08   ,2.5  ,-1.7664E-15  ,0.1
351  ,3.847e+08   ,2.5  ,0.2  ,0.1
352  ,4.446e+08   ,2.5  ,0.4  ,0.1
353  ,4.488e+08   ,2.5  ,0.6  ,0.1
354  ,4.885e+08   ,2.5  ,0.8  ,0.1
355  ,3.764e+08   ,2.5  ,1  ,0.1
356  ,3.620e+08   ,2.5  ,1.2  ,0.1
357  ,3.329e+08   ,2.5  ,1.4  ,0.1
358  ,3.055e+08   ,2.5  ,1.6  ,0.1
359  ,2.333e+08   ,2.5  ,1.8  ,0.1
360  ,2.126e+08   ,2.5  ,2  ,0.1
361  ,1.703e+08   ,2.5  ,2.2  ,0.1
362  ,4.844e+09   ,2.5  ,2.4  ,4.436
363  ,3.412e+09   ,2.5  ,2.4  ,4.2389
364  ,2.298e+09   ,2.5  ,2.4  ,4.0418
365  ,1.812e+09   ,2.5  ,2.4  ,3.8447
366  ,1.431e+09   ,2.5  ,2.4  ,3.6476
367  ,1.306e+09   ,2.5  ,2.4  ,3.4505
368  ,1.291e+09   ,2.5  ,2.4  ,3.2535
369  ,1.220e+09   ,2.5  ,2.4  ,3.0564
370  ,1.158e+09   ,2.5  ,2.4  ,2.8593
371  ,1.049e+09   ,2.5  ,2.4  ,2.6622
372  ,1.130e+09   ,2.5  ,2.4  ,2.4651
373  ,9.638e+08   ,2.5  ,2.4  ,2.268
374  ,1.017e+09   ,2.5  ,2.4  ,2.0709
375  ,9.915e+08   ,2.5  ,2.4  ,1.8738
376  ,1.047e+09   ,2.5  ,2.4  ,1.6767
377  ,6.688e+08   ,2.5  ,2.4  ,1.4796
378  ,6.969e+08   ,2.5  ,2.4  ,1.2825
379  ,6.338e+08   ,2.5  ,2.4  ,1.0855
380  ,5.658e+08   ,2.5  ,2.4  ,0.88836
381  ,4.498e+08   ,2.5  ,2.4  ,0.69127
382  ,2.191e+08   ,2.5  ,2.4  ,0.49418
383  ,1.139e+08   ,2.5  ,2.4  ,0.29709
384  ,6.322e+09   ,2.5  ,2.2665  ,4.7665
544  ,2.346e+08   ,2.2  ,2.5  ,0.1
545  ,2.933e+08   ,2  ,2.5  ,0.1
546  ,3.058e+08   ,1.8  ,2.5  ,0.1
547  ,3.291e+08   ,1.6  ,2.5  ,0.1
548  ,3.245e+08   ,1.4  ,2.5  ,0.1
549  ,3.885e+08   ,1.2  ,2.5  ,0.1
550  ,4.959e+08   ,1  ,2.5  ,0.1
551  ,7.624e+08   ,0.8  ,2.5  ,0.1
552  ,7.775e+08   ,0.6  ,2.5  ,0.1
553  ,7.610e+08   ,0.4  ,2.5  ,0.1
554  ,8.031e+08   ,0.2  ,2.5  ,0.1
555  ,6.937e+08   ,5.8879E-16  ,2.5  ,0.1
556  ,3.752e+08   ,-0.2  ,2.5  ,0.1
557  ,4.749e+08   ,-0.4  ,2.5  ,0.1
558  ,5.630e+08   ,-0.6  ,2.5  ,0.1
559  ,6.450e+08   ,-0.8  ,2.5  ,0.1
560  ,6.332e+08   ,-1  ,2.5  ,0.1
561  ,6.494e+08   ,-1.2  ,2.5  ,0.1
562  ,6.130e+08   ,-1.4  ,2.5  ,0.1
563  ,5.925e+08   ,-1.6  ,2.5  ,0.1
564  ,5.631e+08   ,-1.8  ,2.5  ,0.1
565  ,4.524e+08   ,-2  ,2.5  ,0.1
566  ,3.426e+08   ,-2.2  ,2.5  ,0.1
567  ,1.999e+08   ,-2.4  ,2.5  ,4.7
568  ,2.690e+08   ,-2.4  ,2.5  ,4.5
569  ,2.739e+08   ,-2.4  ,2.5  ,4.3
570  ,3.152e+08   ,-2.4  ,2.5  ,4.1
571  ,3.303e+08   ,-2.4  ,2.5  ,3.9
572  ,3.774e+08   ,-2.4  ,2.5  ,3.7
573  ,4.705e+08   ,-2.4  ,2.5  ,3.5
574  ,7.061e+08   ,-2.4  ,2.5  ,3.3
575  ,6.751e+08   ,-2.4  ,2.5  ,3.1
576  ,6.534e+08   ,-2.4  ,2.5  ,2.9
577  ,6.603e+08   ,-2.4  ,2.5  ,2.7
578  ,6.203e+08   ,-2.4  ,2.5  ,2.5
579  ,5.944e+08   ,-2.4  ,2.5  ,2.3
580  ,6.062e+08   ,-2.4  ,2.5  ,2.1
581  ,5.901e+08   ,-2.4  ,2.5  ,1.9
582  ,5.973e+08   ,-2.4  ,2.5  ,1.7
583  ,5.962e+08   ,-2.4  ,2.5  ,1.5
584  ,6.202e+08   ,-2.4  ,2.5  ,1.3
585  ,6.003e+08   ,-2.4  ,2.5  ,1.1
586  ,5.749e+08   ,-2.4  ,2.5  ,0.9
587  ,5.353e+08   ,-2.4  ,2.5  ,0.7
588  ,4.755e+08   ,-2.4  ,2.5  ,0.5
589  ,3.465e+08   ,-2.4  ,2.5  ,0.3
590  ,5.473e+09   ,1.936  ,2.5  ,4.9
591  ,2.896e+09   ,1.7389  ,2.5  ,4.9
592  ,2.188e+09   ,1.5418  ,2.5  ,4.9
593  ,1.849e+09   ,1.3447  ,2.5  ,4.9
594  ,1.389e+09   ,1.1476  ,2.5  ,4.9
595  ,1.330e+09   ,0.95055  ,2.5  ,4.9
596  ,1.295e+09   ,0.75346  ,2.5  ,4.9
597  ,1.188e+09   ,0.55637  ,2.5  ,4.9
598  ,1.148e+09   ,0.35927  ,2.5  ,4.9
599  ,1.068e+09   ,0.16218  ,2.5  ,4.9
600  ,9.928e+08   ,-0.034907  ,2.5  ,4.9
601  ,9.076e+08   ,-0.232  ,2.5  ,4.9
602  ,1.030e+09   ,-0.42909  ,2.5  ,4.9
603  ,1.098e+09   ,-0.62618  ,2.5  ,4.9
604  ,1.036e+09   ,-0.82327  ,2.5  ,4.9
605  ,1.005e+09   ,-1.0204  ,2.5  ,4.9
606  ,9.357e+08   ,-1.2175  ,2.5  ,4.9
607  ,7.299e+08   ,-1.4145  ,2.5  ,4.9
608  ,5.461e+08   ,-1.6116  ,2.5  ,4.9
609  ,3.588e+08   ,-1.8087  ,2.5  ,4.9
610  ,2.132e+08   ,-2.0058  ,2.5  ,4.9
611  ,1.107e+08   ,-2.2029  ,2.5  ,4.9
612  ,6.699e+09   ,2.2665  ,2.5  ,4.7665
613  ,4.722e+09   ,2.4  ,2.5  ,4.436
614  ,3.104e+09   ,2.4  ,2.5  ,4.2389
615  ,2.274e+09   ,2.4  ,2.5  ,4.0418
616  ,1.837e+09   ,2.4  ,2.5  ,3.8447
617  ,1.462e+09   ,2.4  ,2.5  ,3.6476
618  ,1.307e+09   ,2.4  ,2.5  ,3.4505
619  ,1.335e+09   ,2.4  ,2.5  ,3.2535
620  ,1.238e+09   ,2.4  ,2.5  ,3.0564
621  ,1.098e+09   ,2.4  ,2.5  ,2.8593
622  ,1.066e+09   ,2.4  ,2.5  ,2.6622
623  ,1.003e+09   ,2.4  ,2.5  ,2.4651
624  ,9.456e+08   ,2.4  ,2.5  ,2.268
625  ,9.368e+08   ,2.4  ,2.5  ,2.0709
626  ,9.702e+08   ,2.4  ,2.5  ,1.8738
627  ,1.023e+09   ,2.4  ,2.5  ,1.6767
628  ,1.033e+09   ,2.4  ,2.5  ,1.4796
629  ,9.684e+08   ,2.4  ,2.5  ,1.2825
630  ,6.839e+08   ,2.4  ,2.5  ,1.0855
631  ,5.141e+08   ,2.4  ,2.5  ,0.88836
632  ,3.535e+08   ,2.4  ,2.5  ,0.69127
633  ,2.755e+08   ,2.4  ,2.5  ,0.49418
634  ,8.633e+07   ,2.4  ,2.5  ,0.29709
796  ,1.706e+08   ,-2.5  ,2.2  ,0.1
797  ,2.876e+08   ,-2.5  ,2  ,0.1
798  ,3.647e+08   ,-2.5  ,1.8  ,0.1
799  ,4.593e+08   ,-2.5  ,1.6  ,0.1
800  ,5.274e+08   ,-2.5  ,1.4  ,0.1
801  ,5.794e+08   ,-2.5  ,1.2  ,0.1
802  ,6.580e+08   ,-2.5  ,1  ,0.1
803  ,7.213e+08   ,-2.5  ,0.8  ,0.1
804  ,7.635e+08   ,-2.5  ,0.6  ,0.1
805  ,7.820e+08   ,-2.5  ,0.4  ,0.1
806  ,7.252e+08   ,-2.5  ,0.2  ,0.1
807  ,6.737e+08   ,-2.5  ,5.8879E-16  ,0.1
808  ,5.487e+08   ,-2.5  ,-0.2  ,0.1
809  ,4.919e+08   ,-2.5  ,-0.4  ,0.1
810  ,5.492e+08   ,-2.5  ,-0.6  ,0.1
811  ,5.479e+08   ,-2.5  ,-0.8  ,0.1
812  ,5.041e+08   ,-2.5  ,-1  ,0.1
813  ,3.929e+08   ,-2.5  ,-1.2  ,0.1
814  ,2.892e+08   ,-2.5  ,-1.4  ,0.1
815  ,2.416e+08   ,-2.5  ,-1.6  ,0.1
816  ,2.422e+08   ,-2.5  ,-1.8  ,0.1
817  ,3.049e+08   ,-2.5  ,-2  ,0.1
818  ,3.124e+08   ,-2.5  ,-2.2  ,0.1
819  ,5.460e+08   ,-2.5  ,-2.4  ,4.7
820  ,3.301e+08   ,-2.5  ,-2.4  ,4.5
821  ,4.932e+08   ,-2.5  ,-2.4  ,4.3
822  ,7.989e+08   ,-2.5  ,-2.4  ,4.1
823  ,9.341e+08   ,-2.5  ,-2.4  ,3.9
824  ,9.814e+08   ,-2.5  ,-2.4  ,3.7
825  ,1.058e+09   ,-2.5  ,-2.4  ,3.5
826  ,9.120e+08   ,-2.5  ,-2.4  ,3.3
827  ,8.068e+08   ,-2.5  ,-2.4  ,3.1
828  ,4.933e+08   ,-2.5  ,-2.4  ,2.9
829  ,3.147e+08   ,-2.5  ,-2.4  ,2.7
830  ,2.256e+08   ,-2.5  ,-2.4  ,2.5
831  ,1.364e+08   ,-2.5  ,-2.4  ,2.3
832  ,5.339e+07   ,-2.5  ,-2.4  ,2.1
833  ,1.160e+08   ,-2.5  ,-2.4  ,1.9
834  ,1.734e+08   ,-2.5  ,-2.4  ,1.7
835  ,3.028e+08   ,-2.5  ,-2.4  ,1.5
836  ,4.277e+08   ,-2.5  ,-2.4  ,1.3
837  ,5.217e+08   ,-2.5  ,-2.4  ,1.1
838  ,5.383e+08   ,-2.5  ,-2.4  ,0.9
839  ,3.887e+08   ,-2.5  ,-2.4  ,0.7
840  ,2.592e+08   ,-2.5  ,-2.4  ,0.5
841  ,5.407e+08   ,-2.5  ,-2.4  ,0.3
842  ,2.272e+08   ,-2.5  ,2.2  ,4.9
843  ,2.897e+08   ,-2.5  ,2  ,4.9
844  ,2.693e+08   ,-2.5  ,1.8  ,4.9
845  ,2.891e+08   ,-2.5  ,1.6  ,4.9
846  ,3.023e+08   ,-2.5  ,1.4  ,4.9
847  ,3.307e+08   ,-2.5  ,1.2  ,4.9
848  ,3.663e+08   ,-2.5  ,1  ,4.9
849  ,4.718e+08   ,-2.5  ,0.8  ,4.9
850  ,3.869e+08   ,-2.5  ,0.6  ,4.9
851  ,3.731e+08   ,-2.5  ,0.4  ,4.9
852  ,3.817e+08   ,-2.5  ,0.2  ,4.9
853  ,3.525e+08   ,-2.5  ,5.8879E-16  ,4.9
854  ,3.179e+08   ,-2.5  ,-0.2  ,4.9
855  ,3.170e+08   ,-2.5  ,-0.4  ,4.9
856  ,3.165e+08   ,-2.5  ,-0.6  ,4.9
857  ,3.944e+08   ,-2.5  ,-0.8  ,4.9
858  ,4.049e+08   ,-2.5  ,-1  ,4.9
859  ,4.216e+08   ,-2.5  ,-1.2  ,4.9
860  ,3.185e+08   ,-2.5  ,-1.4  ,4.9
861  ,2.788e+08   ,-2.5  ,-1.6  ,4.9
862  ,3.218e+08   ,-2.5  ,-1.8  ,4.9
863  ,4.703e+08   ,-2.5  ,-2  ,4.9
864  ,5.272e+08   ,-2.5  ,-2.2  ,4.9
865  ,2.197e+08   ,-2.5  ,2.4  ,4.7
866  ,3.080e+08   ,-2.5  ,2.4  ,4.5
867  ,3.536e+08   ,-2.5  ,2.4  ,4.3
868  ,3.304e+08   ,-2.5  ,2.4  ,4.1
869  ,4.348e+08   ,-2.5  ,2.4  ,3.9
870  ,4.691e+08   ,-2.5  ,2.4  ,3.7
871  ,5.413e+08   ,-2.5  ,2.4  ,3.5
872  ,6.208e+08   ,-2.5  ,2.4  ,3.3
873  ,6.257e+08   ,-2.5  ,2.4  ,3.1
874  ,6.301e+08   ,-2.5  ,2.4  ,2.9
875  ,6.239e+08   ,-2.5  ,2.4  ,2.7
876  ,6.101e+08   ,-2.5  ,2.4  ,2.5
877  ,5.973e+08   ,-2.5  ,2.4  ,2.3
878  ,5.867e+08   ,-2.5  ,2.4  ,2.1
879  ,5.456e+08   ,-2.5  ,2.4  ,1.9
880  ,5.025e+08   ,-2.5  ,2.4  ,1.7
881  ,5.104e+08   ,-2.5  ,2.4  ,1.5
882  ,5.640e+08   ,-2.5  ,2.4  ,1.3
883  ,5.127e+08   ,-2.5  ,2.4  ,1.1
884  ,4.905e+08   ,-2.5  ,2.4  ,0.9
885  ,4.416e+08   ,-2.5  ,2.4  ,0.7
886  ,3.421e+08   ,-2.5  ,2.4  ,0.5
887  ,1.860e+08   ,-2.5  ,2.4  ,0.3
1044  ,4.381e+08   ,-2.3  ,-2.5  ,0.44697
1045  ,2.416e+08   ,-2.3  ,-2.5  ,0.68705
1046  ,2.387e+08   ,-2.3  ,-2.5  ,0.92554
1047  ,1.359e+08   ,-2.3  ,-2.5  ,1.1682
1048  ,1.428e+08   ,-2.3  ,-2.5  ,1.4148
1049  ,3.512e+08   ,-2.3  ,-2.5  ,1.6581
1050  ,4.652e+08   ,-2.3  ,-2.5  ,1.8967
1051  ,5.506e+08   ,-2.3  ,-2.5  ,2.1357
1052  ,5.035e+08   ,-2.3  ,-2.5  ,2.3794
1053  ,3.922e+08   ,-2.3  ,-2.5  ,2.6206
1054  ,1.918e+08   ,-2.3  ,-2.5  ,2.8643
1055  ,1.961e+08   ,-2.3  ,-2.5  ,3.1033
1056  ,3.723e+08   ,-2.3  ,-2.5  ,3.342
1057  ,4.349e+08   ,-2.3  ,-2.5  ,3.5852
1058  ,4.424e+08   ,-2.3  ,-2.5  ,3.8318
1059  ,4.386e+08   ,-2.3  ,-2.5  ,4.0745
1060  ,3.974e+08   ,-2.3  ,-2.5  ,4.3129
1061  ,3.094e+08   ,-2.3  ,-2.5  ,4.553
1062  ,1.138e+09   ,-2.053  ,-2.5  ,4.8
1063  ,8.925e+08   ,-1.8129  ,-2.5  ,4.8
1064  ,6.645e+08   ,-1.5745  ,-2.5  ,4.8
1065  ,3.877e+08   ,-1.3318  ,-2.5  ,4.8
1066  ,2.302e+08   ,-1.0852  ,-2.5  ,4.8
1067  ,4.265e+08   ,-0.84195  ,-2.5  ,4.8
1068  ,6.667e+08   ,-0.60329  ,-2.5  ,4.8
1069  ,7.887e+08   ,-0.3643  ,-2.5  ,4.8
1070  ,7.327e+08   ,-0.12055  ,-2.5  ,4.8
1071  ,5.610e+08   ,0.12056  ,-2.5  ,4.8
1072  ,3.268e+08   ,0.3643  ,-2.5  ,4.8
1073  ,3.513e+08   ,0.6033  ,-2.5  ,4.8
1074  ,6.068e+08   ,0.84195  ,-2.5  ,4.8
1075  ,5.522e+08   ,1.0852  ,-2.5  ,4.8
1076  ,3.227e+08   ,1.3318  ,-2.5  ,4.8
1077  ,3.248e+08   ,1.5745  ,-2.5  ,4.8
1078  ,7.181e+08   ,1.8129  ,-2.5  ,4.8
1079  ,1.400e+09   ,2.053  ,-2.5  ,4.8
1080  ,1.357e+09   ,2.3  ,-2.5  ,4.553
1081  ,6.063e+08   ,2.3  ,-2.5  ,4.3129
1082  ,2.944e+08   ,2.3  ,-2.5  ,4.0745
1083  ,2.406e+08   ,2.3  ,-2.5  ,3.8318
1084  ,5.452e+08   ,2.3  ,-2.5  ,3.5852
1085  ,5.288e+08   ,2.3  ,-2.5  ,3.3419
1086  ,2.321e+08   ,2.3  ,-2.5  ,3.1033
1087  ,2.176e+08   ,2.3  ,-2.5  ,2.8643
1088  ,5.241e+08   ,2.3  ,-2.5  ,2.6206
1089  ,7.410e+08   ,2.3  ,-2.5  ,2.3794
1090  ,7.866e+08   ,2.3  ,-2.5  ,2.1357
1091  ,6.694e+08   ,2.3  ,-2.5  ,1.8967
1092  ,4.104e+08   ,2.3  ,-2.5  ,1.658
1093  ,2.220e+08   ,2.3  ,-2.5  ,1.4148
1094  ,4.108e+08   ,2.3  ,-2.5  ,1.1682
1095  ,6.563e+08   ,2.3  ,-2.5  ,0.92554
1096  ,8.848e+08   ,2.3  ,-2.5  ,0.68705
1097  ,1.099e+09   ,2.3  ,-2.5  ,0.44697
1098  ,3.873e+08   ,-2.053  ,-2.5  ,0.2
1099  ,2.444e+08   ,-1.8129  ,-2.5  ,0.2
1100  ,2.457e+08   ,-1.5745  ,-2.5  ,0.2
1101  ,1.227e+08   ,-1.3318  ,-2.5  ,0.2
1102  ,1.769e+08   ,-1.0852  ,-2.5  ,0.2
1103  ,3.563e+08   ,-0.84195  ,-2.5  ,0.2
1104  ,4.921e+08   ,-0.60329  ,-2.5  ,0.2
1105  ,5.518e+08   ,-0.3643  ,-2.5  ,0.2
1106  ,4.548e+08   ,-0.12055  ,-2.5  ,0.2
1107  ,3.520e+08   ,0.12056  ,-2.5  ,0.2
1108  ,1.961e+08   ,0.3643  ,-2.5  ,0.2
1109  ,1.348e+08   ,0.6033  ,-2.5  ,0.2
1110  ,3.795e+08   ,0.84195  ,-2.5  ,0.2
1111  ,4.375e+08   ,1.0852  ,-2.5  ,0.2
1112  ,4.232e+08   ,1.3318  ,-2.5  ,0.2
1113  ,3.876e+08   ,1.5745  ,-2.5  ,0.2
1114  ,3.478e+08   ,1.8129  ,-2.5  ,0.2
1115  ,3.923e+08   ,2.053  ,-2.5  ,0.2
1116  ,5.597e+08   ,-2.2  ,-2.5  ,4.9
1117  ,1.943e+08   ,-2  ,-2.5  ,4.9
1118  ,2.529e+08   ,-1.8  ,-2.5  ,4.9
1119  ,1.774e+08   ,-1.6  ,-2.5  ,4.9
1120  ,3.437e+08   ,-1.4  ,-2.5  ,4.9
1121  ,4.158e+08   ,-1.2  ,-2.5  ,4.9
1122  ,3.659e+08   ,-1  ,-2.5  ,4.9
1123  ,3.388e+08   ,-0.8  ,-2.5  ,4.9
1124  ,3.382e+08   ,-0.6  ,-2.5  ,4.9
1125  ,4.047e+08   ,-0.4  ,-2.5  ,4.9
1126  ,2.751e+08   ,-0.2  ,-2.5  ,4.9
1127  ,3.387e+08   ,-1.7664E-15  ,-2.5  ,4.9
1128  ,4.700e+08   ,0.2  ,-2.5  ,4.9
1129  ,6.430e+08   ,0.4  ,-2.5  ,4.9
1130  ,5.300e+08   ,0.6  ,-2.5  ,4.9
1131  ,4.662e+08   ,0.8  ,-2.5  ,4.9
1132  ,4.648e+08   ,1  ,-2.5  ,4.9
1133  ,5.881e+08   ,1.2  ,-2.5  ,4.9
1134  ,5.143e+08   ,1.4  ,-2.5  ,4.9
1135  ,5.341e+08   ,1.6  ,-2.5  ,4.9
1136  ,4.604e+08   ,1.8  ,-2.5  ,4.9
1137  ,3.643e+08   ,2  ,-2.5  ,4.9
1138  ,3.322e+08   ,2.2  ,-2.5  ,4.9
1139  ,6.951e+08   ,-2.4  ,-2.5  ,4.7
1140  ,4.545e+08   ,-2.4  ,-2.5  ,4.5
1141  ,2.988e+08   ,-2.4  ,-2.5  ,4.3
1142  ,2.141e+08   ,-2.4  ,-2.5  ,4.1
1143  ,2.985e+08   ,-2.4  ,-2.5  ,3.9
1144  ,4.126e+08   ,-2.4  ,-2.5  ,3.7
1145  ,2.911e+08   ,-2.4  ,-2.5  ,3.5
1146  ,3.877e+08   ,-2.4  ,-2.5  ,3.3
1147  ,3.557e+08   ,-2.4  ,-2.5  ,3.1
1148  ,3.797e+08   ,-2.4  ,-2.5  ,2.9
1149  ,3.411e+08   ,-2.4  ,-2.5  ,2.7
1150  ,3.710e+08   ,-2.4  ,-2.5  ,2.5
1151  ,3.258e+08   ,-2.4  ,-2.5  ,2.3
1152  ,3.103e+08   ,-2.4  ,-2.5  ,2.1
1153  ,2.674e+08   ,-2.4  ,-2.5  ,1.9
1154  ,2.771e+08   ,-2.4  ,-2.5  ,1.7
1155  ,2.806e+08   ,-2.4  ,-2.5  ,1.5
1156  ,2.940e+08   ,-2.4  ,-2.5  ,1.3
1157  ,2.223e+08   ,-2.4  ,-2.5  ,1.1
1158  ,2.725e+08   ,-2.4  ,-2.5  ,0.9
1159  ,3.348e+08   ,-2.4  ,-2.5  ,0.7
1160  ,3.003e+08   ,-2.4  ,-2.5  ,0.5
1161  ,2.467e+08   ,-2.4  ,-2.5  ,0.3
1162  ,3.186e+08   ,-2.2  ,-2.5  ,0.1
1163  ,4.335e+08   ,-2  ,-2.5  ,0.1
1164  ,3.840e+08   ,-1.8  ,-2.5  ,0.1
1165  ,2.577e+08   ,-1.6  ,-2.5  ,0.1
1166  ,2.419e+08   ,-1.4  ,-2.5  ,0.1
1167  ,2.939e+08   ,-1.2  ,-2.5  ,0.1
1168  ,2.771e+08   ,-1  ,-2.5  ,0.1
1169  ,2.780e+08   ,-0.8  ,-2.5  ,0.1
1170  ,2.795e+08   ,-0.6  ,-2.5  ,0.1
1171  ,2.844e+08   ,-0.4  ,-2.5  ,0.1
1172  ,3.238e+08   ,-0.2  ,-2.5  ,0.1
1173  ,3.525e+08   ,-1.7664E-15  ,-2.5  ,0.1
1174  ,3.405e+08   ,0.2  ,-2.5  ,0.1
1175  ,3.579e+08   ,0.4  ,-2.5  ,0.1
1176  ,4.168e+08   ,0.6  ,-2.5  ,0.1
1177  ,3.319e+08   ,0.8  ,-2.5  ,0.1
1178  ,3.677e+08   ,1  ,-2.5  ,0.1
1179  ,3.773e+08   ,1.2  ,-2.5  ,0.1
1180  ,3.112e+08   ,1.4  ,-2.5  ,0.1
1181  ,2.788e+08   ,1.6  ,-2.5  ,0.1
1182  ,3.568e+08   ,1.8  ,-2.5  ,0.1
1183  ,4.213e+08   ,2  ,-2.5  ,0.1
1184  ,7.069e+08   ,2.2  ,-2.5  ,0.1
1185  ,4.451e+08   ,2.4  ,-2.5  ,4.7
1186  ,3.760e+08   ,2.4  ,-2.5  ,4.5
1187  ,3.641e+08   ,2.4  ,-2.5  ,4.3
1188  ,4.693e+08   ,2.4  ,-2.5  ,4.1
1189  ,5.434e+08   ,2.4  ,-2.5  ,3.9
1190  ,5.350e+08   ,2.4  ,-2.5  ,3.7
1191  ,3.876e+08   ,2.4  ,-2.5  ,3.5
1192  ,4.650e+08   ,2.4  ,-2.5  ,3.3
1193  ,5.376e+08   ,2.4  ,-2.5  ,3.1
1194  ,5.624e+08   ,2.4  ,-2.5  ,2.9
1195  ,4.683e+08   ,2.4  ,-2.5  ,2.7
1196  ,3.573e+08   ,2.4  ,-2.5  ,2.5
1197  ,2.676e+08   ,2.4  ,-2.5  ,2.3
1198  ,3.834e+08   ,2.4  ,-2.5  ,2.1
1199  ,3.655e+08   ,2.4  ,-2.5  ,1.9
1200  ,4.164e+08   ,2.4  ,-2.5  ,1.7
1201  ,4.030e+08   ,2.4  ,-2.5  ,1.5
1202  ,3.692e+08   ,2.4  ,-2.5  ,1.3
1203  ,2.562e+08   ,2.4  ,-2.5  ,1.1
1204  ,1.483e+08   ,2.4  ,-2.5  ,0.9
1205  ,1.492e+08   ,2.4  ,-2.5  ,0.7
1206  ,3.566e+08   ,2.4  ,-2.5  ,0.5
1207  ,5.760e+08   ,2.4  ,-2.5  ,0.3
1208  ,5.188e+08   ,2.4  ,-2.2  ,0
1209  ,4.726e+08   ,2.4  ,-2  ,0
1210  ,3.162e+08   ,2.4  ,-1.8  ,0
1211  ,2.861e+08   ,2.4  ,-1.6  ,0
1212  ,3.651e+08   ,2.4  ,-1.4  ,0
1213  ,4.188e+08   ,2.4  ,-1.2  ,0
1214  ,4.200e+08   ,2.4  ,-1  ,0
1215  ,4.294e+08   ,2.4  ,-0.8  ,0
1216  ,3.357e+08   ,2.4  ,-0.6  ,0
1217  ,3.127e+08   ,2.4  ,-0.4  ,0
1218  ,3.299e+08   ,2.4  ,-0.2  ,0
1219  ,3.542e+08   ,2.4  ,-1.7664E-15  ,0
1220  ,3.892e+08   ,2.4  ,0.2  ,0
1221  ,3.664e+08   ,2.4  ,0.4  ,0
1222  ,4.062e+08   ,2.4  ,0.6  ,0
1223  ,4.452e+08   ,2.4  ,0.8  ,0
1224  ,3.500e+08   ,2.4  ,1  ,0
1225  ,3.282e+08   ,2.4  ,1.2  ,0
1226  ,3.137e+08   ,2.4  ,1.4  ,0
1227  ,2.765e+08   ,2.4  ,1.6  ,0
1228  ,3.119e+08   ,2.4  ,1.8  ,0
1229  ,3.069e+08   ,2.4  ,2  ,0
1230  ,2.467e+08   ,2.4  ,2.2  ,0
1231  ,4.853e+08   ,-2.2  ,-2.4  ,0
1232  ,2.639e+08   ,-2  ,-2.4  ,0
1233  ,4.419e+08   ,-1.8  ,-2.4  ,0
1234  ,5.750e+08   ,-1.6  ,-2.4  ,0
1235  ,5.343e+08   ,-1.4  ,-2.4  ,0
1236  ,4.032e+08   ,-1.2  ,-2.4  ,0
1237  ,2.603e+08   ,-1  ,-2.4  ,0
1238  ,1.619e+08   ,-0.8  ,-2.4  ,0
1239  ,7.143e+07   ,-0.6  ,-2.4  ,0
1240  ,6.070e+07   ,-0.4  ,-2.4  ,0
1241  ,1.544e+08   ,-0.2  ,-2.4  ,0
1242  ,2.576e+08   ,5.8879E-16  ,-2.4  ,0
1243  ,3.465e+08   ,0.2  ,-2.4  ,0
1244  ,5.298e+08   ,0.4  ,-2.4  ,0
1245  ,7.634e+08   ,0.6  ,-2.4  ,0
1246  ,1.038e+09   ,0.8  ,-2.4  ,0
1247  ,1.076e+09   ,1  ,-2.4  ,0
1248  ,1.077e+09   ,1.2  ,-2.4  ,0
1249  ,9.425e+08   ,1.4  ,-2.4  ,0
1250  ,7.632e+08   ,1.6  ,-2.4  ,0
1251  ,5.204e+08   ,1.8  ,-2.4  ,0
1252  ,3.774e+08   ,2  ,-2.4  ,0
1253  ,6.106e+08   ,2.2  ,-2.4  ,0
1254  ,1.533e+08   ,-2.4  ,2.2  ,0
1255  ,2.652e+08   ,-2.4  ,2  ,0
1256  ,3.874e+08   ,-2.4  ,1.8  ,0
1257  ,4.492e+08   ,-2.4  ,1.6  ,0
1258  ,5.343e+08   ,-2.4  ,1.4  ,0
1259  ,6.036e+08   ,-2.4  ,1.2  ,0
1260  ,6.684e+08   ,-2.4  ,1  ,0
1261  ,7.237e+08   ,-2.4  ,0.8  ,0
1262  ,7.573e+08   ,-2.4  ,0.6  ,0
1263  ,7.544e+08   ,-2.4  ,0.4  ,0
1264  ,7.228e+08   ,-2.4  ,0.2  ,0
1265  ,6.934e+08   ,-2.4  ,5.8879E-16  ,0
1266  ,5.866e+08   ,-2.4  ,-0.2  ,0
1267  ,5.208e+08   ,-2.4  ,-0.4  ,0
1268  ,5.436e+08   ,-2.4  ,-0.6  ,0
1269  ,5.117e+08   ,-2.4  ,-0.8  ,0
1270  ,4.733e+08   ,-2.4  ,-1  ,0
1271  ,3.867e+08   ,-2.4  ,-1.2  ,0
1272  ,3.013e+08   ,-2.4  ,-1.4  ,0
1273  ,2.783e+08   ,-2.4  ,-1.6  ,0
1274  ,2.722e+08   ,-2.4  ,-1.8  ,0
1275  ,3.078e+08   ,-2.4  ,-2  ,0
1276  ,2.863e+08   ,-2.4  ,-2.2  ,0
1277  ,2.132e+08   ,2.2  ,2.4  ,0
1278  ,3.160e+08   ,2  ,2.4  ,0
1279  ,3.741e+08   ,1.8  ,2.4  ,0
1280  ,3.428e+08   ,1.6  ,2.4  ,0
1281  ,3.755e+08   ,1.4  ,2.4  ,0
1282  ,4.748e+08   ,1.2  ,2.4  ,0
1283  ,5.641e+08   ,1  ,2.4  ,0
1284  ,6.347e+08   ,0.8  ,2.4  ,0
1285  ,6.687e+08   ,0.6  ,2.4  ,0
1286  ,6.385e+08   ,0.4  ,2.4  ,0
1287  ,6.525e+08   ,0.2  ,2.4  ,0
1288  ,6.100e+08   ,5.8879E-16  ,2.4  ,0
1289  ,6.646e+08   ,-0.2  ,2.4  ,0
1290  ,5.648e+08   ,-0.4  ,2.4  ,0
1291  ,5.321e+08   ,-0.6  ,2.4  ,0
1292  ,5.314e+08   ,-0.8  ,2.4  ,0
1293  ,5.502e+08   ,-1  ,2.4  ,0
1294  ,5.608e+08   ,-1.2  ,2.4  ,0
1295  ,5.344e+08   ,-1.4  ,2.4  ,0
1296  ,5.066e+08   ,-1.6  ,2.4  ,0
1297  ,4.475e+08   ,-1.8  ,2.4  ,0
1298  ,3.296e+08   ,-2  ,2.4  ,0
1299  ,1.804e+08   ,-2.2  ,2.4  ,0
1460  ,9.004e+09   ,2.3243  ,2.3243  ,4.9577
1461  ,8.801e+09   ,2.4577  ,2.3243  ,4.8243
1462  ,7.232e+09   ,2.3243  ,2.4577  ,4.8243
1463  ,6.963e+08   ,-2.3  ,-2.1759  ,4.8
1464  ,6.219e+08   ,-2.3  ,-1.7631  ,4.8
1465  ,5.261e+08   ,-2.3  ,-1.1827  ,4.8
1466  ,8.836e+08   ,-2.3  ,-0.34986  ,4.8
1467  ,9.619e+08   ,-2.3  ,0.80545  ,4.8
1468  ,1.014e+09   ,-0.81337  ,2.3  ,4.8
1469  ,1.762e+09   ,0.67326  ,2.3  ,4.8
1470  ,8.060e+08   ,2.3  ,-2.1824  ,4.8
1471  ,6.397e+08   ,2.3  ,-1.7784  ,4.8
1472  ,6.439e+08   ,2.3  ,-1.2138  ,4.8
1473  ,9.152e+08   ,2.3  ,-0.40752  ,4.8
1474  ,1.426e+09   ,2.3  ,0.70532  ,4.8
1516  ,1.037e+09   ,2.3  ,2.3  ,1.6866
1517  ,1.751e+09   ,2.3  ,2.3  ,3.1733
1518  ,7.294e+08   ,2.3  ,-2.1759  ,0.2
1519  ,6.287e+08   ,2.3  ,-1.7631  ,0.2
1520  ,5.174e+08   ,2.3  ,-1.1827  ,0.2
1521  ,8.653e+08   ,2.3  ,-0.34986  ,0.2
1522  ,9.784e+08   ,2.3  ,0.80545  ,0.2
1564  ,9.122e+08   ,-0.76667  ,2.3  ,0.2
1565  ,1.046e+09   ,0.76667  ,2.3  ,0.2
1566  ,8.772e+08   ,-2.3  ,2.3  ,1.7333
1567  ,1.078e+09   ,-2.3  ,2.3  ,3.2667
1574  ,2.441e+08   ,-2.3  ,-2.1759  ,0.2
1575  ,1.185e+08   ,-2.3  ,-1.7631  ,0.2
1576  ,2.239e+08   ,-2.3  ,-1.1827  ,0.2
1577  ,3.051e+08   ,-2.3  ,-0.34986  ,0.2
1578  ,3.405e+08   ,-2.3  ,0.80545  ,0.2
1777  ,1.078e+09   ,-0.52764  ,2.5  ,4.9
1801  ,2.397e+08   ,-2.3  ,1.5527  ,0.2
1825  ,6.552e+08   ,-1.5333  ,2.3  ,0.2
1841  ,1.037e+09   ,0.063638  ,2.5  ,4.9
1876  ,5.363e+08   ,-0.5  ,2.4  ,0
1894  ,9.398e+08   ,2.3  ,1.5527  ,0.2
1907  ,2.656e+08   ,2.1  ,2.5  ,0.1
1928  ,3.351e+08   ,1.9  ,2.4  ,0
1974  ,3.327e+08   ,2.4  ,1.1  ,0
1981  ,3.256e+08   ,2.4  ,2.5  ,0.59273
1987  ,4.113e+08   ,-2.5  ,2.4  ,4
2004  ,2.444e+08   ,-2.4  ,2.5  ,4.6
2009  ,2.999e+08   ,2.4  ,1.3  ,0
2020  ,3.426e+08   ,2.5  ,1.1  ,0.1
2035  ,3.245e+08   ,-2.3  ,-0.76628  ,0.2
2070  ,2.724e+09   ,1.6404  ,2.4  ,5
2081  ,9.693e+08   ,2.4  ,2.5  ,1.9724
2095  ,4.796e+08   ,2.4  ,2.5  ,0.78982
2138  ,6.247e+08   ,-2.4  ,-0.1  ,0
2146  ,9.320e+08   ,-0.92182  ,2.4  ,5
2174  ,7.708e+08   ,2.4  ,2.5  ,1.184
2190  ,6.004e+08   ,2.5  ,2.4  ,0.98691
2203  ,9.016e+08   ,2.5  ,-0.13345  ,4.9
2232  ,1.533e+09   ,2.3  ,0.1489  ,4.8
2242  ,1.171e+09   ,2.4  ,2.5  ,2.9578
2293  ,7.858e+08   ,-2.5  ,0.5  ,0.1
2311  ,1.825e+09   ,2.3  ,2.3  ,2.4299
2313  ,5.339e+08   ,2.5  ,2.4  ,0.78982
2329  ,8.970e+08   ,2.4  ,2.5  ,2.1695
2355  ,2.654e+08   ,-2.4  ,2.5  ,4.4
2380  ,2.540e+08   ,-2.5  ,-1.5  ,0.1
2383  ,1.181e+09   ,0.45782  ,2.5  ,4.9
2408  ,8.622e+08   ,2.3  ,-1.4961  ,4.8
2445  ,6.969e+08   ,2.5  ,-1.5131  ,4.9
2484  ,2.116e+08   ,-2.5  ,-2.4  ,1.6
2495  ,2.717e+08   ,-2.4  ,1.7  ,5
2508  ,3.772e+08   ,2.4  ,0.3  ,0
2514  ,1.169e+09   ,2.3  ,0.2278  ,0.2
2570  ,2.970e+08   ,-2.4  ,1.5  ,5
2580  ,2.610e+09   ,1.6404  ,2.5  ,4.9
2603  ,1.018e+09   ,-1.1189  ,2.5  ,4.9
2695  ,7.829e+08   ,2.3  ,2.3  ,0.94331
2705  ,1.023e+09   ,2.4  ,2.5  ,1.3811
2714  ,6.444e+08   ,2.5  ,0.45782  ,4.9
2734  ,4.066e+08   ,2.4  ,-0.9  ,0
2775  ,3.728e+08   ,2.5  ,-0.1  ,0.1
2779  ,3.500e+08   ,2.4  ,-0.1  ,0
2801  ,3.304e+09   ,1.4166  ,2.3  ,4.8
2814  ,2.016e+09   ,1.4433  ,2.5  ,4.9
2863  ,5.108e+08   ,-2.4  ,2.5  ,0.6
2884  ,5.502e+08   ,-2.4  ,2.5  ,0.8
2886  ,6.102e+08   ,-2.4  ,2.5  ,1.2
2967  ,2.694e+08   ,2.4  ,1.7  ,0
2973  ,3.146e+08   ,2.5  ,1.5  ,0.1
2987  ,4.158e+08   ,-0.3  ,2.5  ,0.1
3008  ,6.814e+08   ,-2.3  ,2.3  ,0.96667
3012  ,6.140e+08   ,-2.5  ,2.4  ,2.6
3021  ,6.097e+08   ,-2.5  ,2.4  ,2.8
3025  ,5.948e+08   ,-2.5  ,2.4  ,2.4
3030  ,6.029e+08   ,-2.4  ,2.5  ,2.4
3033  ,5.876e+08   ,-2.4  ,2.5  ,2.2
3047  ,1.021e+09   ,2.4  ,2.5  ,2.3665
3052  ,1.109e+09   ,2.5  ,2.4  ,2.5636
3061  ,1.029e+09   ,2.4  ,2.5  ,2.5636
3081  ,3.347e+08   ,-2.4  ,1.3  ,5
3088  ,2.654e+08   ,-1.9073  ,2.4  ,5
3099  ,2.921e+08   ,-2.4  ,1.9  ,5
3107  ,3.381e+08   ,-2.4  ,2.5  ,3.8
3139  ,5.877e+08   ,-1.5131  ,2.4  ,5
3145  ,6.434e+08   ,-1.5131  ,2.5  ,4.9
3148  ,4.551e+08   ,-1.7102  ,2.5  ,4.9
3168  ,4.912e+08   ,-2.4  ,1.5  ,0
3188  ,5.490e+08   ,-2.5  ,-2.4  ,1
3202  ,1.060e+09   ,0.26073  ,2.5  ,4.9
3212  ,2.448e+09   ,2.5  ,1.6404  ,4.9
3247  ,3.896e+09   ,2.5  ,1.8375  ,4.9
3265  ,3.175e+09   ,2.3  ,1.4326  ,4.8
3271  ,7.072e+09   ,2.2299  ,2.2299  ,4.8
3284  ,1.792e+09   ,2.4  ,1.4433  ,5
3291  ,1.835e+09   ,2.5  ,1.4433  ,4.9
3296  ,7.190e+08   ,-2.3  ,-0.76628  ,4.8
3303  ,4.704e+08   ,-2.4  ,-0.9  ,5
3311  ,4.348e+08   ,-2.4  ,-0.7  ,5
3315  ,2.953e+08   ,1.9  ,2.5  ,0.1
3336  ,7.366e+08   ,-2.4  ,0.3  ,0
3340  ,6.920e+08   ,-2.5  ,0.1  ,0.1
3344  ,7.054e+08   ,-2.4  ,0.1  ,0
3356  ,5.895e+08   ,-0.3  ,2.4  ,0
3361  ,9.166e+08   ,-0.33054  ,2.5  ,4.9
3364  ,9.589e+08   ,-0.13345  ,2.5  ,4.9
3383  ,1.409e+09   ,2.4  ,2.5  ,3.5491
3402  ,5.553e+09   ,2.4  ,2.5  ,4.5345
3421  ,8.114e+08   ,-1.316  ,2.5  ,4.9
3439  ,1.952e+09   ,2.5  ,2.4  ,3.9433
3447  ,2.053e+09   ,2.4  ,2.5  ,3.9433
3451  ,1.602e+09   ,2.4  ,2.5  ,3.7462
3468  ,2.012e+09   ,1.4433  ,2.4  ,5
3480  ,1.325e+09   ,1.0491  ,2.4  ,5
3519  ,3.585e+08   ,1.5  ,2.4  ,0
3527  ,7.310e+08   ,2.3  ,-1.4729  ,0.2
3550  ,4.770e+08   ,-1.7  ,2.4  ,0
3554  ,5.687e+08   ,-1.7  ,2.5  ,0.1
3558  ,5.124e+08   ,-1.5  ,2.4  ,0
3562  ,5.944e+08   ,-1.5  ,2.5  ,0.1
3574  ,2.242e+08   ,-2.4  ,2.1  ,5
3581  ,4.023e+08   ,-2.5  ,1.7  ,0.1
3583  ,3.268e+08   ,-2.5  ,1.9  ,0.1
3584  ,2.744e+08   ,-1.9073  ,2.5  ,4.9
3591  ,4.152e+08   ,2.5  ,0.3  ,0.1
3595  ,3.842e+08   ,2.5  ,0.1  ,0.1
3603  ,1.344e+10   ,2.4577  ,2.391  ,4.7576
3663  ,2.863e+08   ,-1.933  ,-2.5  ,0.2
3669  ,6.367e+08   ,-2.1765  ,-2.5  ,0.2
3672  ,4.113e+08   ,-2.3  ,-2.3379  ,0.2
3682  ,3.220e+08   ,-1.9  ,-2.4  ,0
3700  ,3.759e+08   ,2.3  ,-2.5  ,2.7424
3712  ,4.870e+08   ,-2.1  ,-2.5  ,4.9
3715  ,2.691e+08   ,-1.9  ,-2.5  ,4.9
3740  ,6.059e+08   ,-1.3  ,-2.4  ,5
3746  ,2.919e+08   ,-1.2085  ,-2.5  ,4.8
3755  ,7.647e+08   ,-1.5  ,-2.4  ,5
3760  ,2.149e+08   ,-1.7  ,-2.5  ,4.9
3786  ,1.011e+09   ,2.4  ,2.5  ,1.5782
3813  ,1.069e+09   ,0.26073  ,2.4  ,5
3858  ,3.372e+08   ,-0.9  ,-2.4  ,5
3863  ,4.076e+08   ,-2.5  ,0.9  ,4.9
3875  ,9.145e+08   ,-1.9  ,-2.4  ,5
3885  ,7.681e+08   ,2.4  ,-0.72473  ,5
3910  ,3.277e+08   ,-2.4  ,-2.5  ,3.4
3959  ,2.751e+09   ,2.5  ,2.4  ,4.1404
3969  ,1.030e+09   ,2.5  ,1.0491  ,4.9
3992  ,1.471e+10   ,2.391  ,2.2576  ,4.9577
3993  ,1.317e+10   ,2.4577  ,2.2576  ,4.891
4016  ,1.137e+08   ,-2.3015  ,2.5  ,4.9
4018  ,1.507e+08   ,-2.4  ,2.5  ,4.8
4021  ,1.537e+09   ,1.2462  ,2.4  ,5
4042  ,4.087e+08   ,2.4  ,-1.1  ,0
4046  ,5.311e+08   ,-0.9  ,2.4  ,0
4055  ,4.720e+08   ,1.7  ,-2.5  ,4.9
4087  ,3.779e+08   ,1.7  ,2.4  ,0
4114  ,7.674e+08   ,2.5  ,-0.33054  ,4.9
4120  ,4.062e+08   ,2.4  ,-2.5  ,1.8
4125  ,4.758e+08   ,2.4  ,2.5  ,0.98691
4144  ,3.917e+09   ,2.4  ,2.5  ,4.3375
4161  ,4.189e+08   ,-2.4  ,0.3  ,5
4201  ,3.578e+08   ,1.933  ,-2.5  ,0.2
4225  ,4.104e+08   ,-2.3  ,-2.4  ,0
4230  ,2.822e+08   ,-2.3  ,-2.5  ,0.56701
4269  ,3.277e+08   ,-0.9  ,-2.5  ,4.9
4277  ,4.426e+08   ,-1.1  ,-2.4  ,5
4288  ,1.536e+09   ,-0.070055  ,2.3  ,4.8
4328  ,6.300e+08   ,-2.5  ,-2.4  ,4.2
4336  ,3.960e+08   ,-2.5  ,-2.4  ,4.4
4342  ,3.444e+08   ,-2.5  ,-2.4  ,4.6
4348  ,5.691e+08   ,-2.4  ,-2.4707  ,4.9707
4352  ,5.809e+08   ,-2.3  ,-2.5  ,4.9
4354  ,1.210e+09   ,-2.1765  ,-2.5  ,4.8
4355  ,7.657e+08   ,-2.3  ,-2.3379  ,4.8
4362  ,2.914e+08   ,2.5  ,2.4  ,0.59273
4364  ,1.977e+08   ,2.5  ,-2.4  ,2.4
4366  ,2.956e+08   ,2.5  ,-2.4  ,2.2
4372  ,3.264e+08   ,2.4  ,-2.5  ,2.2
4385  ,2.837e+08   ,-2.5  ,-1.9  ,0.1
4399  ,2.147e+08   ,-2.5  ,2.1  ,0.1
4407  ,1.169e+08   ,-0.7  ,-2.4  ,0
4436  ,6.043e+08   ,-2.5  ,-0.1  ,0.1
4462  ,8.696e+08   ,-2.3  ,2.3  ,4.0333
4491  ,6.927e+08   ,2.5  ,-0.52764  ,4.9
4494  ,5.243e+08   ,2.5  ,-2.4  ,1.4
4503  ,3.836e+08   ,2.4  ,-2.5  ,1.4
4508  ,3.385e+08   ,2.4  ,-2.5  ,1.2
4515  ,3.992e+08   ,2.5  ,-2.4  ,1.8
4517  ,4.333e+08   ,2.4  ,-2.5  ,1.6
4522  ,8.689e+08   ,0.7  ,-2.4  ,0
4538  ,8.631e+08   ,-1.1189  ,2.4  ,5
4546  ,2.598e+09   ,2.4  ,2.5  ,4.1404
4559  ,6.374e+08   ,1.7  ,-2.4  ,0
4590  ,6.315e+08   ,0.5  ,-2.4  ,0
4631  ,4.227e+08   ,2.4  ,-2.5  ,2.6
4634  ,5.894e+08   ,2.5  ,-2.4  ,2.8
4657  ,9.459e+07   ,-2.5  ,-2.4  ,2
4660  ,1.326e+08   ,-2.5  ,-2.4  ,1.8
4664  ,1.071e+08   ,-0.3  ,-2.4  ,0
4675  ,5.531e+08   ,-2.4  ,-2.5  ,4.8
4681  ,5.043e+08   ,-2.5  ,-0.3  ,0.1
4684  ,2.153e+08   ,1.7  ,-2.4  ,5
4703  ,4.512e+08   ,-2.4  ,0.7  ,5
4707  ,3.770e+08   ,-2.5  ,0.3  ,4.9
4714  ,6.812e+08   ,2.4  ,-0.33054  ,5
4723  ,9.791e+08   ,-1.5567  ,2.3  ,4.8
4739  ,1.174e+08   ,-2.1044  ,2.5  ,4.9
4763  ,3.681e+08   ,-1.9  ,2.4  ,0
4780  ,1.443e+08   ,-2.3  ,-1.9695  ,0.2
4782  ,3.064e+08   ,-2.4707  ,-2.4  ,0.029289
4784  ,2.742e+08   ,-2.4  ,-1.9  ,0
4791  ,2.794e+08   ,-2.4  ,-2.5  ,1.8
4796  ,1.019e+09   ,2.4707  ,-2.4707  ,4.9
4799  ,1.195e+09   ,2.5  ,-2.4  ,4.8
4806  ,7.539e+08   ,2.3  ,-2.5  ,4.9
4809  ,3.383e+09   ,2.3  ,2.3  ,3.9166
4833  ,3.978e+08   ,-2.4  ,2.5  ,0.4
4841  ,6.306e+08   ,-2.4  ,2.5  ,2.6
4846  ,2.455e+08   ,-2.5  ,2.1  ,4.9
4848  ,1.819e+08   ,-2.5  ,2.3  ,4.9
4849  ,1.763e+08   ,-2.5  ,2.4  ,4.8
4893  ,3.101e+08   ,-2.4  ,2.5  ,4.2
4897  ,5.548e+09   ,2.3333  ,2.1998  ,5
4900  ,1.333e+10   ,2.391  ,2.4577  ,4.7576
4908  ,1.271e+10   ,2.2576  ,2.391  ,4.9577
4911  ,1.322e+10   ,2.2576  ,2.4577  ,4.891
4926  ,4.911e+08   ,-2.5  ,2.4  ,1
4932  ,5.872e+08   ,-2.4  ,2.5  ,1.6
4937  ,6.391e+08   ,-1.1  ,2.5  ,0.1
4939  ,6.992e+09   ,2.3  ,2.2299  ,4.7299
4944  ,8.500e+08   ,2.5  ,-1.9073  ,4.9
4987  ,8.716e+08   ,-2.3  ,1.5527  ,4.8
5010  ,1.030e+10   ,2.4973  ,2.1331  ,4.923
5013  ,5.393e+09   ,2.5  ,2.0345  ,4.9
5017  ,5.606e+09   ,2.4  ,2.0345  ,5
5035  ,9.806e+08   ,1.3  ,-2.4  ,0
5038  ,4.281e+08   ,1.2085  ,-2.5  ,0.2
5092  ,2.518e+08   ,-2.4  ,-2.5  ,1.2
5123  ,9.466e+08   ,2.5  ,-2.4  ,0.6
5151  ,5.189e+08   ,-2.5  ,-0.5  ,0.1
5160  ,5.481e+08   ,-2.5  ,-0.7  ,0.1
5164  ,4.222e+08   ,-2.4  ,0.9  ,5
5168  ,4.030e+08   ,-2.4  ,0.5  ,5
5176  ,4.020e+08   ,2.5  ,-0.7  ,0.1
5179  ,3.033e+08   ,2.4  ,-0.5  ,0
5189  ,3.064e+08   ,2.4  ,-2.5  ,2.4
5194  ,7.859e+08   ,2.3  ,-2.5  ,2.2576
5198  ,5.976e+08   ,-2.3  ,-2.5  ,0.32348
5205  ,2.287e+08   ,-2.4  ,-2.5  ,0.2
5207  ,3.465e+08   ,-2.1  ,-2.5  ,0.1
5246  ,6.184e+08   ,-2.5  ,2.4  ,3.2
5257  ,2.935e+08   ,-2.5  ,1.5  ,4.9
5263  ,4.381e+08   ,-2.3  ,0.2278  ,0.2
5272  ,7.442e+08   ,-2.5  ,0.3  ,0.1
5275  ,3.532e+08   ,-2.5  ,0.5  ,4.9
5281  ,3.426e+09   ,1.8375  ,2.5  ,4.9
5297  ,6.265e+08   ,-0.9  ,2.5  ,0.1
5306  ,5.188e+08   ,-0.7  ,2.4  ,0
5309  ,5.052e+08   ,-0.5  ,2.5  ,0.1
5324  ,1.069e+09   ,2.4  ,2.5  ,2.7607
5332  ,8.142e+08   ,2.5  ,-2.4  ,0.8
5334  ,2.220e+08   ,2.4  ,-2.5  ,1
5360  ,7.491e+08   ,2.4  ,-1.7102  ,5
5362  ,7.482e+08   ,2.4  ,-1.5131  ,5
5368  ,3.471e+09   ,2.4  ,1.8375  ,5
5371  ,2.293e+10   ,2.4325  ,2.4888  ,4.6656
5372  ,6.168e+09   ,2.3333  ,2.5  ,4.6998
5376  ,4.665e+09   ,2.4707  ,2.4707  ,4.6331
5377  ,5.914e+09   ,2.5  ,2.4  ,4.5345
5379  ,2.490e+08   ,-1.5  ,-2.5  ,4.9
5406  ,9.512e+08   ,-2.5  ,-2.4  ,3.4
5420  ,3.028e+08   ,-2.3  ,-2.5  ,3.2226
5423  ,8.312e+08   ,1.5  ,-2.4  ,0
5502  ,3.124e+08   ,-2.5  ,-2.3  ,0.1
5504  ,3.857e+08   ,-2.5  ,-2.4  ,0.2
5506  ,3.458e+08   ,-2.4  ,-2.3  ,0
5511  ,2.918e+08   ,-2.5  ,-2.1  ,0.1
5513  ,7.468e+08   ,-2.4  ,0.5  ,0
5517  ,2.709e+08   ,-0.9  ,-2.5  ,0.1
5532  ,1.002e+08   ,-2.4707  ,2.4707  ,4.9
5534  ,3.816e+08   ,2.4  ,-0.7  ,0
5551  ,1.075e+09   ,2.5  ,-2.4  ,3.8
5566  ,7.404e+08   ,2.5  ,2.4  ,1.3811
5603  ,3.149e+08   ,2.4  ,-0.3  ,0
5617  ,3.913e+08   ,-2.1  ,2.5  ,0.1
5637  ,7.162e+08   ,-2.3  ,-1.9695  ,4.8
5641  ,5.702e+08   ,2.3  ,-2.5  ,3.4636
5645  ,2.956e+08   ,-2.4  ,-2.5  ,2
5649  ,3.237e+08   ,-2.4  ,-2.5  ,2.2
5659  ,4.152e+08   ,-2.3  ,-2.5  ,1.7774
5662  ,1.552e+09   ,2.1765  ,-2.5  ,4.8
5666  ,7.205e+08   ,2.4  ,-2.5  ,4.8
5669  ,9.145e+08   ,2.3  ,-2.3412  ,4.8
5695  ,7.342e+08   ,-2.4  ,0.7  ,0
5701  ,4.967e+08   ,-2.5  ,2.4  ,1.6
5715  ,5.826e+08   ,-2.4  ,2.5  ,1.8
5726  ,5.897e+08   ,-0.7  ,2.5  ,0.1
5727  ,5.618e+08   ,-1.1  ,2.4  ,0
5730  ,5.496e+08   ,2.3  ,-2.5  ,1.7774
5746  ,1.013e+09   ,2.5  ,2.4  ,1.7753
5755  ,3.546e+08   ,2.5  ,-2.4  ,4.4
5763  ,3.197e+08   ,2.4  ,-2.5  ,4.4
5773  ,1.376e+09   ,1.0491  ,2.5  ,4.9
5791  ,9.584e+08   ,-0.72473  ,2.4  ,5
5795  ,3.699e+09   ,1.8375  ,2.4  ,5
5803  ,2.627e+08   ,-0.3  ,-2.4  ,5
5810  ,2.409e+09   ,2.4  ,1.6404  ,5
5836  ,2.913e+08   ,-2.5  ,1.3  ,4.9
5860  ,4.565e+08   ,2.5  ,-2.4  ,1.6
5866  ,2.881e+08   ,1.5  ,-2.5  ,0.1
5884  ,3.712e+08   ,-2.4  ,-0.3  ,5
5888  ,3.086e+08   ,-2.5  ,-0.5  ,4.9
5901  ,6.426e+08   ,2.3  ,-2.5  ,2.5
5908  ,6.261e+08   ,2.5  ,-2.4  ,1.2
5909  ,3.772e+08   ,2.5  ,-2.4  ,2
5934  ,3.764e+08   ,1.9  ,-2.5  ,4.9
5938  ,9.724e+08   ,1.933  ,-2.5  ,4.8
5948  ,5.333e+08   ,-2.4  ,-2.5  ,4.6
5950  ,4.822e+08   ,-2.4707  ,-2.4707  ,4.9
5951  ,4.976e+08   ,-2.5  ,-2.4  ,4.8
5952  ,4.745e+08   ,-2.5  ,-2.3  ,4.9
5986  ,4.079e+08   ,2.3  ,-2.5  ,3.7085
5990  ,9.386e+08   ,-0.92182  ,2.5  ,4.9
6019  ,2.135e+08   ,2.5  ,1.9  ,0.1
6025  ,3.572e+08   ,2.4  ,-1.3  ,0
6035  ,2.805e+08   ,-2.5  ,1.9  ,4.9
6044  ,8.551e+08   ,0.1  ,2.5  ,0.1
6054  ,3.655e+08   ,2.4  ,0.1  ,0
6070  ,1.149e+08   ,-2.4  ,2.3  ,0
6071  ,1.112e+08   ,-2.3  ,2.4  ,0
6076  ,2.099e+08   ,-2.4  ,2.1  ,0
6083  ,4.281e+08   ,2.1  ,-2.4  ,0
6084  ,1.591e+08   ,2.4  ,2.3  ,0
6087  ,1.657e+08   ,2.3  ,2.4  ,0
6092  ,3.021e+08   ,-2.4  ,-2.5  ,0.4
6096  ,2.013e+08   ,-2.3  ,-2.5  ,0.1
6099  ,3.741e+08   ,0.7  ,-2.5  ,0.1
6149  ,4.980e+08   ,-2.4  ,-0.9  ,0
6159  ,2.780e+08   ,-2.5  ,-2.4  ,2.6
6183  ,1.614e+09   ,1.2462  ,2.5  ,4.9
6224  ,6.990e+08   ,2.5  ,-2.4  ,4
6228  ,5.205e+08   ,2.4  ,-2.5  ,3.8
6237  ,4.604e+08   ,2.5  ,0.7  ,0.1
6241  ,5.894e+09   ,2.5  ,2.3333  ,4.6998
6245  ,8.210e+08   ,2.5  ,2.4  ,1.5782
6259  ,8.607e+08   ,2.5  ,-2.1044  ,4.9
6265  ,8.150e+08   ,2.3  ,-1.9804  ,4.8
6267  ,8.941e+08   ,2.5  ,-2.3015  ,4.9
6268  ,8.169e+08   ,2.4707  ,-2.4  ,4.9707
6270  ,8.686e+08   ,2.4  ,-2.1044  ,5
6317  ,1.038e+09   ,-2.3  ,0.2278  ,4.8
6349  ,1.039e+09   ,-0.52764  ,2.4  ,5
6391  ,9.929e+08   ,2.4  ,2.5  ,1.7753
6440  ,4.495e+08   ,-2.5  ,2.4  ,3.8
6471  ,6.996e+08   ,2.5  ,-0.92182  ,4.9
6489  ,1.383e+09   ,2.5  ,1.2462  ,4.9
6523  ,3.185e+08   ,-1.1  ,-2.4  ,0
6528  ,2.834e+08   ,-1.1  ,-2.5  ,0.1
6535  ,1.970e+08   ,-0.9  ,-2.4  ,0
6538  ,6.810e+08   ,1.5  ,-2.4  ,5
6541  ,5.684e+08   ,1.5  ,-2.5  ,4.9
6551  ,7.032e+08   ,2.5  ,-0.72473  ,4.9
6564  ,1.140e+10   ,2.1331  ,2.4973  ,4.923
6565  ,5.868e+09   ,2.0345  ,2.5  ,4.9
6572  ,2.657e+08   ,2.4  ,-1.7  ,0
6581  ,1.185e+09   ,0  ,2.3  ,0.2
6592  ,6.967e+08   ,2.3  ,-1.9695  ,0.2
6594  ,6.388e+08   ,0.3  ,2.4  ,0
6601  ,7.428e+08   ,0.5  ,2.5  ,0.1
6605  ,3.420e+08   ,-2.4  ,-1.3  ,0
6606  ,4.194e+08   ,-2.4  ,-1.1  ,0
6615  ,5.475e+08   ,-2.4  ,-0.3  ,0
6634  ,4.552e+08   ,2.1  ,-2.5  ,4.9
6635  ,1.022e+09   ,2.4  ,-2.4707  ,4.9707
6636  ,1.152e+09   ,2.3  ,-2.4  ,5
6647  ,3.462e+08   ,0.5  ,-2.5  ,0.1
6704  ,3.962e+07   ,-2.4707  ,2.4707  ,0.1
6708  ,1.177e+08   ,-2.5  ,2.4  ,0.2
6712  ,4.279e+08   ,-2.4  ,2.5  ,3.6
6715  ,5.694e+08   ,-2.4  ,2.5  ,3.4
6728  ,4.227e+08   ,-2.5  ,0.7  ,4.9
6753  ,1.757e+08   ,-2.1044  ,2.4  ,5
6788  ,3.981e+09   ,2.5  ,2.4  ,4.3375
6791  ,1.041e+09   ,-1.933  ,-2.5  ,4.8
6795  ,5.660e+09   ,2.1998  ,2.5  ,4.8333
6837  ,2.396e+08   ,-2.3  ,-2.5  ,0.8063
6869  ,7.741e+08   ,2.5  ,-1.7102  ,4.9
6873  ,8.940e+08   ,2.4  ,-1.9073  ,5
6880  ,7.454e+08   ,2.4  ,-0.92182  ,5
6885  ,7.460e+08   ,2.4  ,-0.52764  ,5
6893  ,1.246e+09   ,2.4  ,1.2462  ,5
6914  ,7.637e+08   ,0.7  ,2.5  ,0.1
6920  ,6.140e+08   ,0.9  ,2.4  ,0
6923  ,6.485e+08   ,0.7  ,2.4  ,0
6936  ,4.026e+08   ,2.4  ,-2.5  ,3.4
6939  ,4.017e+08   ,2.3  ,-2.5  ,3.2226
6961  ,3.056e+08   ,-0.1  ,-2.5  ,4.9
6967  ,3.288e+08   ,-2.5  ,-1.5  ,4.9
6975  ,3.575e+08   ,-2.4  ,1.1  ,5
6978  ,2.051e+08   ,-2.4  ,2.5  ,0.2
6987  ,7.088e+08   ,2.4  ,-1.316  ,5
6994  ,3.443e+08   ,2.4  ,-1.5  ,0
7004  ,4.599e+08   ,2.4  ,-2.5  ,3.6
7011  ,8.535e+08   ,2.4  ,0.65491  ,5
7016  ,6.727e+08   ,2.4  ,0.45782  ,5
7019  ,9.972e+08   ,2.5  ,2.4  ,2.1695
7021  ,9.841e+08   ,2.5  ,2.4  ,1.9724
7052  ,6.082e+08   ,-1.3  ,2.5  ,0.1
7054  ,2.926e+08   ,-2.4  ,-2.5  ,0.8
7057  ,3.350e+08   ,0.3  ,-2.5  ,0.1
7065  ,2.821e+08   ,0.24243  ,-2.5  ,0.2
7075  ,2.283e+10   ,2.4888  ,2.4325  ,4.6656
7113  ,3.552e+08   ,-2.4  ,-2.5  ,2.6
7121  ,3.383e+08   ,-2.4  ,-2.5  ,2.8
7126  ,3.931e+08   ,-2.5  ,-2.4  ,2.8
7128  ,3.702e+08   ,-2.4707  ,-2.4707  ,0.1
7129  ,3.690e+08   ,-2.4  ,-2.4707  ,0.029289
7141  ,9.016e+08   ,-1.7  ,-2.4  ,5
7145  ,5.060e+08   ,1.1  ,2.4  ,0
7163  ,3.600e+08   ,-1.7102  ,2.4  ,5
7172  ,1.146e+09   ,2.5  ,-2.4  ,3.2
7174  ,4.968e+08   ,-2.5  ,2.4  ,3.6
7183  ,5.244e+08   ,-1.4531  ,-2.5  ,4.8
7204  ,1.640e+09   ,2.3  ,-0.81068  ,4.8
7220  ,7.184e+08   ,2.5  ,0.063638  ,4.9
7227  ,4.288e+08   ,2.5  ,-1.9  ,0.1
7256  ,2.140e+08   ,-0.1  ,-2.4  ,5
7280  ,9.201e+08   ,-0.33054  ,2.4  ,5
7299  ,7.187e+08   ,2.5  ,-1.1189  ,4.9
7316  ,4.533e+08   ,-2.5  ,-2.4  ,0.8
7323  ,2.273e+08   ,-2.4  ,-2.5  ,1
7396  ,1.291e+09   ,1.1  ,-2.4  ,5
7400  ,7.399e+08   ,-2.5  ,0.7  ,0.1
7409  ,1.090e+09   ,1.3  ,-2.4  ,5
7420  ,2.169e+08   ,2.5  ,2.1  ,0.1
7429  ,2.944e+08   ,2.4  ,1.9  ,0
7436  ,2.953e+08   ,2.5  ,-1.7  ,0.1
7438  ,5.136e+08   ,2.4  ,-2.5  ,2.8
7445  ,1.810e+10   ,2.4325  ,2.1656  ,4.9888
7464  ,2.971e+08   ,2.5  ,-1.5  ,0.1
7480  ,6.570e+08   ,2.5  ,-2.4  ,0.2
7482  ,3.185e+08   ,1.9  ,-2.5  ,0.1
7483  ,2.919e+08   ,1.7  ,-2.5  ,0.1
7486  ,4.278e+08   ,1.9  ,-2.4  ,5
7488  ,5.613e+08   ,1.6937  ,-2.5  ,4.8
7492  ,1.206e+09   ,2.1  ,-2.4  ,5
7495  ,3.494e+08   ,0.1  ,-2.5  ,0.1
7504  ,4.100e+08   ,0.3  ,-2.4  ,0
7507  ,3.264e+08   ,0.9  ,-2.5  ,0.1
7533  ,6.801e+08   ,-2.5  ,0.9  ,0.1
7536  ,3.325e+08   ,-2.4  ,-2.5  ,3.2
7540  ,3.777e+08   ,-2.4  ,-2.5  ,3
7545  ,6.234e+08   ,-2.5  ,-2.4  ,3
7582  ,3.410e+08   ,1.3  ,2.5  ,0.1
7588  ,1.008e+09   ,2.5  ,2.4  ,2.3665
7598  ,3.661e+08   ,-2.5  ,2.4  ,4.2
7607  ,8.725e+08   ,1.5333  ,2.3  ,0.2
7627  ,3.349e+08   ,-2.5  ,1.1  ,4.9
7651  ,3.741e+08   ,2.4  ,-1.9  ,0
7656  ,1.619e+08   ,2.5  ,2.4  ,0.39564
7660  ,6.886e+09   ,2.2299  ,2.3  ,4.7299
7668  ,2.060e+08   ,1.4531  ,-2.5  ,4.8
7676  ,4.068e+08   ,0.1  ,-2.5  ,4.9
7683  ,2.036e+08   ,0.1  ,-2.4  ,5
7686  ,4.257e+08   ,-2.4  ,-1.1  ,5
7702  ,3.988e+08   ,-2.3  ,-2.5  ,4.433
7710  ,4.715e+08   ,-2.3  ,-2.5  ,4.6765
7752  ,1.337e+09   ,0.9  ,-2.4  ,5
7763  ,4.457e+08   ,0.24243  ,-2.5  ,4.8
7767  ,8.629e+08   ,-2.5  ,-2.4  ,3.2
7768  ,3.079e+08   ,-2.4  ,-2.1  ,0
7776  ,6.871e+08   ,-2.4  ,0.9  ,0
7786  ,7.463e+08   ,-0.4838  ,-2.5  ,4.8
7800  ,1.225e+09   ,2.5  ,-2.4  ,4.6
7805  ,3.557e+08   ,-2.5  ,-1.3  ,4.9
7811  ,4.021e+08   ,-2.5  ,-1.1  ,4.9
7820  ,5.146e+08   ,2.5  ,-2.1  ,0.1
7824  ,4.582e+08   ,2.4  ,-2.1  ,0
7828  ,4.038e+08   ,2.4  ,-2.5  ,4.2
7831  ,5.111e+08   ,2.4  ,-2.5  ,4
7838  ,1.696e+08   ,2.5  ,-2.4  ,4.2
7839  ,1.069e+09   ,2.5  ,2.4  ,2.7607
7840  ,1.193e+09   ,2.5  ,2.4  ,2.9578
7863  ,2.852e+08   ,-2.4  ,-1.5  ,0
7890  ,3.675e+08   ,2.4  ,0.9  ,0
7897  ,5.253e+08   ,-2.4  ,-0.7  ,0
7912  ,5.804e+08   ,-1.5  ,-2.4  ,0
7917  ,2.732e+08   ,-1.3  ,-2.5  ,0.1
7931  ,6.468e+08   ,0.5  ,2.4  ,0
7934  ,1.052e+09   ,1.1  ,-2.4  ,0
7937  ,1.159e+08   ,2.4  ,-2.5  ,0.8
7941  ,3.196e+08   ,-2.4  ,-2.5  ,0.6
7969  ,1.086e+08   ,-2.5  ,2.3  ,0.1
7971  ,3.260e+08   ,-2.4  ,1.9  ,0
7972  ,5.185e+08   ,-1.9  ,2.5  ,0.1
7978  ,6.293e+08   ,-2.4  ,1.1  ,0
7996  ,4.310e+08   ,-2.4  ,-0.5  ,5
8000  ,2.676e+08   ,-2.5  ,-2.4  ,0.6
8003  ,3.140e+08   ,-2.5  ,-2.4  ,0.4
8025  ,5.988e+08   ,0.9  ,2.5  ,0.1
8035  ,7.787e+08   ,0.3  ,2.5  ,0.1
8039  ,1.241e+09   ,2.3  ,-2.5  ,0.32348
8041  ,8.245e+08   ,2.3  ,-2.3379  ,0.2
8043  ,5.586e+08   ,2.1765  ,-2.5  ,0.2
8045  ,2.763e+08   ,-0.96359  ,-2.5  ,0.2
8054  ,4.250e+08   ,1.3  ,2.4  ,0
8058  ,4.306e+08   ,1.1  ,2.5  ,0.1
8062  ,5.394e+08   ,-2.5  ,2.4  ,1.4
8067  ,4.548e+08   ,-2.5  ,2.4  ,0.8
8087  ,4.868e+08   ,-2.5  ,1.5  ,0.1
8132  ,1.016e+09   ,-0.13345  ,2.4  ,5
8183  ,4.384e+08   ,2.5  ,-0.9  ,0.1
8184  ,3.837e+08   ,1.6937  ,-2.5  ,0.2
8214  ,3.613e+08   ,-2.4707  ,-2.4  ,4.9707
8217  ,1.003e+09   ,-2.1  ,-2.4  ,5
8219  ,3.501e+08   ,-2.4  ,-2.5  ,4.4
8227  ,1.263e+09   ,2.5  ,2.4  ,3.1549
8242  ,4.863e+08   ,0.7  ,-2.5  ,4.9
8248  ,1.303e+09   ,2.5  ,-2.4  ,3.6
8254  ,3.720e+08   ,2.5  ,-0.3  ,0.1
8256  ,4.127e+08   ,2.5  ,-0.5  ,0.1
8258  ,3.487e+08   ,-0.3  ,-2.5  ,4.9
8263  ,4.246e+08   ,-0.5  ,-2.5  ,4.9
8268  ,4.295e+08   ,-2.3  ,-2.5  ,3.7085
8277  ,3.575e+08   ,-0.1  ,-2.5  ,0.1
8285  ,4.892e+08   ,1.1  ,-2.5  ,4.9
8307  ,6.189e+08   ,0.1  ,2.4  ,0
8308  ,3.537e+08   ,-0.1  ,2.5  ,0.1
8309  ,6.085e+08   ,-0.1  ,2.4  ,0
8313  ,4.960e+08   ,2.5  ,-2.3  ,0.1
8318  ,8.943e+08   ,2.5  ,-2.4  ,3
8338  ,1.284e+09   ,2.5  ,2.4  ,3.352
8339  ,1.269e+09   ,2.4  ,2.5  ,3.1549
8344  ,5.846e+08   ,-2.5  ,2.4  ,3.4
8357  ,1.733e+10   ,2.4888  ,2.1656  ,4.9325
8358  ,5.394e+09   ,2.5  ,2.1998  ,4.8333
8383  ,4.954e+08   ,-1.7  ,-2.4  ,0
8396  ,3.355e+08   ,1.1  ,-2.5  ,0.1
8399  ,6.838e+09   ,2.4526  ,2.1331  ,4.9851
8405  ,7.208e+08   ,2.5  ,-2.4  ,1
8412  ,7.944e+08   ,2.3  ,-2.5  ,0.8063
8417  ,4.543e+08   ,-2.3  ,-2.5  ,2.5
8434  ,6.062e+08   ,0.9636  ,-2.5  ,4.8
8438  ,3.221e+08   ,-0.3  ,-2.5  ,0.1
8452  ,3.355e+08   ,-2.4  ,-0.1  ,5
8468  ,1.636e+09   ,2.5  ,2.4  ,3.7462
8471  ,3.800e+08   ,-1.3  ,-2.5  ,4.9
8493  ,4.021e+08   ,-1.1  ,-2.5  ,4.9
8509  ,2.446e+08   ,-2.5  ,-1.7  ,0.1
8517  ,6.565e+08   ,-2.4  ,2.5  ,3
8531  ,4.106e+08   ,-2.4  ,1.7  ,0
8556  ,1.414e+09   ,2.5  ,2.4  ,3.5491
8573  ,7.318e+08   ,-1.316  ,2.4  ,5
8576  ,5.587e+08   ,-2.4  ,1.3  ,0
8611  ,2.983e+08   ,2.3  ,-2.5  ,1.2915
8618  ,3.046e+08   ,-2.4  ,2.5  ,4
8646  ,6.178e+08   ,-2.5  ,1.1  ,0.1
8656  ,4.108e+08   ,2.5  ,-1.3  ,0.1
8657  ,2.863e+08   ,2.4  ,2.1  ,0
8673  ,5.250e+08   ,-1.3  ,2.4  ,0
8692  ,5.029e+08   ,0.72263  ,-2.5  ,4.8
8696  ,5.417e+08   ,2.3  ,-2.5  ,1.0469
8706  ,7.981e+08   ,2.5  ,0.65491  ,4.9
8721  ,2.766e+08   ,-2.4  ,-2.5  ,1.6
8725  ,1.291e+09   ,0.65491  ,2.4  ,5
8739  ,1.886e+10   ,2.1656  ,2.4325  ,4.9888
8741  ,5.940e+09   ,2.1998  ,2.3333  ,5
8746  ,2.923e+08   ,-2.1  ,-2.4  ,0
8748  ,4.859e+08   ,-2.5  ,-2.4  ,1.2
8752  ,8.788e+09   ,2.1331  ,2.4526  ,4.9851
8759  ,1.990e+08   ,-2.3  ,-2.5  ,1.0469
8787  ,2.063e+08   ,-0.1  ,-2.4  ,0
8793  ,5.359e+08   ,-2.3  ,-2.5  ,2.2576
8795  ,3.650e+08   ,-2.4  ,-2.5  ,2.4
8798  ,4.400e+08   ,-2.3  ,-2.5  ,4.1937
8808  ,4.394e+08   ,-2.3  ,-2.5  ,3.9531
8814  ,5.140e+08   ,-2.4  ,-1.5  ,5
8849  ,2.615e+08   ,0.4838  ,-2.5  ,4.8
8851  ,2.748e+08   ,-2.4  ,-2.5  ,4.2
8868  ,5.258e+08   ,2.4  ,-2.5  ,3
8874  ,1.300e+09   ,0.852  ,2.4  ,5
8883  ,3.051e+08   ,-0.5  ,-2.4  ,5
8886  ,5.662e+08   ,-0.72262  ,-2.5  ,4.8
8893  ,3.177e+08   ,-0.7  ,-2.5  ,4.9
8897  ,1.003e+09   ,-2.5  ,-2.4  ,3.6
8899  ,4.102e+08   ,-2.3  ,-2.5  ,3.4636
8900  ,1.937e+08   ,-2.3  ,-1.4729  ,0.2
8906  ,3.252e+08   ,-2.5  ,-1.3  ,0.1
8910  ,1.299e+09   ,0.852  ,2.5  ,4.9
8925  ,5.762e+08   ,-2.4  ,2.5  ,1.4
8941  ,9.741e+07   ,2.4707  ,2.4  ,0.029289
8942  ,1.420e+08   ,2.5  ,2.3  ,0.1
8945  ,3.864e+08   ,-2.5  ,0.1  ,4.9
8950  ,9.080e+07   ,2.4707  ,2.4707  ,0.1
8951  ,8.383e+07   ,2.4  ,2.4707  ,0.029289
8959  ,5.801e+08   ,2.4  ,0.26073  ,5
8965  ,1.164e+09   ,0.45782  ,2.4  ,5
8978  ,8.401e+08   ,2.4  ,0.852  ,5
8983  ,4.180e+08   ,2.5  ,-1.1  ,0.1
8991  ,3.819e+08   ,-2.5  ,2.4  ,0.6
9008  ,7.968e+08   ,2.5  ,0.852  ,4.9
9011  ,5.353e+08   ,-2.4  ,-0.5  ,0
9025  ,2.274e+08   ,-1.5  ,-2.5  ,0.1
9038  ,4.140e+08   ,2.4  ,-2.5  ,2
9041  ,4.094e+08   ,2.5  ,0.9  ,0.1
9050  ,4.222e+08   ,2.5  ,0.5  ,0.1
9054  ,1.019e+09   ,0.9  ,-2.4  ,0
9060  ,4.156e+08   ,2.4  ,-2.5  ,0.4
9062  ,1.021e+09   ,2.3  ,-2.5  ,0.56701
9064  ,9.572e+08   ,2.5  ,-2.4  ,0.4
9069  ,3.060e+08   ,2.4  ,-2.5  ,0.6
9071  ,4.116e+08   ,1.4531  ,-2.5  ,0.2
9082  ,7.098e+07   ,-2.3  ,-2.5  ,1.2915
9086  ,2.844e+08   ,-2.4  ,-2.5  ,1.4
9091  ,3.628e+08   ,-2.5  ,-2.4  ,1.4
9094  ,5.064e+08   ,1.3  ,-2.5  ,4.9
9097  ,2.826e+08   ,-0.7  ,-2.5  ,0.1
9137  ,3.452e+08   ,-2.5  ,-0.7  ,4.9
9143  ,3.031e+08   ,-2.5  ,-0.1  ,4.9
9146  ,2.376e+08   ,-2.1  ,2.4  ,0
9148  ,2.708e+08   ,-2.5  ,1.7  ,4.9
9173  ,6.158e+08   ,-2.5  ,2.4  ,3
9192  ,2.885e+08   ,-0.7  ,-2.4  ,5
9195  ,2.764e+08   ,0.72263  ,-2.5  ,0.2
9209  ,1.281e+09   ,2.5  ,-2.4  ,3.4
9215  ,4.149e+08   ,0.9636  ,-2.5  ,0.2
9217  ,4.895e+08   ,2.4  ,-2.5  ,3.2
9218  ,2.876e+08   ,-0.96359  ,-2.5  ,4.8
9229  ,6.697e+08   ,-2.4  ,2.5  ,2.8
9248  ,8.318e+08   ,2.3  ,-2.5  ,4.433
9255  ,3.467e+08   ,2.5  ,1.3  ,0.1
9257  ,2.747e+08   ,2.4  ,1.5  ,0
9262  ,9.589e+08   ,0.5  ,-2.4  ,5
9264  ,6.210e+08   ,2.4  ,-0.13345  ,5
9272  ,9.950e+08   ,0.063638  ,2.4  ,5
9277  ,5.309e+08   ,-2.5  ,2.4  ,1.2
9279  ,6.773e+08   ,2.5  ,0.26073  ,4.9
9282  ,4.517e+08   ,1.2085  ,-2.5  ,4.8
9286  ,4.146e+08   ,0.9  ,-2.5  ,4.9
9292  ,1.270e+08   ,-2.4  ,2.4707  ,4.9707
9293  ,1.346e+08   ,-2.3015  ,2.4  ,5
9296  ,5.106e+08   ,-2.4  ,-2.1  ,5
9303  ,4.797e+08   ,-2.4  ,-1.9  ,5
9311  ,1.619e+08   ,-2.4  ,2.3  ,5
9313  ,3.499e+08   ,-2.4  ,0.1  ,5
9319  ,5.097e+07   ,-0.5  ,-2.4  ,0
9328  ,2.539e+08   ,-2.3  ,-2.5  ,1.5364
9334  ,2.157e+08   ,-2.3  ,2.5  ,0.1
9338  ,1.820e+08   ,-2.5  ,-2.4  ,2.4
9339  ,5.431e+08   ,-2.5  ,1.3  ,0.1
9341  ,2.991e+08   ,-2.3  ,-2.5  ,2.7424
9344  ,9.096e+07   ,-2.5  ,-2.4  ,2.2
9358  ,1.561e+09   ,-2.3  ,2.3  ,2.5
9364  ,5.272e+08   ,-2.5  ,-2.1  ,4.9
9367  ,5.256e+08   ,-2.4  ,-2.3  ,5
9374  ,4.499e+08   ,-2.4  ,-1.3  ,5
9378  ,5.296e+08   ,-2.5  ,2.4  ,1.8
9384  ,7.443e+08   ,2.3  ,-2.5  ,2.0162
9385  ,3.142e+08   ,-2.5  ,2.4  ,4.4
9389  ,5.595e+08   ,-2.5  ,2.4  ,2
9395  ,8.229e+08   ,2.4  ,-2.3015  ,5
9396  ,2.674e+08   ,-2.4  ,-1.7  ,0
9407  ,6.517e+08   ,-2.3  ,-1.4729  ,4.8
9411  ,3.002e+08   ,-2.5  ,-1.7  ,4.9
9423  ,3.161e+08   ,-2.4  ,-2.5  ,3.6
9432  ,1.244e+09   ,0.7  ,-2.4  ,5
9438  ,3.782e+08   ,-2.5  ,-0.9  ,4.9
9443  ,3.218e+08   ,-2.5  ,-0.3  ,4.9
9445  ,1.017e+08   ,-2.4707  ,2.4  ,4.9707
9448  ,6.643e+08   ,2.4  ,-1.1189  ,5
9453  ,4.282e+08   ,2.4  ,0.7  ,0
9455  ,2.370e+08   ,2.5  ,-2.4  ,2.6
9457  ,1.214e+08   ,2.3  ,-2.5  ,2.9838
9494  ,5.725e+08   ,-2.4  ,2.5  ,1
9500  ,5.569e+08   ,0.3  ,-2.5  ,4.9
9504  ,5.759e+08   ,0.3  ,-2.4  ,5
9506  ,5.202e+08   ,2.1  ,-2.5  ,0.1
9518  ,3.853e+08   ,-1.9  ,-2.5  ,0.1
9528  ,5.937e+08   ,2.3  ,-2.5  ,0.1
9531  ,5.717e+08   ,2.4707  ,-2.4707  ,0.1
9533  ,3.974e+08   ,2.4707  ,-2.4  ,0.029289
9534  ,5.229e+08   ,2.4  ,-2.4707  ,0.029289
9541  ,6.232e+08   ,0.5  ,-2.5  ,4.9
9544  ,2.834e+08   ,-0.5  ,-2.5  ,0.1
9559  ,3.922e+08   ,-2.5  ,-1.9  ,4.9
9562  ,2.557e+08   ,-2.5  ,2.4  ,4.6
9565  ,5.906e+08   ,-2.4  ,2.5  ,2
9571  ,9.625e+08   ,-2.5  ,-2.4  ,3.8
9574  ,3.093e+08   ,-2.4  ,-2.5  ,3.8
9577  ,3.244e+08   ,1.3  ,-2.5  ,0.1
9582  ,5.340e+08   ,-2.5  ,-0.9  ,0.1
9596  ,2.480e+08   ,2.1  ,2.4  ,0
9598  ,6.958e+08   ,-2.4  ,2.5  ,3.2
9602  ,3.104e+08   ,1.5  ,2.5  ,0.1
9610  ,1.731e+08   ,2.4  ,2.5  ,0.39564
9612  ,1.044e+09   ,-0.72473  ,2.5  ,4.9
9614  ,3.114e+08   ,1.7  ,2.5  ,0.1
9635  ,2.870e+08   ,2.5  ,1.7  ,0.1
9646  ,1.616e+08   ,2.3  ,2.5  ,0.1
9651  ,1.781e+10   ,2.1656  ,2.4888  ,4.9325
9653  ,6.717e+08   ,2.5  ,-1.316  ,4.9
9656  ,3.450e+08   ,-2.4  ,-1.7  ,5
9659  ,1.541e+09   ,2.3  ,-2.5  ,4.6765
9661  ,1.474e+08   ,2.3  ,-2.5  ,3.9531
9664  ,6.270e+08   ,-2.3  ,-2.4  ,5
9666  ,4.053e+08   ,1.9  ,-2.4  ,0
9677  ,4.227e+08   ,2.4  ,0.5  ,0
9678  ,4.516e+08   ,-2.5  ,-1.1  ,0.1
9680  ,6.674e+08   ,2.5  ,2.4  ,1.184
9681  ,7.773e+07   ,2.5  ,2.4  ,0.19855
9696  ,5.118e+08   ,-2.3  ,-2.5  ,2.0162
9698  ,5.148e+08   ,2.4  ,-2.3  ,0
9699  ,5.068e+08   ,-0.24243  ,-2.5  ,0.2
9701  ,2.996e+08   ,0.1  ,-2.4  ,0
9704  ,5.358e+08   ,-0.4838  ,-2.5  ,0.2
9718  ,4.267e+08   ,-0.72262  ,-2.5  ,0.2
9726  ,8.323e+08   ,2.3  ,-0.76628  ,0.2
9727  ,2.580e+08   ,-2.5  ,2.4  ,0.4
9730  ,6.559e+08   ,1.9433E-06  ,-2.5  ,4.8
9731  ,7.753e+08   ,-0.24243  ,-2.5  ,4.8
9732  ,5.698e+08   ,-2.5  ,2.4  ,2.2
9738  ,8.245e+08   ,-2.5  ,-2.4  ,4
9743  ,8.204e+08   ,-1.6937  ,-2.5  ,4.8
9744  ,2.418e+08   ,-2.4  ,-2.5  ,4
9750  ,2.921e+08   ,-1.7  ,-2.5  ,0.1
9752  ,2.149e+08   ,-1.6937  ,-2.5  ,0.2
9754  ,4.830e+08   ,-1.3  ,-2.4  ,0
9759  ,7.046e+07   ,-2.4707  ,2.4  ,0.029289
9760  ,5.114e+07   ,-2.4  ,2.4707  ,0.029289
9768  ,4.805e+08   ,2.3  ,-2.5  ,4.1937
9770  ,4.062e+08   ,1.9433E-06  ,-2.5  ,0.2
9771  ,6.414e+07   ,0.4838  ,-2.5  ,0.2
9772  ,6.321e+08   ,2.4  ,-2.5  ,0.2
9773  ,5.475e+08   ,2.4  ,-2.5  ,4.6
9776  ,5.962e+08   ,2.4  ,0.063638  ,5
9780  ,1.245e+09   ,0.65491  ,2.5  ,4.9
9781  ,8.328e+07   ,2.4  ,2.5  ,0.19855
9782  ,9.734e+07   ,-2.3  ,-2.5  ,2.9838
9786  ,8.020e+07   ,-1.2085  ,-2.5  ,0.2
9787  ,2.007e+08   ,-1.4531  ,-2.5  ,0.2
9790  ,5.355e+08   ,2.3  ,-2.4  ,0
9793  ,5.903e+09   ,2.0345  ,2.4  ,5
9797  ,2.769e+08   ,2.3  ,-2.5  ,1.5364
9798  ,1.046e+09   ,2.4  ,1.0491  ,5
9809  ,1.264e+09   ,2.4  ,2.5  ,3.352
