Date:  11:24, Monday, July 10, 2023
Model name: Hollow_DropBox
Study name: Drop Test_hollow_draft1(-Default-)
Plot type:  Stress1
Plot step: 18   time : 94.4518 Microseconds
Result Type: von Mises 


Node  ,Value (N/m^2)  ,X (in)  ,Y (in)  ,Z (in)
1  ,4.880e+09   ,2.5  ,2.1331  ,4.9
2  ,2.135e+10   ,2.4577  ,2.1908  ,4.9577
3  ,8.536e+09   ,2.4894  ,2.1331  ,4.9447
4  ,6.368e+09   ,2.1331  ,2.5  ,4.9
5  ,1.379e+10   ,2.1331  ,2.4894  ,4.9447
6  ,2.032e+10   ,2.1908  ,2.4577  ,4.9577
7  ,1.179e+08   ,-2.4  ,2.4  ,5
8  ,9.502e+08   ,-2.4  ,-2.4  ,5
9  ,1.538e+09   ,2.4  ,-2.4  ,5
10  ,4.962e+09   ,2.4  ,2.1331  ,5
11  ,5.763e+09   ,2.1331  ,2.4  ,5
12  ,1.690e+09   ,2.5  ,-2.4  ,4.9
13  ,8.722e+08   ,2.5  ,-2.4  ,0.1
14  ,1.294e+08   ,2.5  ,2.4  ,0.1
15  ,6.239e+09   ,2.5  ,2.4  ,4.6331
16  ,1.208e+08   ,2.4  ,2.5  ,0.1
17  ,2.283e+08   ,-2.4  ,2.5  ,0.1
18  ,1.078e+08   ,-2.4  ,2.5  ,4.9
19  ,6.356e+09   ,2.4  ,2.5  ,4.6331
20  ,9.118e+07   ,-2.5  ,2.4  ,0.1
21  ,3.154e+08   ,-2.5  ,-2.4  ,0.1
22  ,6.859e+08   ,-2.5  ,-2.4  ,4.9
23  ,1.473e+08   ,-2.5  ,2.4  ,4.9
24  ,3.697e+08   ,-2.3  ,-2.5  ,0.2
25  ,6.618e+08   ,-2.3  ,-2.5  ,4.8
26  ,1.654e+09   ,2.3  ,-2.5  ,4.8
27  ,5.573e+08   ,2.3  ,-2.5  ,0.2
28  ,8.547e+08   ,-2.4  ,-2.5  ,4.9
29  ,1.674e+09   ,2.4  ,-2.5  ,4.9
30  ,3.538e+08   ,-2.4  ,-2.5  ,0.1
31  ,8.407e+08   ,2.4  ,-2.5  ,0.1
32  ,6.794e+08   ,2.4  ,-2.4  ,0
33  ,1.354e+08   ,2.4  ,2.4  ,0
34  ,3.446e+08   ,-2.4  ,-2.4  ,0
35  ,1.295e+08   ,-2.4  ,2.4  ,0
36  ,2.407e+10   ,2.4577  ,2.4577  ,4.6908
37  ,3.837e+08   ,-2.3  ,2.3  ,4.8
38  ,6.783e+09   ,2.1599  ,2.3  ,4.8
39  ,6.479e+09   ,2.3  ,2.1599  ,4.8
40  ,6.636e+09   ,2.3  ,2.3  ,4.6599
41  ,3.635e+08   ,2.3  ,2.3  ,0.2
42  ,4.636e+07   ,-2.3  ,2.3  ,0.2
43  ,2.256e+08   ,-2.4  ,2.2  ,5
44  ,3.302e+08   ,-2.4  ,2  ,5
45  ,3.403e+08   ,-2.4  ,1.8  ,5
46  ,3.395e+08   ,-2.4  ,1.6  ,5
47  ,3.395e+08   ,-2.4  ,1.4  ,5
48  ,4.376e+08   ,-2.4  ,1.2  ,5
49  ,5.407e+08   ,-2.4  ,1  ,5
50  ,7.425e+08   ,-2.4  ,0.8  ,5
51  ,5.179e+08   ,-2.4  ,0.6  ,5
52  ,4.171e+08   ,-2.4  ,0.4  ,5
53  ,3.814e+08   ,-2.4  ,0.2  ,5
54  ,3.209e+08   ,-2.4  ,5.8879E-16  ,5
55  ,2.376e+08   ,-2.4  ,-0.2  ,5
56  ,2.226e+08   ,-2.4  ,-0.4  ,5
57  ,2.106e+08   ,-2.4  ,-0.6  ,5
58  ,1.832e+08   ,-2.4  ,-0.8  ,5
59  ,2.727e+08   ,-2.4  ,-1  ,5
60  ,2.507e+08   ,-2.4  ,-1.2  ,5
61  ,4.786e+08   ,-2.4  ,-1.4  ,5
62  ,4.432e+08   ,-2.4  ,-1.6  ,5
63  ,4.333e+08   ,-2.4  ,-1.8  ,5
64  ,5.992e+08   ,-2.4  ,-2  ,5
65  ,5.379e+08   ,-2.4  ,-2.2  ,5
66  ,1.227e+09   ,-2.2  ,-2.4  ,5
67  ,1.013e+09   ,-2  ,-2.4  ,5
68  ,9.479e+08   ,-1.8  ,-2.4  ,5
69  ,6.939e+08   ,-1.6  ,-2.4  ,5
70  ,3.859e+08   ,-1.4  ,-2.4  ,5
71  ,1.114e+08   ,-1.2  ,-2.4  ,5
72  ,1.789e+08   ,-1  ,-2.4  ,5
73  ,2.691e+08   ,-0.8  ,-2.4  ,5
74  ,2.156e+08   ,-0.6  ,-2.4  ,5
75  ,2.414e+08   ,-0.4  ,-2.4  ,5
76  ,5.219e+08   ,-0.2  ,-2.4  ,5
77  ,8.240e+08   ,-5.8879E-16  ,-2.4  ,5
78  ,9.920e+08   ,0.2  ,-2.4  ,5
79  ,1.077e+09   ,0.4  ,-2.4  ,5
80  ,1.350e+09   ,0.6  ,-2.4  ,5
81  ,1.457e+09   ,0.8  ,-2.4  ,5
82  ,1.468e+09   ,1  ,-2.4  ,5
83  ,1.354e+09   ,1.2  ,-2.4  ,5
84  ,1.244e+09   ,1.4  ,-2.4  ,5
85  ,7.177e+08   ,1.6  ,-2.4  ,5
86  ,4.762e+08   ,1.8  ,-2.4  ,5
87  ,8.774e+08   ,2  ,-2.4  ,5
88  ,2.445e+09   ,2.2  ,-2.4  ,5
89  ,1.325e+09   ,2.4  ,-2.2029  ,5
90  ,1.425e+09   ,2.4  ,-2.0058  ,5
91  ,1.079e+09   ,2.4  ,-1.8087  ,5
92  ,9.530e+08   ,2.4  ,-1.6116  ,5
93  ,1.040e+09   ,2.4  ,-1.4145  ,5
94  ,8.809e+08   ,2.4  ,-1.2175  ,5
95  ,9.341e+08   ,2.4  ,-1.0204  ,5
96  ,9.293e+08   ,2.4  ,-0.82327  ,5
97  ,9.121e+08   ,2.4  ,-0.62618  ,5
98  ,8.335e+08   ,2.4  ,-0.42909  ,5
99  ,7.688e+08   ,2.4  ,-0.232  ,5
100  ,6.938e+08   ,2.4  ,-0.034907  ,5
101  ,7.240e+08   ,2.4  ,0.16218  ,5
102  ,7.679e+08   ,2.4  ,0.35927  ,5
103  ,9.529e+08   ,2.4  ,0.55637  ,5
104  ,9.780e+08   ,2.4  ,0.75346  ,5
105  ,8.031e+08   ,2.4  ,0.95055  ,5
106  ,8.817e+08   ,2.4  ,1.1476  ,5
107  ,1.440e+09   ,2.4  ,1.3447  ,5
108  ,1.956e+09   ,2.4  ,1.5418  ,5
109  ,2.585e+09   ,2.4  ,1.7389  ,5
110  ,4.051e+09   ,2.4  ,1.936  ,5
111  ,5.611e+09   ,2.2665  ,2.2665  ,5
112  ,4.673e+09   ,1.936  ,2.4  ,5
113  ,2.829e+09   ,1.7389  ,2.4  ,5
114  ,2.240e+09   ,1.5418  ,2.4  ,5
115  ,1.686e+09   ,1.3447  ,2.4  ,5
116  ,1.417e+09   ,1.1476  ,2.4  ,5
117  ,1.267e+09   ,0.95055  ,2.4  ,5
118  ,1.371e+09   ,0.75346  ,2.4  ,5
119  ,1.176e+09   ,0.55637  ,2.4  ,5
120  ,1.035e+09   ,0.35927  ,2.4  ,5
121  ,9.771e+08   ,0.16218  ,2.4  ,5
122  ,9.352e+08   ,-0.034907  ,2.4  ,5
123  ,9.818e+08   ,-0.232  ,2.4  ,5
124  ,8.679e+08   ,-0.42909  ,2.4  ,5
125  ,7.756e+08   ,-0.62618  ,2.4  ,5
126  ,1.006e+09   ,-0.82327  ,2.4  ,5
127  ,9.805e+08   ,-1.0204  ,2.4  ,5
128  ,8.849e+08   ,-1.2175  ,2.4  ,5
129  ,7.254e+08   ,-1.4145  ,2.4  ,5
130  ,5.106e+08   ,-1.6116  ,2.4  ,5
131  ,3.557e+08   ,-1.8087  ,2.4  ,5
132  ,2.733e+08   ,-2.0058  ,2.4  ,5
133  ,1.260e+08   ,-2.2029  ,2.4  ,5
294  ,1.153e+09   ,2.5  ,-2.2029  ,4.9
295  ,1.377e+09   ,2.5  ,-2.0058  ,4.9
296  ,1.072e+09   ,2.5  ,-1.8087  ,4.9
297  ,1.082e+09   ,2.5  ,-1.6116  ,4.9
298  ,9.093e+08   ,2.5  ,-1.4145  ,4.9
299  ,9.000e+08   ,2.5  ,-1.2175  ,4.9
300  ,9.748e+08   ,2.5  ,-1.0204  ,4.9
301  ,7.755e+08   ,2.5  ,-0.82327  ,4.9
302  ,8.438e+08   ,2.5  ,-0.62618  ,4.9
303  ,8.240e+08   ,2.5  ,-0.42909  ,4.9
304  ,9.598e+08   ,2.5  ,-0.232  ,4.9
305  ,1.063e+09   ,2.5  ,-0.034907  ,4.9
306  ,8.833e+08   ,2.5  ,0.16218  ,4.9
307  ,7.439e+08   ,2.5  ,0.35927  ,4.9
308  ,8.915e+08   ,2.5  ,0.55637  ,4.9
309  ,8.533e+08   ,2.5  ,0.75346  ,4.9
310  ,9.634e+08   ,2.5  ,0.95055  ,4.9
311  ,1.127e+09   ,2.5  ,1.1476  ,4.9
312  ,1.483e+09   ,2.5  ,1.3447  ,4.9
313  ,2.019e+09   ,2.5  ,1.5418  ,4.9
314  ,2.984e+09   ,2.5  ,1.7389  ,4.9
315  ,4.375e+09   ,2.5  ,1.936  ,4.9
316  ,2.556e+09   ,2.5  ,-2.4  ,4.7
317  ,9.049e+08   ,2.5  ,-2.4  ,4.5
318  ,5.309e+08   ,2.5  ,-2.4  ,4.3
319  ,7.925e+08   ,2.5  ,-2.4  ,4.1
320  ,1.182e+09   ,2.5  ,-2.4  ,3.9
321  ,1.503e+09   ,2.5  ,-2.4  ,3.7
322  ,1.597e+09   ,2.5  ,-2.4  ,3.5
323  ,1.456e+09   ,2.5  ,-2.4  ,3.3
324  ,1.304e+09   ,2.5  ,-2.4  ,3.1
325  ,1.075e+09   ,2.5  ,-2.4  ,2.9
326  ,9.331e+08   ,2.5  ,-2.4  ,2.7
327  ,8.483e+08   ,2.5  ,-2.4  ,2.5
328  ,6.189e+08   ,2.5  ,-2.4  ,2.3
329  ,3.698e+08   ,2.5  ,-2.4  ,2.1
330  ,2.373e+08   ,2.5  ,-2.4  ,1.9
331  ,2.009e+08   ,2.5  ,-2.4  ,1.7
332  ,9.335e+07   ,2.5  ,-2.4  ,1.5
333  ,1.410e+08   ,2.5  ,-2.4  ,1.3
334  ,3.818e+08   ,2.5  ,-2.4  ,1.1
335  ,7.755e+08   ,2.5  ,-2.4  ,0.9
336  ,1.153e+09   ,2.5  ,-2.4  ,0.7
337  ,1.161e+09   ,2.5  ,-2.4  ,0.5
338  ,1.270e+09   ,2.5  ,-2.4  ,0.3
339  ,5.488e+08   ,2.5  ,-2.2  ,0.1
340  ,5.865e+08   ,2.5  ,-2  ,0.1
341  ,4.139e+08   ,2.5  ,-1.8  ,0.1
342  ,3.911e+08   ,2.5  ,-1.6  ,0.1
343  ,2.919e+08   ,2.5  ,-1.4  ,0.1
344  ,2.558e+08   ,2.5  ,-1.2  ,0.1
345  ,2.775e+08   ,2.5  ,-1  ,0.1
346  ,1.653e+08   ,2.5  ,-0.8  ,0.1
347  ,1.843e+08   ,2.5  ,-0.6  ,0.1
348  ,1.628e+08   ,2.5  ,-0.4  ,0.1
349  ,1.984e+08   ,2.5  ,-0.2  ,0.1
350  ,2.280e+08   ,2.5  ,-1.7664E-15  ,0.1
351  ,2.626e+08   ,2.5  ,0.2  ,0.1
352  ,3.809e+08   ,2.5  ,0.4  ,0.1
353  ,5.678e+08   ,2.5  ,0.6  ,0.1
354  ,8.131e+08   ,2.5  ,0.8  ,0.1
355  ,5.114e+08   ,2.5  ,1  ,0.1
356  ,4.389e+08   ,2.5  ,1.2  ,0.1
357  ,3.771e+08   ,2.5  ,1.4  ,0.1
358  ,3.349e+08   ,2.5  ,1.6  ,0.1
359  ,2.686e+08   ,2.5  ,1.8  ,0.1
360  ,2.801e+08   ,2.5  ,2  ,0.1
361  ,2.628e+08   ,2.5  ,2.2  ,0.1
362  ,4.575e+09   ,2.5  ,2.4  ,4.436
363  ,3.196e+09   ,2.5  ,2.4  ,4.2389
364  ,2.161e+09   ,2.5  ,2.4  ,4.0418
365  ,1.752e+09   ,2.5  ,2.4  ,3.8447
366  ,1.361e+09   ,2.5  ,2.4  ,3.6476
367  ,1.293e+09   ,2.5  ,2.4  ,3.4505
368  ,1.309e+09   ,2.5  ,2.4  ,3.2535
369  ,1.202e+09   ,2.5  ,2.4  ,3.0564
370  ,1.085e+09   ,2.5  ,2.4  ,2.8593
371  ,9.770e+08   ,2.5  ,2.4  ,2.6622
372  ,1.006e+09   ,2.5  ,2.4  ,2.4651
373  ,8.778e+08   ,2.5  ,2.4  ,2.268
374  ,9.258e+08   ,2.5  ,2.4  ,2.0709
375  ,8.956e+08   ,2.5  ,2.4  ,1.8738
376  ,9.504e+08   ,2.5  ,2.4  ,1.6767
377  ,6.709e+08   ,2.5  ,2.4  ,1.4796
378  ,7.128e+08   ,2.5  ,2.4  ,1.2825
379  ,6.943e+08   ,2.5  ,2.4  ,1.0855
380  ,6.337e+08   ,2.5  ,2.4  ,0.88836
381  ,4.813e+08   ,2.5  ,2.4  ,0.69127
382  ,2.728e+08   ,2.5  ,2.4  ,0.49418
383  ,1.792e+08   ,2.5  ,2.4  ,0.29709
384  ,5.695e+09   ,2.5  ,2.2665  ,4.7665
544  ,2.649e+08   ,2.2  ,2.5  ,0.1
545  ,3.157e+08   ,2  ,2.5  ,0.1
546  ,2.858e+08   ,1.8  ,2.5  ,0.1
547  ,3.177e+08   ,1.6  ,2.5  ,0.1
548  ,2.813e+08   ,1.4  ,2.5  ,0.1
549  ,3.958e+08   ,1.2  ,2.5  ,0.1
550  ,5.160e+08   ,1  ,2.5  ,0.1
551  ,7.696e+08   ,0.8  ,2.5  ,0.1
552  ,6.935e+08   ,0.6  ,2.5  ,0.1
553  ,6.541e+08   ,0.4  ,2.5  ,0.1
554  ,6.932e+08   ,0.2  ,2.5  ,0.1
555  ,6.045e+08   ,5.8879E-16  ,2.5  ,0.1
556  ,3.613e+08   ,-0.2  ,2.5  ,0.1
557  ,4.666e+08   ,-0.4  ,2.5  ,0.1
558  ,5.835e+08   ,-0.6  ,2.5  ,0.1
559  ,7.752e+08   ,-0.8  ,2.5  ,0.1
560  ,7.824e+08   ,-1  ,2.5  ,0.1
561  ,7.934e+08   ,-1.2  ,2.5  ,0.1
562  ,7.224e+08   ,-1.4  ,2.5  ,0.1
563  ,7.122e+08   ,-1.6  ,2.5  ,0.1
564  ,7.021e+08   ,-1.8  ,2.5  ,0.1
565  ,6.343e+08   ,-2  ,2.5  ,0.1
566  ,5.662e+08   ,-2.2  ,2.5  ,0.1
567  ,2.267e+08   ,-2.4  ,2.5  ,4.7
568  ,3.070e+08   ,-2.4  ,2.5  ,4.5
569  ,2.831e+08   ,-2.4  ,2.5  ,4.3
570  ,3.261e+08   ,-2.4  ,2.5  ,4.1
571  ,2.963e+08   ,-2.4  ,2.5  ,3.9
572  ,3.367e+08   ,-2.4  ,2.5  ,3.7
573  ,4.601e+08   ,-2.4  ,2.5  ,3.5
574  ,6.658e+08   ,-2.4  ,2.5  ,3.3
575  ,5.493e+08   ,-2.4  ,2.5  ,3.1
576  ,4.825e+08   ,-2.4  ,2.5  ,2.9
577  ,4.985e+08   ,-2.4  ,2.5  ,2.7
578  ,4.449e+08   ,-2.4  ,2.5  ,2.5
579  ,4.493e+08   ,-2.4  ,2.5  ,2.3
580  ,5.286e+08   ,-2.4  ,2.5  ,2.1
581  ,5.970e+08   ,-2.4  ,2.5  ,1.9
582  ,7.635e+08   ,-2.4  ,2.5  ,1.7
583  ,7.640e+08   ,-2.4  ,2.5  ,1.5
584  ,7.991e+08   ,-2.4  ,2.5  ,1.3
585  ,7.747e+08   ,-2.4  ,2.5  ,1.1
586  ,7.860e+08   ,-2.4  ,2.5  ,0.9
587  ,7.105e+08   ,-2.4  ,2.5  ,0.7
588  ,6.633e+08   ,-2.4  ,2.5  ,0.5
589  ,5.687e+08   ,-2.4  ,2.5  ,0.3
590  ,5.181e+09   ,1.936  ,2.5  ,4.9
591  ,2.731e+09   ,1.7389  ,2.5  ,4.9
592  ,2.070e+09   ,1.5418  ,2.5  ,4.9
593  ,1.777e+09   ,1.3447  ,2.5  ,4.9
594  ,1.341e+09   ,1.1476  ,2.5  ,4.9
595  ,1.287e+09   ,0.95055  ,2.5  ,4.9
596  ,1.323e+09   ,0.75346  ,2.5  ,4.9
597  ,1.244e+09   ,0.55637  ,2.5  ,4.9
598  ,1.157e+09   ,0.35927  ,2.5  ,4.9
599  ,9.429e+08   ,0.16218  ,2.5  ,4.9
600  ,9.110e+08   ,-0.034907  ,2.5  ,4.9
601  ,7.981e+08   ,-0.232  ,2.5  ,4.9
602  ,1.022e+09   ,-0.42909  ,2.5  ,4.9
603  ,1.071e+09   ,-0.62618  ,2.5  ,4.9
604  ,9.814e+08   ,-0.82327  ,2.5  ,4.9
605  ,1.082e+09   ,-1.0204  ,2.5  ,4.9
606  ,1.035e+09   ,-1.2175  ,2.5  ,4.9
607  ,7.972e+08   ,-1.4145  ,2.5  ,4.9
608  ,6.013e+08   ,-1.6116  ,2.5  ,4.9
609  ,3.901e+08   ,-1.8087  ,2.5  ,4.9
610  ,2.173e+08   ,-2.0058  ,2.5  ,4.9
611  ,1.717e+08   ,-2.2029  ,2.5  ,4.9
612  ,6.437e+09   ,2.2665  ,2.5  ,4.7665
613  ,4.478e+09   ,2.4  ,2.5  ,4.436
614  ,2.909e+09   ,2.4  ,2.5  ,4.2389
615  ,2.146e+09   ,2.4  ,2.5  ,4.0418
616  ,1.687e+09   ,2.4  ,2.5  ,3.8447
617  ,1.400e+09   ,2.4  ,2.5  ,3.6476
618  ,1.344e+09   ,2.4  ,2.5  ,3.4505
619  ,1.320e+09   ,2.4  ,2.5  ,3.2535
620  ,1.269e+09   ,2.4  ,2.5  ,3.0564
621  ,1.042e+09   ,2.4  ,2.5  ,2.8593
622  ,9.636e+08   ,2.4  ,2.5  ,2.6622
623  ,8.726e+08   ,2.4  ,2.5  ,2.4651
624  ,8.608e+08   ,2.4  ,2.5  ,2.268
625  ,8.565e+08   ,2.4  ,2.5  ,2.0709
626  ,9.110e+08   ,2.4  ,2.5  ,1.8738
627  ,9.439e+08   ,2.4  ,2.5  ,1.6767
628  ,1.048e+09   ,2.4  ,2.5  ,1.4796
629  ,1.067e+09   ,2.4  ,2.5  ,1.2825
630  ,7.357e+08   ,2.4  ,2.5  ,1.0855
631  ,5.396e+08   ,2.4  ,2.5  ,0.88836
632  ,3.965e+08   ,2.4  ,2.5  ,0.69127
633  ,3.103e+08   ,2.4  ,2.5  ,0.49418
634  ,1.768e+08   ,2.4  ,2.5  ,0.29709
796  ,2.667e+08   ,-2.5  ,2.2  ,0.1
797  ,4.463e+08   ,-2.5  ,2  ,0.1
798  ,5.498e+08   ,-2.5  ,1.8  ,0.1
799  ,6.115e+08   ,-2.5  ,1.6  ,0.1
800  ,6.698e+08   ,-2.5  ,1.4  ,0.1
801  ,7.066e+08   ,-2.5  ,1.2  ,0.1
802  ,7.251e+08   ,-2.5  ,1  ,0.1
803  ,7.214e+08   ,-2.5  ,0.8  ,0.1
804  ,7.507e+08   ,-2.5  ,0.6  ,0.1
805  ,7.896e+08   ,-2.5  ,0.4  ,0.1
806  ,7.394e+08   ,-2.5  ,0.2  ,0.1
807  ,6.879e+08   ,-2.5  ,5.8879E-16  ,0.1
808  ,6.606e+08   ,-2.5  ,-0.2  ,0.1
809  ,6.543e+08   ,-2.5  ,-0.4  ,0.1
810  ,5.814e+08   ,-2.5  ,-0.6  ,0.1
811  ,4.600e+08   ,-2.5  ,-0.8  ,0.1
812  ,3.958e+08   ,-2.5  ,-1  ,0.1
813  ,2.844e+08   ,-2.5  ,-1.2  ,0.1
814  ,2.626e+08   ,-2.5  ,-1.4  ,0.1
815  ,1.920e+08   ,-2.5  ,-1.6  ,0.1
816  ,1.705e+08   ,-2.5  ,-1.8  ,0.1
817  ,2.543e+08   ,-2.5  ,-2  ,0.1
818  ,2.561e+08   ,-2.5  ,-2.2  ,0.1
819  ,9.276e+08   ,-2.5  ,-2.4  ,4.7
820  ,4.581e+08   ,-2.5  ,-2.4  ,4.5
821  ,6.513e+08   ,-2.5  ,-2.4  ,4.3
822  ,1.089e+09   ,-2.5  ,-2.4  ,4.1
823  ,1.244e+09   ,-2.5  ,-2.4  ,3.9
824  ,1.262e+09   ,-2.5  ,-2.4  ,3.7
825  ,1.379e+09   ,-2.5  ,-2.4  ,3.5
826  ,1.167e+09   ,-2.5  ,-2.4  ,3.3
827  ,1.036e+09   ,-2.5  ,-2.4  ,3.1
828  ,7.802e+08   ,-2.5  ,-2.4  ,2.9
829  ,6.352e+08   ,-2.5  ,-2.4  ,2.7
830  ,5.486e+08   ,-2.5  ,-2.4  ,2.5
831  ,4.096e+08   ,-2.5  ,-2.4  ,2.3
832  ,2.581e+08   ,-2.5  ,-2.4  ,2.1
833  ,1.929e+08   ,-2.5  ,-2.4  ,1.9
834  ,1.908e+08   ,-2.5  ,-2.4  ,1.7
835  ,2.182e+08   ,-2.5  ,-2.4  ,1.5
836  ,2.861e+08   ,-2.5  ,-2.4  ,1.3
837  ,3.334e+08   ,-2.5  ,-2.4  ,1.1
838  ,2.804e+08   ,-2.5  ,-2.4  ,0.9
839  ,1.150e+08   ,-2.5  ,-2.4  ,0.7
840  ,1.403e+08   ,-2.5  ,-2.4  ,0.5
841  ,5.474e+08   ,-2.5  ,-2.4  ,0.3
842  ,2.278e+08   ,-2.5  ,2.2  ,4.9
843  ,3.287e+08   ,-2.5  ,2  ,4.9
844  ,3.419e+08   ,-2.5  ,1.8  ,4.9
845  ,3.491e+08   ,-2.5  ,1.6  ,4.9
846  ,3.463e+08   ,-2.5  ,1.4  ,4.9
847  ,3.974e+08   ,-2.5  ,1.2  ,4.9
848  ,4.478e+08   ,-2.5  ,1  ,4.9
849  ,6.386e+08   ,-2.5  ,0.8  ,4.9
850  ,5.049e+08   ,-2.5  ,0.6  ,4.9
851  ,4.249e+08   ,-2.5  ,0.4  ,4.9
852  ,3.753e+08   ,-2.5  ,0.2  ,4.9
853  ,2.961e+08   ,-2.5  ,5.8879E-16  ,4.9
854  ,2.140e+08   ,-2.5  ,-0.2  ,4.9
855  ,1.661e+08   ,-2.5  ,-0.4  ,4.9
856  ,1.801e+08   ,-2.5  ,-0.6  ,4.9
857  ,1.742e+08   ,-2.5  ,-0.8  ,4.9
858  ,1.906e+08   ,-2.5  ,-1  ,4.9
859  ,1.934e+08   ,-2.5  ,-1.2  ,4.9
860  ,2.587e+08   ,-2.5  ,-1.4  ,4.9
861  ,2.514e+08   ,-2.5  ,-1.6  ,4.9
862  ,3.667e+08   ,-2.5  ,-1.8  ,4.9
863  ,5.057e+08   ,-2.5  ,-2  ,4.9
864  ,5.288e+08   ,-2.5  ,-2.2  ,4.9
865  ,2.504e+08   ,-2.5  ,2.4  ,4.7
866  ,3.429e+08   ,-2.5  ,2.4  ,4.5
867  ,3.479e+08   ,-2.5  ,2.4  ,4.3
868  ,2.663e+08   ,-2.5  ,2.4  ,4.1
869  ,3.926e+08   ,-2.5  ,2.4  ,3.9
870  ,4.169e+08   ,-2.5  ,2.4  ,3.7
871  ,4.768e+08   ,-2.5  ,2.4  ,3.5
872  ,6.233e+08   ,-2.5  ,2.4  ,3.3
873  ,5.581e+08   ,-2.5  ,2.4  ,3.1
874  ,4.508e+08   ,-2.5  ,2.4  ,2.9
875  ,4.541e+08   ,-2.5  ,2.4  ,2.7
876  ,4.463e+08   ,-2.5  ,2.4  ,2.5
877  ,4.727e+08   ,-2.5  ,2.4  ,2.3
878  ,5.340e+08   ,-2.5  ,2.4  ,2.1
879  ,5.566e+08   ,-2.5  ,2.4  ,1.9
880  ,6.040e+08   ,-2.5  ,2.4  ,1.7
881  ,6.728e+08   ,-2.5  ,2.4  ,1.5
882  ,7.355e+08   ,-2.5  ,2.4  ,1.3
883  ,6.885e+08   ,-2.5  ,2.4  ,1.1
884  ,6.899e+08   ,-2.5  ,2.4  ,0.9
885  ,6.152e+08   ,-2.5  ,2.4  ,0.7
886  ,5.804e+08   ,-2.5  ,2.4  ,0.5
887  ,4.177e+08   ,-2.5  ,2.4  ,0.3
1044  ,4.420e+08   ,-2.3  ,-2.5  ,0.44697
1045  ,1.463e+08   ,-2.3  ,-2.5  ,0.68705
1046  ,4.167e+07   ,-2.3  ,-2.5  ,0.92554
1047  ,3.413e+07   ,-2.3  ,-2.5  ,1.1682
1048  ,1.913e+08   ,-2.3  ,-2.5  ,1.4148
1049  ,3.614e+08   ,-2.3  ,-2.5  ,1.6581
1050  ,4.433e+08   ,-2.3  ,-2.5  ,1.8967
1051  ,3.741e+08   ,-2.3  ,-2.5  ,2.1357
1052  ,1.877e+08   ,-2.3  ,-2.5  ,2.3794
1053  ,4.439e+07   ,-2.3  ,-2.5  ,2.6206
1054  ,1.838e+08   ,-2.3  ,-2.5  ,2.8643
1055  ,4.399e+08   ,-2.3  ,-2.5  ,3.1033
1056  ,6.455e+08   ,-2.3  ,-2.5  ,3.342
1057  ,6.902e+08   ,-2.3  ,-2.5  ,3.5852
1058  ,7.194e+08   ,-2.3  ,-2.5  ,3.8318
1059  ,6.222e+08   ,-2.3  ,-2.5  ,4.0745
1060  ,3.569e+08   ,-2.3  ,-2.5  ,4.3129
1061  ,6.430e+08   ,-2.3  ,-2.5  ,4.553
1062  ,1.255e+09   ,-2.053  ,-2.5  ,4.8
1063  ,9.401e+08   ,-1.8129  ,-2.5  ,4.8
1064  ,6.060e+08   ,-1.5745  ,-2.5  ,4.8
1065  ,2.049e+08   ,-1.3318  ,-2.5  ,4.8
1066  ,1.778e+08   ,-1.0852  ,-2.5  ,4.8
1067  ,4.614e+08   ,-0.84195  ,-2.5  ,4.8
1068  ,4.899e+08   ,-0.60329  ,-2.5  ,4.8
1069  ,3.224e+08   ,-0.3643  ,-2.5  ,4.8
1070  ,1.580e+08   ,-0.12055  ,-2.5  ,4.8
1071  ,2.074e+08   ,0.12056  ,-2.5  ,4.8
1072  ,1.966e+08   ,0.3643  ,-2.5  ,4.8
1073  ,2.499e+08   ,0.6033  ,-2.5  ,4.8
1074  ,3.557e+08   ,0.84195  ,-2.5  ,4.8
1075  ,2.793e+08   ,1.0852  ,-2.5  ,4.8
1076  ,1.703e+08   ,1.3318  ,-2.5  ,4.8
1077  ,3.519e+08   ,1.5745  ,-2.5  ,4.8
1078  ,9.648e+08   ,1.8129  ,-2.5  ,4.8
1079  ,2.203e+09   ,2.053  ,-2.5  ,4.8
1080  ,2.305e+09   ,2.3  ,-2.5  ,4.553
1081  ,9.813e+08   ,2.3  ,-2.5  ,4.3129
1082  ,3.497e+08   ,2.3  ,-2.5  ,4.0745
1083  ,1.678e+08   ,2.3  ,-2.5  ,3.8318
1084  ,3.289e+08   ,2.3  ,-2.5  ,3.5852
1085  ,3.186e+08   ,2.3  ,-2.5  ,3.3419
1086  ,2.164e+08   ,2.3  ,-2.5  ,3.1033
1087  ,1.945e+08   ,2.3  ,-2.5  ,2.8643
1088  ,2.071e+08   ,2.3  ,-2.5  ,2.6206
1089  ,2.023e+08   ,2.3  ,-2.5  ,2.3794
1090  ,3.998e+08   ,2.3  ,-2.5  ,2.1357
1091  ,5.576e+08   ,2.3  ,-2.5  ,1.8967
1092  ,4.686e+08   ,2.3  ,-2.5  ,1.658
1093  ,2.052e+08   ,2.3  ,-2.5  ,1.4148
1094  ,1.492e+08   ,2.3  ,-2.5  ,1.1682
1095  ,5.729e+08   ,2.3  ,-2.5  ,0.92554
1096  ,1.034e+09   ,2.3  ,-2.5  ,0.68705
1097  ,1.216e+09   ,2.3  ,-2.5  ,0.44697
1098  ,3.370e+08   ,-2.053  ,-2.5  ,0.2
1099  ,1.262e+08   ,-1.8129  ,-2.5  ,0.2
1100  ,3.576e+07   ,-1.5745  ,-2.5  ,0.2
1101  ,9.147e+07   ,-1.3318  ,-2.5  ,0.2
1102  ,2.398e+08   ,-1.0852  ,-2.5  ,0.2
1103  ,4.356e+08   ,-0.84195  ,-2.5  ,0.2
1104  ,5.302e+08   ,-0.60329  ,-2.5  ,0.2
1105  ,4.300e+08   ,-0.3643  ,-2.5  ,0.2
1106  ,2.039e+08   ,-0.12055  ,-2.5  ,0.2
1107  ,7.494e+07   ,0.12056  ,-2.5  ,0.2
1108  ,3.125e+08   ,0.3643  ,-2.5  ,0.2
1109  ,5.691e+08   ,0.6033  ,-2.5  ,0.2
1110  ,6.785e+08   ,0.84195  ,-2.5  ,0.2
1111  ,7.258e+08   ,1.0852  ,-2.5  ,0.2
1112  ,7.596e+08   ,1.3318  ,-2.5  ,0.2
1113  ,6.373e+08   ,1.5745  ,-2.5  ,0.2
1114  ,3.665e+08   ,1.8129  ,-2.5  ,0.2
1115  ,6.772e+08   ,2.053  ,-2.5  ,0.2
1116  ,4.090e+08   ,-2.2  ,-2.5  ,4.9
1117  ,1.786e+08   ,-2  ,-2.5  ,4.9
1118  ,2.794e+08   ,-1.8  ,-2.5  ,4.9
1119  ,3.014e+08   ,-1.6  ,-2.5  ,4.9
1120  ,2.586e+08   ,-1.4  ,-2.5  ,4.9
1121  ,1.729e+08   ,-1.2  ,-2.5  ,4.9
1122  ,6.000e+07   ,-1  ,-2.5  ,4.9
1123  ,1.927e+08   ,-0.8  ,-2.5  ,4.9
1124  ,2.742e+08   ,-0.6  ,-2.5  ,4.9
1125  ,3.415e+08   ,-0.4  ,-2.5  ,4.9
1126  ,4.227e+08   ,-0.2  ,-2.5  ,4.9
1127  ,4.362e+08   ,-1.7664E-15  ,-2.5  ,4.9
1128  ,4.605e+08   ,0.2  ,-2.5  ,4.9
1129  ,5.667e+08   ,0.4  ,-2.5  ,4.9
1130  ,5.692e+08   ,0.6  ,-2.5  ,4.9
1131  ,6.333e+08   ,0.8  ,-2.5  ,4.9
1132  ,6.554e+08   ,1  ,-2.5  ,4.9
1133  ,7.761e+08   ,1.2  ,-2.5  ,4.9
1134  ,6.569e+08   ,1.4  ,-2.5  ,4.9
1135  ,7.340e+08   ,1.6  ,-2.5  ,4.9
1136  ,7.324e+08   ,1.8  ,-2.5  ,4.9
1137  ,6.912e+08   ,2  ,-2.5  ,4.9
1138  ,6.567e+08   ,2.2  ,-2.5  ,4.9
1139  ,4.616e+08   ,-2.4  ,-2.5  ,4.7
1140  ,6.387e+08   ,-2.4  ,-2.5  ,4.5
1141  ,5.795e+08   ,-2.4  ,-2.5  ,4.3
1142  ,4.442e+08   ,-2.4  ,-2.5  ,4.1
1143  ,3.826e+08   ,-2.4  ,-2.5  ,3.9
1144  ,4.857e+08   ,-2.4  ,-2.5  ,3.7
1145  ,3.251e+08   ,-2.4  ,-2.5  ,3.5
1146  ,4.270e+08   ,-2.4  ,-2.5  ,3.3
1147  ,3.192e+08   ,-2.4  ,-2.5  ,3.1
1148  ,3.374e+08   ,-2.4  ,-2.5  ,2.9
1149  ,3.554e+08   ,-2.4  ,-2.5  ,2.7
1150  ,3.351e+08   ,-2.4  ,-2.5  ,2.5
1151  ,3.567e+08   ,-2.4  ,-2.5  ,2.3
1152  ,3.451e+08   ,-2.4  ,-2.5  ,2.1
1153  ,3.246e+08   ,-2.4  ,-2.5  ,1.9
1154  ,3.017e+08   ,-2.4  ,-2.5  ,1.7
1155  ,2.456e+08   ,-2.4  ,-2.5  ,1.5
1156  ,2.139e+08   ,-2.4  ,-2.5  ,1.3
1157  ,1.808e+08   ,-2.4  ,-2.5  ,1.1
1158  ,1.555e+08   ,-2.4  ,-2.5  ,0.9
1159  ,1.591e+08   ,-2.4  ,-2.5  ,0.7
1160  ,2.057e+08   ,-2.4  ,-2.5  ,0.5
1161  ,2.156e+08   ,-2.4  ,-2.5  ,0.3
1162  ,2.250e+08   ,-2.2  ,-2.5  ,0.1
1163  ,2.483e+08   ,-2  ,-2.5  ,0.1
1164  ,1.579e+08   ,-1.8  ,-2.5  ,0.1
1165  ,1.558e+08   ,-1.6  ,-2.5  ,0.1
1166  ,2.151e+08   ,-1.4  ,-2.5  ,0.1
1167  ,2.591e+08   ,-1.2  ,-2.5  ,0.1
1168  ,3.015e+08   ,-1  ,-2.5  ,0.1
1169  ,3.364e+08   ,-0.8  ,-2.5  ,0.1
1170  ,3.605e+08   ,-0.6  ,-2.5  ,0.1
1171  ,3.725e+08   ,-0.4  ,-2.5  ,0.1
1172  ,3.727e+08   ,-0.2  ,-2.5  ,0.1
1173  ,3.585e+08   ,-1.7664E-15  ,-2.5  ,0.1
1174  ,3.305e+08   ,0.2  ,-2.5  ,0.1
1175  ,3.306e+08   ,0.4  ,-2.5  ,0.1
1176  ,3.539e+08   ,0.6  ,-2.5  ,0.1
1177  ,2.499e+08   ,0.8  ,-2.5  ,0.1
1178  ,3.716e+08   ,1  ,-2.5  ,0.1
1179  ,4.299e+08   ,1.2  ,-2.5  ,0.1
1180  ,4.159e+08   ,1.4  ,-2.5  ,0.1
1181  ,5.152e+08   ,1.6  ,-2.5  ,0.1
1182  ,5.665e+08   ,1.8  ,-2.5  ,0.1
1183  ,5.828e+08   ,2  ,-2.5  ,0.1
1184  ,4.906e+08   ,2.2  ,-2.5  ,0.1
1185  ,6.965e+08   ,2.4  ,-2.5  ,4.7
1186  ,7.735e+08   ,2.4  ,-2.5  ,4.5
1187  ,8.155e+08   ,2.4  ,-2.5  ,4.3
1188  ,7.395e+08   ,2.4  ,-2.5  ,4.1
1189  ,7.364e+08   ,2.4  ,-2.5  ,3.9
1190  ,7.517e+08   ,2.4  ,-2.5  ,3.7
1191  ,6.119e+08   ,2.4  ,-2.5  ,3.5
1192  ,6.607e+08   ,2.4  ,-2.5  ,3.3
1193  ,6.017e+08   ,2.4  ,-2.5  ,3.1
1194  ,5.496e+08   ,2.4  ,-2.5  ,2.9
1195  ,4.585e+08   ,2.4  ,-2.5  ,2.7
1196  ,4.479e+08   ,2.4  ,-2.5  ,2.5
1197  ,4.901e+08   ,2.4  ,-2.5  ,2.3
1198  ,4.643e+08   ,2.4  ,-2.5  ,2.1
1199  ,3.113e+08   ,2.4  ,-2.5  ,1.9
1200  ,1.681e+08   ,2.4  ,-2.5  ,1.7
1201  ,5.544e+07   ,2.4  ,-2.5  ,1.5
1202  ,1.872e+08   ,2.4  ,-2.5  ,1.3
1203  ,3.581e+08   ,2.4  ,-2.5  ,1.1
1204  ,4.963e+08   ,2.4  ,-2.5  ,0.9
1205  ,3.295e+08   ,2.4  ,-2.5  ,0.7
1206  ,2.410e+08   ,2.4  ,-2.5  ,0.5
1207  ,3.861e+08   ,2.4  ,-2.5  ,0.3
1208  ,5.032e+08   ,2.4  ,-2.2  ,0
1209  ,5.138e+08   ,2.4  ,-2  ,0
1210  ,3.821e+08   ,2.4  ,-1.8  ,0
1211  ,2.991e+08   ,2.4  ,-1.6  ,0
1212  ,3.123e+08   ,2.4  ,-1.4  ,0
1213  ,2.217e+08   ,2.4  ,-1.2  ,0
1214  ,2.146e+08   ,2.4  ,-1  ,0
1215  ,1.947e+08   ,2.4  ,-0.8  ,0
1216  ,1.423e+08   ,2.4  ,-0.6  ,0
1217  ,1.268e+08   ,2.4  ,-0.4  ,0
1218  ,1.487e+08   ,2.4  ,-0.2  ,0
1219  ,1.795e+08   ,2.4  ,-1.7664E-15  ,0
1220  ,2.383e+08   ,2.4  ,0.2  ,0
1221  ,3.249e+08   ,2.4  ,0.4  ,0
1222  ,5.162e+08   ,2.4  ,0.6  ,0
1223  ,6.467e+08   ,2.4  ,0.8  ,0
1224  ,4.514e+08   ,2.4  ,1  ,0
1225  ,3.713e+08   ,2.4  ,1.2  ,0
1226  ,3.557e+08   ,2.4  ,1.4  ,0
1227  ,3.118e+08   ,2.4  ,1.6  ,0
1228  ,4.010e+08   ,2.4  ,1.8  ,0
1229  ,3.632e+08   ,2.4  ,2  ,0
1230  ,2.387e+08   ,2.4  ,2.2  ,0
1231  ,4.961e+08   ,-2.2  ,-2.4  ,0
1232  ,1.993e+08   ,-2  ,-2.4  ,0
1233  ,1.429e+08   ,-1.8  ,-2.4  ,0
1234  ,2.949e+08   ,-1.6  ,-2.4  ,0
1235  ,3.330e+08   ,-1.4  ,-2.4  ,0
1236  ,3.073e+08   ,-1.2  ,-2.4  ,0
1237  ,2.600e+08   ,-1  ,-2.4  ,0
1238  ,1.958e+08   ,-0.8  ,-2.4  ,0
1239  ,1.778e+08   ,-0.6  ,-2.4  ,0
1240  ,2.587e+08   ,-0.4  ,-2.4  ,0
1241  ,4.144e+08   ,-0.2  ,-2.4  ,0
1242  ,5.427e+08   ,5.8879E-16  ,-2.4  ,0
1243  ,6.589e+08   ,0.2  ,-2.4  ,0
1244  ,8.406e+08   ,0.4  ,-2.4  ,0
1245  ,9.688e+08   ,0.6  ,-2.4  ,0
1246  ,1.237e+09   ,0.8  ,-2.4  ,0
1247  ,1.301e+09   ,1  ,-2.4  ,0
1248  ,1.370e+09   ,1.2  ,-2.4  ,0
1249  ,1.228e+09   ,1.4  ,-2.4  ,0
1250  ,9.990e+08   ,1.6  ,-2.4  ,0
1251  ,6.019e+08   ,1.8  ,-2.4  ,0
1252  ,4.537e+08   ,2  ,-2.4  ,0
1253  ,9.854e+08   ,2.2  ,-2.4  ,0
1254  ,2.881e+08   ,-2.4  ,2.2  ,0
1255  ,4.495e+08   ,-2.4  ,2  ,0
1256  ,5.488e+08   ,-2.4  ,1.8  ,0
1257  ,6.000e+08   ,-2.4  ,1.6  ,0
1258  ,6.891e+08   ,-2.4  ,1.4  ,0
1259  ,7.436e+08   ,-2.4  ,1.2  ,0
1260  ,7.448e+08   ,-2.4  ,1  ,0
1261  ,7.457e+08   ,-2.4  ,0.8  ,0
1262  ,7.208e+08   ,-2.4  ,0.6  ,0
1263  ,7.225e+08   ,-2.4  ,0.4  ,0
1264  ,7.316e+08   ,-2.4  ,0.2  ,0
1265  ,7.679e+08   ,-2.4  ,5.8879E-16  ,0
1266  ,7.687e+08   ,-2.4  ,-0.2  ,0
1267  ,6.586e+08   ,-2.4  ,-0.4  ,0
1268  ,5.969e+08   ,-2.4  ,-0.6  ,0
1269  ,4.439e+08   ,-2.4  ,-0.8  ,0
1270  ,3.770e+08   ,-2.4  ,-1  ,0
1271  ,2.971e+08   ,-2.4  ,-1.2  ,0
1272  ,2.279e+08   ,-2.4  ,-1.4  ,0
1273  ,2.197e+08   ,-2.4  ,-1.6  ,0
1274  ,2.000e+08   ,-2.4  ,-1.8  ,0
1275  ,2.617e+08   ,-2.4  ,-2  ,0
1276  ,2.418e+08   ,-2.4  ,-2.2  ,0
1277  ,2.140e+08   ,2.2  ,2.4  ,0
1278  ,3.044e+08   ,2  ,2.4  ,0
1279  ,3.299e+08   ,1.8  ,2.4  ,0
1280  ,2.770e+08   ,1.6  ,2.4  ,0
1281  ,2.859e+08   ,1.4  ,2.4  ,0
1282  ,4.237e+08   ,1.2  ,2.4  ,0
1283  ,5.231e+08   ,1  ,2.4  ,0
1284  ,6.325e+08   ,0.8  ,2.4  ,0
1285  ,6.067e+08   ,0.6  ,2.4  ,0
1286  ,5.077e+08   ,0.4  ,2.4  ,0
1287  ,5.343e+08   ,0.2  ,2.4  ,0
1288  ,4.647e+08   ,5.8879E-16  ,2.4  ,0
1289  ,5.280e+08   ,-0.2  ,2.4  ,0
1290  ,4.796e+08   ,-0.4  ,2.4  ,0
1291  ,5.604e+08   ,-0.6  ,2.4  ,0
1292  ,6.555e+08   ,-0.8  ,2.4  ,0
1293  ,6.824e+08   ,-1  ,2.4  ,0
1294  ,6.702e+08   ,-1.2  ,2.4  ,0
1295  ,6.429e+08   ,-1.4  ,2.4  ,0
1296  ,6.077e+08   ,-1.6  ,2.4  ,0
1297  ,5.743e+08   ,-1.8  ,2.4  ,0
1298  ,5.042e+08   ,-2  ,2.4  ,0
1299  ,4.283e+08   ,-2.2  ,2.4  ,0
1460  ,8.121e+09   ,2.3243  ,2.3243  ,4.9577
1461  ,7.755e+09   ,2.4577  ,2.3243  ,4.8243
1462  ,7.131e+09   ,2.3243  ,2.4577  ,4.8243
1463  ,5.506e+08   ,-2.3  ,-2.1759  ,4.8
1464  ,5.438e+08   ,-2.3  ,-1.7631  ,4.8
1465  ,7.738e+08   ,-2.3  ,-1.1827  ,4.8
1466  ,7.962e+08   ,-2.3  ,-0.34986  ,4.8
1467  ,1.097e+09   ,-2.3  ,0.80545  ,4.8
1468  ,9.455e+08   ,-0.81337  ,2.3  ,4.8
1469  ,1.717e+09   ,0.67326  ,2.3  ,4.8
1470  ,1.116e+09   ,2.3  ,-2.1824  ,4.8
1471  ,6.869e+08   ,2.3  ,-1.7784  ,4.8
1472  ,7.151e+08   ,2.3  ,-1.2138  ,4.8
1473  ,9.161e+08   ,2.3  ,-0.40752  ,4.8
1474  ,1.419e+09   ,2.3  ,0.70532  ,4.8
1516  ,9.811e+08   ,2.3  ,2.3  ,1.6866
1517  ,1.699e+09   ,2.3  ,2.3  ,3.1733
1518  ,5.770e+08   ,2.3  ,-2.1759  ,0.2
1519  ,5.264e+08   ,2.3  ,-1.7631  ,0.2
1520  ,7.212e+08   ,2.3  ,-1.1827  ,0.2
1521  ,7.257e+08   ,2.3  ,-0.34986  ,0.2
1522  ,1.116e+09   ,2.3  ,0.80545  ,0.2
1564  ,9.147e+08   ,-0.76667  ,2.3  ,0.2
1565  ,1.148e+09   ,0.76667  ,2.3  ,0.2
1566  ,9.220e+08   ,-2.3  ,2.3  ,1.7333
1567  ,1.149e+09   ,-2.3  ,2.3  ,3.2667
1574  ,2.059e+08   ,-2.3  ,-2.1759  ,0.2
1575  ,1.321e+08   ,-2.3  ,-1.7631  ,0.2
1576  ,8.752e+07   ,-2.3  ,-1.1827  ,0.2
1577  ,2.855e+08   ,-2.3  ,-0.34986  ,0.2
1578  ,2.186e+08   ,-2.3  ,0.80545  ,0.2
1777  ,1.064e+09   ,-0.52764  ,2.5  ,4.9
1801  ,4.954e+08   ,-2.3  ,1.5527  ,0.2
1825  ,5.204e+08   ,-1.5333  ,2.3  ,0.2
1841  ,9.305e+08   ,0.063638  ,2.5  ,4.9
1876  ,4.999e+08   ,-0.5  ,2.4  ,0
1894  ,1.027e+09   ,2.3  ,1.5527  ,0.2
1907  ,2.966e+08   ,2.1  ,2.5  ,0.1
1928  ,2.978e+08   ,1.9  ,2.4  ,0
1974  ,3.787e+08   ,2.4  ,1.1  ,0
1981  ,3.673e+08   ,2.4  ,2.5  ,0.59273
1987  ,3.546e+08   ,-2.5  ,2.4  ,4
2004  ,2.787e+08   ,-2.4  ,2.5  ,4.6
2009  ,3.391e+08   ,2.4  ,1.3  ,0
2020  ,4.279e+08   ,2.5  ,1.1  ,0.1
2035  ,4.887e+08   ,-2.3  ,-0.76628  ,0.2
2070  ,2.573e+09   ,1.6404  ,2.4  ,5
2081  ,9.004e+08   ,2.4  ,2.5  ,1.9724
2095  ,5.076e+08   ,2.4  ,2.5  ,0.78982
2138  ,7.092e+08   ,-2.4  ,-0.1  ,0
2146  ,9.667e+08   ,-0.92182  ,2.4  ,5
2174  ,8.346e+08   ,2.4  ,2.5  ,1.184
2190  ,6.490e+08   ,2.5  ,2.4  ,0.98691
2203  ,1.091e+09   ,2.5  ,-0.13345  ,4.9
2232  ,1.727e+09   ,2.3  ,0.1489  ,4.8
2242  ,1.181e+09   ,2.4  ,2.5  ,2.9578
2293  ,8.001e+08   ,-2.5  ,0.5  ,0.1
2311  ,1.732e+09   ,2.3  ,2.3  ,2.4299
2313  ,6.003e+08   ,2.5  ,2.4  ,0.78982
2329  ,8.252e+08   ,2.4  ,2.5  ,2.1695
2355  ,2.917e+08   ,-2.4  ,2.5  ,4.4
2380  ,2.172e+08   ,-2.5  ,-1.5  ,0.1
2383  ,1.175e+09   ,0.45782  ,2.5  ,4.9
2408  ,1.087e+09   ,2.3  ,-1.4961  ,4.8
2445  ,9.425e+08   ,2.5  ,-1.5131  ,4.9
2484  ,1.899e+08   ,-2.5  ,-2.4  ,1.6
2495  ,3.276e+08   ,-2.4  ,1.7  ,5
2508  ,2.746e+08   ,2.4  ,0.3  ,0
2514  ,1.137e+09   ,2.3  ,0.2278  ,0.2
2570  ,3.325e+08   ,-2.4  ,1.5  ,5
2580  ,2.424e+09   ,1.6404  ,2.5  ,4.9
2603  ,1.111e+09   ,-1.1189  ,2.5  ,4.9
2695  ,7.644e+08   ,2.3  ,2.3  ,0.94331
2705  ,1.097e+09   ,2.4  ,2.5  ,1.3811
2714  ,7.950e+08   ,2.5  ,0.45782  ,4.9
2734  ,1.978e+08   ,2.4  ,-0.9  ,0
2775  ,1.998e+08   ,2.5  ,-0.1  ,0.1
2779  ,1.583e+08   ,2.4  ,-0.1  ,0
2801  ,3.099e+09   ,1.4166  ,2.3  ,4.8
2814  ,1.918e+09   ,1.4433  ,2.5  ,4.9
2863  ,6.609e+08   ,-2.4  ,2.5  ,0.6
2884  ,7.533e+08   ,-2.4  ,2.5  ,0.8
2886  ,7.863e+08   ,-2.4  ,2.5  ,1.2
2967  ,3.206e+08   ,2.4  ,1.7  ,0
2973  ,3.503e+08   ,2.5  ,1.5  ,0.1
2987  ,3.841e+08   ,-0.3  ,2.5  ,0.1
3008  ,5.416e+08   ,-2.3  ,2.3  ,0.96667
3012  ,4.415e+08   ,-2.5  ,2.4  ,2.6
3021  ,4.279e+08   ,-2.5  ,2.4  ,2.8
3025  ,4.468e+08   ,-2.5  ,2.4  ,2.4
3030  ,4.400e+08   ,-2.4  ,2.5  ,2.4
3033  ,4.620e+08   ,-2.4  ,2.5  ,2.2
3047  ,8.585e+08   ,2.4  ,2.5  ,2.3665
3052  ,9.678e+08   ,2.5  ,2.4  ,2.5636
3061  ,9.190e+08   ,2.4  ,2.5  ,2.5636
3081  ,3.884e+08   ,-2.4  ,1.3  ,5
3088  ,2.953e+08   ,-1.9073  ,2.4  ,5
3099  ,3.373e+08   ,-2.4  ,1.9  ,5
3107  ,3.004e+08   ,-2.4  ,2.5  ,3.8
3139  ,6.132e+08   ,-1.5131  ,2.4  ,5
3145  ,6.990e+08   ,-1.5131  ,2.5  ,4.9
3148  ,5.026e+08   ,-1.7102  ,2.5  ,4.9
3168  ,6.383e+08   ,-2.4  ,1.5  ,0
3188  ,3.129e+08   ,-2.5  ,-2.4  ,1
3202  ,1.034e+09   ,0.26073  ,2.5  ,4.9
3212  ,2.319e+09   ,2.5  ,1.6404  ,4.9
3247  ,3.481e+09   ,2.5  ,1.8375  ,4.9
3265  ,2.991e+09   ,2.3  ,1.4326  ,4.8
3271  ,6.429e+09   ,2.2299  ,2.2299  ,4.8
3284  ,1.691e+09   ,2.4  ,1.4433  ,5
3291  ,1.663e+09   ,2.5  ,1.4433  ,4.9
3296  ,8.105e+08   ,-2.3  ,-0.76628  ,4.8
3303  ,2.439e+08   ,-2.4  ,-0.9  ,5
3311  ,1.808e+08   ,-2.4  ,-0.7  ,5
3315  ,2.962e+08   ,1.9  ,2.5  ,0.1
3336  ,7.164e+08   ,-2.4  ,0.3  ,0
3340  ,7.036e+08   ,-2.5  ,0.1  ,0.1
3344  ,7.361e+08   ,-2.4  ,0.1  ,0
3356  ,4.802e+08   ,-0.3  ,2.4  ,0
3361  ,8.538e+08   ,-0.33054  ,2.5  ,4.9
3364  ,8.425e+08   ,-0.13345  ,2.5  ,4.9
3383  ,1.398e+09   ,2.4  ,2.5  ,3.5491
3402  ,5.296e+09   ,2.4  ,2.5  ,4.5345
3421  ,8.992e+08   ,-1.316  ,2.5  ,4.9
3439  ,1.794e+09   ,2.5  ,2.4  ,3.9433
3447  ,1.935e+09   ,2.4  ,2.5  ,3.9433
3451  ,1.466e+09   ,2.4  ,2.5  ,3.7462
3468  ,1.838e+09   ,1.4433  ,2.4  ,5
3480  ,1.300e+09   ,1.0491  ,2.4  ,5
3519  ,3.054e+08   ,1.5  ,2.4  ,0
3527  ,7.666e+08   ,2.3  ,-1.4729  ,0.2
3550  ,5.799e+08   ,-1.7  ,2.4  ,0
3554  ,6.822e+08   ,-1.7  ,2.5  ,0.1
3558  ,6.256e+08   ,-1.5  ,2.4  ,0
3562  ,7.067e+08   ,-1.5  ,2.5  ,0.1
3574  ,2.492e+08   ,-2.4  ,2.1  ,5
3581  ,5.685e+08   ,-2.5  ,1.7  ,0.1
3583  ,5.054e+08   ,-2.5  ,1.9  ,0.1
3584  ,2.795e+08   ,-1.9073  ,2.5  ,4.9
3591  ,3.226e+08   ,2.5  ,0.3  ,0.1
3595  ,2.349e+08   ,2.5  ,0.1  ,0.1
3603  ,1.242e+10   ,2.4577  ,2.391  ,4.7576
3663  ,1.997e+08   ,-1.933  ,-2.5  ,0.2
3669  ,5.405e+08   ,-2.1765  ,-2.5  ,0.2
3672  ,3.414e+08   ,-2.3  ,-2.3379  ,0.2
3682  ,9.142e+07   ,-1.9  ,-2.4  ,0
3700  ,1.972e+08   ,2.3  ,-2.5  ,2.7424
3712  ,1.931e+08   ,-2.1  ,-2.5  ,4.9
3715  ,1.800e+08   ,-1.9  ,-2.5  ,4.9
3740  ,2.099e+08   ,-1.3  ,-2.4  ,5
3746  ,5.040e+07   ,-1.2085  ,-2.5  ,4.8
3755  ,4.936e+08   ,-1.5  ,-2.4  ,5
3760  ,2.399e+08   ,-1.7  ,-2.5  ,4.9
3786  ,9.498e+08   ,2.4  ,2.5  ,1.5782
3813  ,1.038e+09   ,0.26073  ,2.4  ,5
3858  ,2.419e+08   ,-0.9  ,-2.4  ,5
3863  ,5.320e+08   ,-2.5  ,0.9  ,4.9
3875  ,9.027e+08   ,-1.9  ,-2.4  ,5
3885  ,8.889e+08   ,2.4  ,-0.72473  ,5
3910  ,3.636e+08   ,-2.4  ,-2.5  ,3.4
3959  ,2.633e+09   ,2.5  ,2.4  ,4.1404
3969  ,1.021e+09   ,2.5  ,1.0491  ,4.9
3992  ,1.261e+10   ,2.391  ,2.2576  ,4.9577
3993  ,1.126e+10   ,2.4577  ,2.2576  ,4.891
4016  ,1.503e+08   ,-2.3015  ,2.5  ,4.9
4018  ,1.521e+08   ,-2.4  ,2.5  ,4.8
4021  ,1.570e+09   ,1.2462  ,2.4  ,5
4042  ,2.262e+08   ,2.4  ,-1.1  ,0
4046  ,6.492e+08   ,-0.9  ,2.4  ,0
4055  ,7.164e+08   ,1.7  ,-2.5  ,4.9
4087  ,3.372e+08   ,1.7  ,2.4  ,0
4114  ,8.984e+08   ,2.5  ,-0.33054  ,4.9
4120  ,2.263e+08   ,2.4  ,-2.5  ,1.8
4125  ,5.081e+08   ,2.4  ,2.5  ,0.98691
4144  ,3.704e+09   ,2.4  ,2.5  ,4.3375
4161  ,4.184e+08   ,-2.4  ,0.3  ,5
4201  ,3.695e+08   ,1.933  ,-2.5  ,0.2
4225  ,3.813e+08   ,-2.3  ,-2.4  ,0
4230  ,2.112e+08   ,-2.3  ,-2.5  ,0.56701
4269  ,1.601e+08   ,-0.9  ,-2.5  ,4.9
4277  ,1.103e+08   ,-1.1  ,-2.4  ,5
4288  ,1.443e+09   ,-0.070055  ,2.3  ,4.8
4328  ,8.349e+08   ,-2.5  ,-2.4  ,4.2
4336  ,4.755e+08   ,-2.5  ,-2.4  ,4.4
4342  ,6.268e+08   ,-2.5  ,-2.4  ,4.6
4348  ,8.989e+08   ,-2.4  ,-2.4707  ,4.9707
4352  ,3.942e+08   ,-2.3  ,-2.5  ,4.9
4354  ,1.344e+09   ,-2.1765  ,-2.5  ,4.8
4355  ,7.070e+08   ,-2.3  ,-2.3379  ,4.8
4362  ,3.238e+08   ,2.5  ,2.4  ,0.59273
4364  ,7.031e+08   ,2.5  ,-2.4  ,2.4
4366  ,4.977e+08   ,2.5  ,-2.4  ,2.2
4372  ,5.228e+08   ,2.4  ,-2.5  ,2.2
4385  ,2.183e+08   ,-2.5  ,-1.9  ,0.1
4399  ,3.419e+08   ,-2.5  ,2.1  ,0.1
4407  ,1.741e+08   ,-0.7  ,-2.4  ,0
4436  ,6.633e+08   ,-2.5  ,-0.1  ,0.1
4462  ,8.965e+08   ,-2.3  ,2.3  ,4.0333
4491  ,7.919e+08   ,2.5  ,-0.52764  ,4.9
4494  ,9.722e+07   ,2.5  ,-2.4  ,1.4
4503  ,8.601e+07   ,2.4  ,-2.5  ,1.4
4508  ,2.566e+08   ,2.4  ,-2.5  ,1.2
4515  ,2.117e+08   ,2.5  ,-2.4  ,1.8
4517  ,1.078e+08   ,2.4  ,-2.5  ,1.6
4522  ,1.066e+09   ,0.7  ,-2.4  ,0
4538  ,9.149e+08   ,-1.1189  ,2.4  ,5
4546  ,2.396e+09   ,2.4  ,2.5  ,4.1404
4559  ,7.866e+08   ,1.7  ,-2.4  ,0
4590  ,8.960e+08   ,0.5  ,-2.4  ,0
4631  ,4.485e+08   ,2.4  ,-2.5  ,2.6
4634  ,9.894e+08   ,2.5  ,-2.4  ,2.8
4657  ,2.019e+08   ,-2.5  ,-2.4  ,2
4660  ,1.918e+08   ,-2.5  ,-2.4  ,1.8
4664  ,3.072e+08   ,-0.3  ,-2.4  ,0
4675  ,5.006e+08   ,-2.4  ,-2.5  ,4.8
4681  ,6.500e+08   ,-2.5  ,-0.3  ,0.1
4684  ,4.226e+08   ,1.7  ,-2.4  ,5
4703  ,6.297e+08   ,-2.4  ,0.7  ,5
4707  ,3.951e+08   ,-2.5  ,0.3  ,4.9
4714  ,8.038e+08   ,2.4  ,-0.33054  ,5
4723  ,1.013e+09   ,-1.5567  ,2.3  ,4.8
4739  ,1.404e+08   ,-2.1044  ,2.5  ,4.9
4763  ,5.411e+08   ,-1.9  ,2.4  ,0
4780  ,1.615e+08   ,-2.3  ,-1.9695  ,0.2
4782  ,2.447e+08   ,-2.4707  ,-2.4  ,0.029289
4784  ,2.161e+08   ,-2.4  ,-1.9  ,0
4791  ,3.313e+08   ,-2.4  ,-2.5  ,1.8
4796  ,1.541e+09   ,2.4707  ,-2.4707  ,4.9
4799  ,1.812e+09   ,2.5  ,-2.4  ,4.8
4806  ,9.651e+08   ,2.3  ,-2.5  ,4.9
4809  ,3.155e+09   ,2.3  ,2.3  ,3.9166
4833  ,5.900e+08   ,-2.4  ,2.5  ,0.4
4841  ,4.565e+08   ,-2.4  ,2.5  ,2.6
4846  ,2.553e+08   ,-2.5  ,2.1  ,4.9
4848  ,1.838e+08   ,-2.5  ,2.3  ,4.9
4849  ,1.845e+08   ,-2.5  ,2.4  ,4.8
4893  ,3.050e+08   ,-2.4  ,2.5  ,4.2
4897  ,4.810e+09   ,2.3333  ,2.1998  ,5
4900  ,1.279e+10   ,2.391  ,2.4577  ,4.7576
4908  ,1.199e+10   ,2.2576  ,2.391  ,4.9577
4911  ,1.286e+10   ,2.2576  ,2.4577  ,4.891
4926  ,6.868e+08   ,-2.5  ,2.4  ,1
4932  ,7.485e+08   ,-2.4  ,2.5  ,1.6
4937  ,8.085e+08   ,-1.1  ,2.5  ,0.1
4939  ,6.365e+09   ,2.3  ,2.2299  ,4.7299
4944  ,1.182e+09   ,2.5  ,-1.9073  ,4.9
4987  ,1.011e+09   ,-2.3  ,1.5527  ,4.8
5010  ,6.775e+09   ,2.4973  ,2.1331  ,4.923
5013  ,4.674e+09   ,2.5  ,2.0345  ,4.9
5017  ,4.864e+09   ,2.4  ,2.0345  ,5
5035  ,1.260e+09   ,1.3  ,-2.4  ,0
5038  ,7.459e+08   ,1.2085  ,-2.5  ,0.2
5092  ,1.827e+08   ,-2.4  ,-2.5  ,1.2
5123  ,1.142e+09   ,2.5  ,-2.4  ,0.6
5151  ,6.028e+08   ,-2.5  ,-0.5  ,0.1
5160  ,5.062e+08   ,-2.5  ,-0.7  ,0.1
5164  ,6.294e+08   ,-2.4  ,0.9  ,5
5168  ,4.510e+08   ,-2.4  ,0.5  ,5
5176  ,1.569e+08   ,2.5  ,-0.7  ,0.1
5179  ,1.130e+08   ,2.4  ,-0.5  ,0
5189  ,4.668e+08   ,2.4  ,-2.5  ,2.4
5194  ,2.912e+08   ,2.3  ,-2.5  ,2.2576
5198  ,5.708e+08   ,-2.3  ,-2.5  ,0.32348
5205  ,2.104e+08   ,-2.4  ,-2.5  ,0.2
5207  ,2.161e+08   ,-2.1  ,-2.5  ,0.1
5246  ,5.845e+08   ,-2.5  ,2.4  ,3.2
5257  ,3.356e+08   ,-2.5  ,1.5  ,4.9
5263  ,6.198e+08   ,-2.3  ,0.2278  ,0.2
5272  ,7.231e+08   ,-2.5  ,0.3  ,0.1
5275  ,4.265e+08   ,-2.5  ,0.5  ,4.9
5281  ,3.230e+09   ,1.8375  ,2.5  ,4.9
5297  ,7.598e+08   ,-0.9  ,2.5  ,0.1
5306  ,6.069e+08   ,-0.7  ,2.4  ,0
5309  ,5.099e+08   ,-0.5  ,2.5  ,0.1
5324  ,9.721e+08   ,2.4  ,2.5  ,2.7607
5332  ,9.271e+08   ,2.5  ,-2.4  ,0.8
5334  ,4.780e+08   ,2.4  ,-2.5  ,1
5360  ,9.970e+08   ,2.4  ,-1.7102  ,5
5362  ,9.969e+08   ,2.4  ,-1.5131  ,5
5368  ,3.132e+09   ,2.4  ,1.8375  ,5
5371  ,2.178e+10   ,2.4325  ,2.4888  ,4.6656
5372  ,5.820e+09   ,2.3333  ,2.5  ,4.6998
5376  ,4.553e+09   ,2.4707  ,2.4707  ,4.6331
5377  ,5.463e+09   ,2.5  ,2.4  ,4.5345
5379  ,2.748e+08   ,-1.5  ,-2.5  ,4.9
5406  ,1.253e+09   ,-2.5  ,-2.4  ,3.4
5420  ,5.584e+08   ,-2.3  ,-2.5  ,3.2226
5423  ,1.094e+09   ,1.5  ,-2.4  ,0
5502  ,2.583e+08   ,-2.5  ,-2.3  ,0.1
5504  ,3.746e+08   ,-2.5  ,-2.4  ,0.2
5506  ,2.879e+08   ,-2.4  ,-2.3  ,0
5511  ,2.440e+08   ,-2.5  ,-2.1  ,0.1
5513  ,6.987e+08   ,-2.4  ,0.5  ,0
5517  ,3.163e+08   ,-0.9  ,-2.5  ,0.1
5532  ,7.656e+07   ,-2.4707  ,2.4707  ,4.9
5534  ,1.584e+08   ,2.4  ,-0.7  ,0
5551  ,1.342e+09   ,2.5  ,-2.4  ,3.8
5566  ,7.345e+08   ,2.5  ,2.4  ,1.3811
5603  ,1.305e+08   ,2.4  ,-0.3  ,0
5617  ,5.868e+08   ,-2.1  ,2.5  ,0.1
5637  ,4.963e+08   ,-2.3  ,-1.9695  ,4.8
5641  ,3.364e+08   ,2.3  ,-2.5  ,3.4636
5645  ,3.398e+08   ,-2.4  ,-2.5  ,2
5649  ,3.557e+08   ,-2.4  ,-2.5  ,2.2
5659  ,4.125e+08   ,-2.3  ,-2.5  ,1.7774
5662  ,2.636e+09   ,2.1765  ,-2.5  ,4.8
5666  ,9.792e+08   ,2.4  ,-2.5  ,4.8
5669  ,1.519e+09   ,2.3  ,-2.3412  ,4.8
5695  ,7.135e+08   ,-2.4  ,0.7  ,0
5701  ,6.266e+08   ,-2.5  ,2.4  ,1.6
5715  ,6.583e+08   ,-2.4  ,2.5  ,1.8
5726  ,6.557e+08   ,-0.7  ,2.5  ,0.1
5727  ,6.685e+08   ,-1.1  ,2.4  ,0
5730  ,5.445e+08   ,2.3  ,-2.5  ,1.7774
5746  ,8.911e+08   ,2.5  ,2.4  ,1.7753
5755  ,6.241e+08   ,2.5  ,-2.4  ,4.4
5763  ,7.347e+08   ,2.4  ,-2.5  ,4.4
5773  ,1.337e+09   ,1.0491  ,2.5  ,4.9
5791  ,8.877e+08   ,-0.72473  ,2.4  ,5
5795  ,3.367e+09   ,1.8375  ,2.4  ,5
5803  ,3.582e+08   ,-0.3  ,-2.4  ,5
5810  ,2.220e+09   ,2.4  ,1.6404  ,5
5836  ,3.517e+08   ,-2.5  ,1.3  ,4.9
5860  ,1.724e+08   ,2.5  ,-2.4  ,1.6
5866  ,5.014e+08   ,1.5  ,-2.5  ,0.1
5884  ,2.233e+08   ,-2.4  ,-0.3  ,5
5888  ,1.719e+08   ,-2.5  ,-0.5  ,4.9
5901  ,2.069e+08   ,2.3  ,-2.5  ,2.5
5908  ,2.350e+08   ,2.5  ,-2.4  ,1.2
5909  ,2.348e+08   ,2.5  ,-2.4  ,2
5934  ,6.276e+08   ,1.9  ,-2.5  ,4.9
5938  ,1.398e+09   ,1.933  ,-2.5  ,4.8
5948  ,5.845e+08   ,-2.4  ,-2.5  ,4.6
5950  ,7.376e+08   ,-2.4707  ,-2.4707  ,4.9
5951  ,7.843e+08   ,-2.5  ,-2.4  ,4.8
5952  ,5.509e+08   ,-2.5  ,-2.3  ,4.9
5986  ,2.418e+08   ,2.3  ,-2.5  ,3.7085
5990  ,9.304e+08   ,-0.92182  ,2.5  ,4.9
6019  ,2.773e+08   ,2.5  ,1.9  ,0.1
6025  ,2.459e+08   ,2.4  ,-1.3  ,0
6035  ,3.371e+08   ,-2.5  ,1.9  ,4.9
6044  ,7.532e+08   ,0.1  ,2.5  ,0.1
6054  ,2.056e+08   ,2.4  ,0.1  ,0
6070  ,1.867e+08   ,-2.4  ,2.3  ,0
6071  ,2.636e+08   ,-2.3  ,2.4  ,0
6076  ,3.803e+08   ,-2.4  ,2.1  ,0
6083  ,6.775e+08   ,2.1  ,-2.4  ,0
6084  ,1.706e+08   ,2.4  ,2.3  ,0
6087  ,1.523e+08   ,2.3  ,2.4  ,0
6092  ,2.583e+08   ,-2.4  ,-2.5  ,0.4
6096  ,2.047e+08   ,-2.3  ,-2.5  ,0.1
6099  ,3.050e+08   ,0.7  ,-2.5  ,0.1
6149  ,4.070e+08   ,-2.4  ,-0.9  ,0
6159  ,5.864e+08   ,-2.5  ,-2.4  ,2.6
6183  ,1.511e+09   ,1.2462  ,2.5  ,4.9
6224  ,9.992e+08   ,2.5  ,-2.4  ,4
6228  ,7.283e+08   ,2.4  ,-2.5  ,3.8
6237  ,6.846e+08   ,2.5  ,0.7  ,0.1
6241  ,5.392e+09   ,2.5  ,2.3333  ,4.6998
6245  ,7.645e+08   ,2.5  ,2.4  ,1.5782
6259  ,1.250e+09   ,2.5  ,-2.1044  ,4.9
6265  ,9.594e+08   ,2.3  ,-1.9804  ,4.8
6267  ,1.411e+09   ,2.5  ,-2.3015  ,4.9
6268  ,1.260e+09   ,2.4707  ,-2.4  ,4.9707
6270  ,1.283e+09   ,2.4  ,-2.1044  ,5
6317  ,1.018e+09   ,-2.3  ,0.2278  ,4.8
6349  ,9.429e+08   ,-0.52764  ,2.4  ,5
6391  ,9.148e+08   ,2.4  ,2.5  ,1.7753
6440  ,4.218e+08   ,-2.5  ,2.4  ,3.8
6471  ,8.775e+08   ,2.5  ,-0.92182  ,4.9
6489  ,1.299e+09   ,2.5  ,1.2462  ,4.9
6523  ,2.799e+08   ,-1.1  ,-2.4  ,0
6528  ,2.766e+08   ,-1.1  ,-2.5  ,0.1
6535  ,2.173e+08   ,-0.9  ,-2.4  ,0
6538  ,9.680e+08   ,1.5  ,-2.4  ,5
6541  ,7.505e+08   ,1.5  ,-2.5  ,4.9
6551  ,8.282e+08   ,2.5  ,-0.72473  ,4.9
6564  ,1.066e+10   ,2.1331  ,2.4973  ,4.923
6565  ,5.518e+09   ,2.0345  ,2.5  ,4.9
6572  ,3.289e+08   ,2.4  ,-1.7  ,0
6581  ,1.334e+09   ,0  ,2.3  ,0.2
6592  ,5.132e+08   ,2.3  ,-1.9695  ,0.2
6594  ,5.160e+08   ,0.3  ,2.4  ,0
6601  ,6.402e+08   ,0.5  ,2.5  ,0.1
6605  ,2.483e+08   ,-2.4  ,-1.3  ,0
6606  ,3.046e+08   ,-2.4  ,-1.1  ,0
6615  ,7.459e+08   ,-2.4  ,-0.3  ,0
6634  ,9.139e+08   ,2.1  ,-2.5  ,4.9
6635  ,1.522e+09   ,2.4  ,-2.4707  ,4.9707
6636  ,1.717e+09   ,2.3  ,-2.4  ,5
6647  ,2.725e+08   ,0.5  ,-2.5  ,0.1
6704  ,1.204e+08   ,-2.4707  ,2.4707  ,0.1
6708  ,2.481e+08   ,-2.5  ,2.4  ,0.2
6712  ,3.977e+08   ,-2.4  ,2.5  ,3.6
6715  ,5.489e+08   ,-2.4  ,2.5  ,3.4
6728  ,5.578e+08   ,-2.5  ,0.7  ,4.9
6753  ,2.218e+08   ,-2.1044  ,2.4  ,5
6788  ,3.738e+09   ,2.5  ,2.4  ,4.3375
6791  ,1.078e+09   ,-1.933  ,-2.5  ,4.8
6795  ,5.425e+09   ,2.1998  ,2.5  ,4.8333
6837  ,7.119e+07   ,-2.3  ,-2.5  ,0.8063
6869  ,1.063e+09   ,2.5  ,-1.7102  ,4.9
6873  ,1.270e+09   ,2.4  ,-1.9073  ,5
6880  ,8.964e+08   ,2.4  ,-0.92182  ,5
6885  ,8.387e+08   ,2.4  ,-0.52764  ,5
6893  ,1.208e+09   ,2.4  ,1.2462  ,5
6914  ,7.033e+08   ,0.7  ,2.5  ,0.1
6920  ,5.887e+08   ,0.9  ,2.4  ,0
6923  ,6.117e+08   ,0.7  ,2.4  ,0
6936  ,6.287e+08   ,2.4  ,-2.5  ,3.4
6939  ,2.672e+08   ,2.3  ,-2.5  ,3.2226
6961  ,4.348e+08   ,-0.1  ,-2.5  ,4.9
6967  ,2.983e+08   ,-2.5  ,-1.5  ,4.9
6975  ,4.475e+08   ,-2.4  ,1.1  ,5
6978  ,3.922e+08   ,-2.4  ,2.5  ,0.2
6987  ,9.342e+08   ,2.4  ,-1.316  ,5
6994  ,3.375e+08   ,2.4  ,-1.5  ,0
7004  ,6.793e+08   ,2.4  ,-2.5  ,3.6
7011  ,9.852e+08   ,2.4  ,0.65491  ,5
7016  ,8.521e+08   ,2.4  ,0.45782  ,5
7019  ,8.686e+08   ,2.5  ,2.4  ,2.1695
7021  ,8.933e+08   ,2.5  ,2.4  ,1.9724
7052  ,7.299e+08   ,-1.3  ,2.5  ,0.1
7054  ,1.463e+08   ,-2.4  ,-2.5  ,0.8
7057  ,3.040e+08   ,0.3  ,-2.5  ,0.1
7065  ,1.798e+08   ,0.24243  ,-2.5  ,0.2
7075  ,2.162e+10   ,2.4888  ,2.4325  ,4.6656
7113  ,3.373e+08   ,-2.4  ,-2.5  ,2.6
7121  ,3.132e+08   ,-2.4  ,-2.5  ,2.8
7126  ,7.013e+08   ,-2.5  ,-2.4  ,2.8
7128  ,3.223e+08   ,-2.4707  ,-2.4707  ,0.1
7129  ,3.194e+08   ,-2.4  ,-2.4707  ,0.029289
7141  ,7.806e+08   ,-1.7  ,-2.4  ,5
7145  ,4.679e+08   ,1.1  ,2.4  ,0
7163  ,3.889e+08   ,-1.7102  ,2.4  ,5
7172  ,1.327e+09   ,2.5  ,-2.4  ,3.2
7174  ,4.477e+08   ,-2.5  ,2.4  ,3.6
7183  ,4.141e+08   ,-1.4531  ,-2.5  ,4.8
7204  ,1.801e+09   ,2.3  ,-0.81068  ,4.8
7220  ,8.699e+08   ,2.5  ,0.063638  ,4.9
7227  ,4.832e+08   ,2.5  ,-1.9  ,0.1
7256  ,6.278e+08   ,-0.1  ,-2.4  ,5
7280  ,8.982e+08   ,-0.33054  ,2.4  ,5
7299  ,9.170e+08   ,2.5  ,-1.1189  ,4.9
7316  ,1.939e+08   ,-2.5  ,-2.4  ,0.8
7323  ,1.547e+08   ,-2.4  ,-2.5  ,1
7396  ,1.418e+09   ,1.1  ,-2.4  ,5
7400  ,7.212e+08   ,-2.5  ,0.7  ,0.1
7409  ,1.302e+09   ,1.3  ,-2.4  ,5
7420  ,2.915e+08   ,2.5  ,2.1  ,0.1
7429  ,3.698e+08   ,2.4  ,1.9  ,0
7436  ,4.009e+08   ,2.5  ,-1.7  ,0.1
7438  ,4.610e+08   ,2.4  ,-2.5  ,2.8
7445  ,1.584e+10   ,2.4325  ,2.1656  ,4.9888
7464  ,2.837e+08   ,2.5  ,-1.5  ,0.1
7480  ,9.242e+08   ,2.5  ,-2.4  ,0.2
7482  ,5.189e+08   ,1.9  ,-2.5  ,0.1
7483  ,5.345e+08   ,1.7  ,-2.5  ,0.1
7486  ,6.004e+08   ,1.9  ,-2.4  ,5
7488  ,6.826e+08   ,1.6937  ,-2.5  ,4.8
7492  ,1.738e+09   ,2.1  ,-2.4  ,5
7495  ,3.253e+08   ,0.1  ,-2.5  ,0.1
7504  ,7.066e+08   ,0.3  ,-2.4  ,0
7507  ,3.003e+08   ,0.9  ,-2.5  ,0.1
7533  ,7.103e+08   ,-2.5  ,0.9  ,0.1
7536  ,3.081e+08   ,-2.4  ,-2.5  ,3.2
7540  ,3.292e+08   ,-2.4  ,-2.5  ,3
7545  ,8.432e+08   ,-2.5  ,-2.4  ,3
7582  ,2.976e+08   ,1.3  ,2.5  ,0.1
7588  ,9.423e+08   ,2.5  ,2.4  ,2.3665
7598  ,3.409e+08   ,-2.5  ,2.4  ,4.2
7607  ,9.152e+08   ,1.5333  ,2.3  ,0.2
7627  ,3.941e+08   ,-2.5  ,1.1  ,4.9
7651  ,4.506e+08   ,2.4  ,-1.9  ,0
7656  ,2.290e+08   ,2.5  ,2.4  ,0.39564
7660  ,6.393e+09   ,2.2299  ,2.3  ,4.7299
7668  ,1.821e+08   ,1.4531  ,-2.5  ,4.8
7676  ,4.317e+08   ,0.1  ,-2.5  ,4.9
7683  ,8.868e+08   ,0.1  ,-2.4  ,5
7686  ,2.476e+08   ,-2.4  ,-1.1  ,5
7702  ,4.121e+08   ,-2.3  ,-2.5  ,4.433
7710  ,9.379e+08   ,-2.3  ,-2.5  ,4.6765
7752  ,1.439e+09   ,0.9  ,-2.4  ,5
7763  ,2.195e+08   ,0.24243  ,-2.5  ,4.8
7767  ,1.089e+09   ,-2.5  ,-2.4  ,3.2
7768  ,2.561e+08   ,-2.4  ,-2.1  ,0
7776  ,7.357e+08   ,-2.4  ,0.9  ,0
7786  ,4.143e+08   ,-0.4838  ,-2.5  ,4.8
7800  ,1.825e+09   ,2.5  ,-2.4  ,4.6
7805  ,2.219e+08   ,-2.5  ,-1.3  ,4.9
7811  ,1.970e+08   ,-2.5  ,-1.1  ,4.9
7820  ,5.492e+08   ,2.5  ,-2.1  ,0.1
7824  ,4.914e+08   ,2.4  ,-2.1  ,0
7828  ,7.749e+08   ,2.4  ,-2.5  ,4.2
7831  ,7.200e+08   ,2.4  ,-2.5  ,4
7838  ,4.742e+08   ,2.5  ,-2.4  ,4.2
7839  ,1.040e+09   ,2.5  ,2.4  ,2.7607
7840  ,1.117e+09   ,2.5  ,2.4  ,2.9578
7863  ,2.306e+08   ,-2.4  ,-1.5  ,0
7890  ,5.264e+08   ,2.4  ,0.9  ,0
7897  ,5.052e+08   ,-2.4  ,-0.7  ,0
7912  ,3.201e+08   ,-1.5  ,-2.4  ,0
7917  ,2.318e+08   ,-1.3  ,-2.5  ,0.1
7931  ,5.332e+08   ,0.5  ,2.4  ,0
7934  ,1.306e+09   ,1.1  ,-2.4  ,0
7937  ,4.993e+08   ,2.4  ,-2.5  ,0.8
7941  ,1.606e+08   ,-2.4  ,-2.5  ,0.6
7969  ,1.674e+08   ,-2.5  ,2.3  ,0.1
7971  ,4.920e+08   ,-2.4  ,1.9  ,0
7972  ,6.788e+08   ,-1.9  ,2.5  ,0.1
7978  ,7.175e+08   ,-2.4  ,1.1  ,0
7996  ,2.174e+08   ,-2.4  ,-0.5  ,5
8000  ,3.786e+07   ,-2.5  ,-2.4  ,0.6
8003  ,3.553e+08   ,-2.5  ,-2.4  ,0.4
8025  ,6.282e+08   ,0.9  ,2.5  ,0.1
8035  ,6.739e+08   ,0.3  ,2.5  ,0.1
8039  ,1.244e+09   ,2.3  ,-2.5  ,0.32348
8041  ,6.809e+08   ,2.3  ,-2.3379  ,0.2
8043  ,8.681e+08   ,2.1765  ,-2.5  ,0.2
8045  ,3.441e+08   ,-0.96359  ,-2.5  ,0.2
8054  ,3.404e+08   ,1.3  ,2.4  ,0
8058  ,4.335e+08   ,1.1  ,2.5  ,0.1
8062  ,6.993e+08   ,-2.5  ,2.4  ,1.4
8067  ,6.341e+08   ,-2.5  ,2.4  ,0.8
8087  ,6.277e+08   ,-2.5  ,1.5  ,0.1
8132  ,9.629e+08   ,-0.13345  ,2.4  ,5
8183  ,2.437e+08   ,2.5  ,-0.9  ,0.1
8184  ,5.318e+08   ,1.6937  ,-2.5  ,0.2
8214  ,5.849e+08   ,-2.4707  ,-2.4  ,4.9707
8217  ,1.104e+09   ,-2.1  ,-2.4  ,5
8219  ,6.152e+08   ,-2.4  ,-2.5  ,4.4
8227  ,1.279e+09   ,2.5  ,2.4  ,3.1549
8242  ,5.980e+08   ,0.7  ,-2.5  ,4.9
8248  ,1.515e+09   ,2.5  ,-2.4  ,3.6
8254  ,1.854e+08   ,2.5  ,-0.3  ,0.1
8256  ,1.532e+08   ,2.5  ,-0.5  ,0.1
8258  ,3.862e+08   ,-0.3  ,-2.5  ,4.9
8263  ,3.083e+08   ,-0.5  ,-2.5  ,4.9
8268  ,6.978e+08   ,-2.3  ,-2.5  ,3.7085
8277  ,3.591e+08   ,-0.1  ,-2.5  ,0.1
8285  ,6.609e+08   ,1.1  ,-2.5  ,4.9
8307  ,4.837e+08   ,0.1  ,2.4  ,0
8308  ,3.911e+08   ,-0.1  ,2.5  ,0.1
8309  ,4.680e+08   ,-0.1  ,2.4  ,0
8313  ,5.719e+08   ,2.5  ,-2.3  ,0.1
8318  ,1.174e+09   ,2.5  ,-2.4  ,3
8338  ,1.263e+09   ,2.5  ,2.4  ,3.352
8339  ,1.298e+09   ,2.4  ,2.5  ,3.1549
8344  ,5.402e+08   ,-2.5  ,2.4  ,3.4
8357  ,1.506e+10   ,2.4888  ,2.1656  ,4.9325
8358  ,4.509e+09   ,2.5  ,2.1998  ,4.8333
8383  ,2.221e+08   ,-1.7  ,-2.4  ,0
8396  ,3.649e+08   ,1.1  ,-2.5  ,0.1
8399  ,4.887e+09   ,2.4526  ,2.1331  ,4.9851
8405  ,5.799e+08   ,2.5  ,-2.4  ,1
8412  ,8.320e+08   ,2.3  ,-2.5  ,0.8063
8417  ,1.246e+08   ,-2.3  ,-2.5  ,2.5
8434  ,3.329e+08   ,0.9636  ,-2.5  ,4.8
8438  ,3.760e+08   ,-0.3  ,-2.5  ,0.1
8452  ,2.699e+08   ,-2.4  ,-0.1  ,5
8468  ,1.528e+09   ,2.5  ,2.4  ,3.7462
8471  ,2.317e+08   ,-1.3  ,-2.5  ,4.9
8493  ,9.200e+07   ,-1.1  ,-2.5  ,4.9
8509  ,1.798e+08   ,-2.5  ,-1.7  ,0.1
8517  ,5.158e+08   ,-2.4  ,2.5  ,3
8531  ,5.667e+08   ,-2.4  ,1.7  ,0
8556  ,1.406e+09   ,2.5  ,2.4  ,3.5491
8573  ,7.630e+08   ,-1.316  ,2.4  ,5
8576  ,6.880e+08   ,-2.4  ,1.3  ,0
8611  ,1.025e+08   ,2.3  ,-2.5  ,1.2915
8618  ,2.961e+08   ,-2.4  ,2.5  ,4
8646  ,7.281e+08   ,-2.5  ,1.1  ,0.1
8656  ,3.170e+08   ,2.5  ,-1.3  ,0.1
8657  ,2.897e+08   ,2.4  ,2.1  ,0
8673  ,6.242e+08   ,-1.3  ,2.4  ,0
8692  ,3.047e+08   ,0.72263  ,-2.5  ,4.8
8696  ,3.538e+08   ,2.3  ,-2.5  ,1.0469
8706  ,9.112e+08   ,2.5  ,0.65491  ,4.9
8721  ,2.757e+08   ,-2.4  ,-2.5  ,1.6
8725  ,1.298e+09   ,0.65491  ,2.4  ,5
8739  ,1.825e+10   ,2.1656  ,2.4325  ,4.9888
8741  ,5.310e+09   ,2.1998  ,2.3333  ,5
8746  ,3.261e+08   ,-2.1  ,-2.4  ,0
8748  ,3.169e+08   ,-2.5  ,-2.4  ,1.2
8752  ,8.273e+09   ,2.1331  ,2.4526  ,4.9851
8759  ,3.489e+07   ,-2.3  ,-2.5  ,1.0469
8787  ,4.630e+08   ,-0.1  ,-2.4  ,0
8793  ,2.793e+08   ,-2.3  ,-2.5  ,2.2576
8795  ,3.473e+08   ,-2.4  ,-2.5  ,2.4
8798  ,4.966e+08   ,-2.3  ,-2.5  ,4.1937
8808  ,6.936e+08   ,-2.3  ,-2.5  ,3.9531
8814  ,4.864e+08   ,-2.4  ,-1.5  ,5
8849  ,2.287e+08   ,0.4838  ,-2.5  ,4.8
8851  ,5.513e+08   ,-2.4  ,-2.5  ,4.2
8868  ,5.168e+08   ,2.4  ,-2.5  ,3
8874  ,1.368e+09   ,0.852  ,2.4  ,5
8883  ,1.591e+08   ,-0.5  ,-2.4  ,5
8886  ,4.968e+08   ,-0.72262  ,-2.5  ,4.8
8893  ,2.910e+08   ,-0.7  ,-2.5  ,4.9
8897  ,1.281e+09   ,-2.5  ,-2.4  ,3.6
8899  ,6.704e+08   ,-2.3  ,-2.5  ,3.4636
8900  ,2.241e+08   ,-2.3  ,-1.4729  ,0.2
8906  ,2.714e+08   ,-2.5  ,-1.3  ,0.1
8910  ,1.277e+09   ,0.852  ,2.5  ,4.9
8925  ,7.565e+08   ,-2.4  ,2.5  ,1.4
8941  ,1.216e+08   ,2.4707  ,2.4  ,0.029289
8942  ,1.991e+08   ,2.5  ,2.3  ,0.1
8945  ,3.727e+08   ,-2.5  ,0.1  ,4.9
8950  ,1.127e+08   ,2.4707  ,2.4707  ,0.1
8951  ,7.807e+07   ,2.4  ,2.4707  ,0.029289
8959  ,7.256e+08   ,2.4  ,0.26073  ,5
8965  ,1.109e+09   ,0.45782  ,2.4  ,5
8978  ,8.601e+08   ,2.4  ,0.852  ,5
8983  ,2.608e+08   ,2.5  ,-1.1  ,0.1
8991  ,5.650e+08   ,-2.5  ,2.4  ,0.6
9008  ,8.810e+08   ,2.5  ,0.852  ,4.9
9011  ,6.172e+08   ,-2.4  ,-0.5  ,0
9025  ,1.791e+08   ,-1.5  ,-2.5  ,0.1
9038  ,3.855e+08   ,2.4  ,-2.5  ,2
9041  ,6.592e+08   ,2.5  ,0.9  ,0.1
9050  ,4.366e+08   ,2.5  ,0.5  ,0.1
9054  ,1.206e+09   ,0.9  ,-2.4  ,0
9060  ,2.840e+08   ,2.4  ,-2.5  ,0.4
9062  ,1.158e+09   ,2.3  ,-2.5  ,0.56701
9064  ,1.173e+09   ,2.5  ,-2.4  ,0.4
9069  ,1.592e+08   ,2.4  ,-2.5  ,0.6
9071  ,7.302e+08   ,1.4531  ,-2.5  ,0.2
9082  ,8.770e+07   ,-2.3  ,-2.5  ,1.2915
9086  ,2.184e+08   ,-2.4  ,-2.5  ,1.4
9091  ,2.452e+08   ,-2.5  ,-2.4  ,1.4
9094  ,6.743e+08   ,1.3  ,-2.5  ,4.9
9097  ,3.558e+08   ,-0.7  ,-2.5  ,0.1
9137  ,1.836e+08   ,-2.5  ,-0.7  ,4.9
9143  ,2.378e+08   ,-2.5  ,-0.1  ,4.9
9146  ,4.661e+08   ,-2.1  ,2.4  ,0
9148  ,3.414e+08   ,-2.5  ,1.7  ,4.9
9173  ,5.030e+08   ,-2.5  ,2.4  ,3
9192  ,2.544e+08   ,-0.7  ,-2.4  ,5
9195  ,6.475e+08   ,0.72263  ,-2.5  ,0.2
9209  ,1.463e+09   ,2.5  ,-2.4  ,3.4
9215  ,6.937e+08   ,0.9636  ,-2.5  ,0.2
9217  ,5.981e+08   ,2.4  ,-2.5  ,3.2
9218  ,3.398e+08   ,-0.96359  ,-2.5  ,4.8
9229  ,5.381e+08   ,-2.4  ,2.5  ,2.8
9248  ,1.454e+09   ,2.3  ,-2.5  ,4.433
9255  ,3.989e+08   ,2.5  ,1.3  ,0.1
9257  ,3.070e+08   ,2.4  ,1.5  ,0
9262  ,1.152e+09   ,0.5  ,-2.4  ,5
9264  ,6.744e+08   ,2.4  ,-0.13345  ,5
9272  ,9.068e+08   ,0.063638  ,2.4  ,5
9277  ,6.958e+08   ,-2.5  ,2.4  ,1.2
9279  ,7.878e+08   ,2.5  ,0.26073  ,4.9
9282  ,2.094e+08   ,1.2085  ,-2.5  ,4.8
9286  ,6.042e+08   ,0.9  ,-2.5  ,4.9
9292  ,9.001e+07   ,-2.4  ,2.4707  ,4.9707
9293  ,8.182e+07   ,-2.3015  ,2.4  ,5
9296  ,5.210e+08   ,-2.4  ,-2.1  ,5
9303  ,5.410e+08   ,-2.4  ,-1.9  ,5
9311  ,1.750e+08   ,-2.4  ,2.3  ,5
9313  ,3.313e+08   ,-2.4  ,0.1  ,5
9319  ,1.991e+08   ,-0.5  ,-2.4  ,0
9328  ,2.891e+08   ,-2.3  ,-2.5  ,1.5364
9334  ,4.121e+08   ,-2.3  ,2.5  ,0.1
9338  ,4.614e+08   ,-2.5  ,-2.4  ,2.4
9339  ,6.681e+08   ,-2.5  ,1.3  ,0.1
9341  ,8.933e+07   ,-2.3  ,-2.5  ,2.7424
9344  ,3.260e+08   ,-2.5  ,-2.4  ,2.2
9358  ,1.816e+09   ,-2.3  ,2.3  ,2.5
9364  ,5.191e+08   ,-2.5  ,-2.1  ,4.9
9367  ,6.304e+08   ,-2.4  ,-2.3  ,5
9374  ,3.341e+08   ,-2.4  ,-1.3  ,5
9378  ,5.827e+08   ,-2.5  ,2.4  ,1.8
9384  ,4.960e+08   ,2.3  ,-2.5  ,2.0162
9385  ,3.262e+08   ,-2.5  ,2.4  ,4.4
9389  ,5.444e+08   ,-2.5  ,2.4  ,2
9395  ,1.283e+09   ,2.4  ,-2.3015  ,5
9396  ,1.967e+08   ,-2.4  ,-1.7  ,0
9407  ,7.408e+08   ,-2.3  ,-1.4729  ,4.8
9411  ,3.083e+08   ,-2.5  ,-1.7  ,4.9
9423  ,3.583e+08   ,-2.4  ,-2.5  ,3.6
9432  ,1.351e+09   ,0.7  ,-2.4  ,5
9438  ,1.771e+08   ,-2.5  ,-0.9  ,4.9
9443  ,1.873e+08   ,-2.5  ,-0.3  ,4.9
9445  ,1.039e+08   ,-2.4707  ,2.4  ,4.9707
9448  ,8.635e+08   ,2.4  ,-1.1189  ,5
9453  ,5.881e+08   ,2.4  ,0.7  ,0
9455  ,8.603e+08   ,2.5  ,-2.4  ,2.6
9457  ,2.265e+08   ,2.3  ,-2.5  ,2.9838
9494  ,7.538e+08   ,-2.4  ,2.5  ,1
9500  ,4.580e+08   ,0.3  ,-2.5  ,4.9
9504  ,1.029e+09   ,0.3  ,-2.4  ,5
9506  ,4.293e+08   ,2.1  ,-2.5  ,0.1
9518  ,1.829e+08   ,-1.9  ,-2.5  ,0.1
9528  ,5.225e+08   ,2.3  ,-2.5  ,0.1
9531  ,8.786e+08   ,2.4707  ,-2.4707  ,0.1
9533  ,5.669e+08   ,2.4707  ,-2.4  ,0.029289
9534  ,7.122e+08   ,2.4  ,-2.4707  ,0.029289
9541  ,5.612e+08   ,0.5  ,-2.5  ,4.9
9544  ,3.800e+08   ,-0.5  ,-2.5  ,0.1
9559  ,4.053e+08   ,-2.5  ,-1.9  ,4.9
9562  ,2.950e+08   ,-2.5  ,2.4  ,4.6
9565  ,5.822e+08   ,-2.4  ,2.5  ,2
9571  ,1.261e+09   ,-2.5  ,-2.4  ,3.8
9574  ,3.479e+08   ,-2.4  ,-2.5  ,3.8
9577  ,4.149e+08   ,1.3  ,-2.5  ,0.1
9582  ,4.189e+08   ,-2.5  ,-0.9  ,0.1
9596  ,2.594e+08   ,2.1  ,2.4  ,0
9598  ,5.998e+08   ,-2.4  ,2.5  ,3.2
9602  ,2.839e+08   ,1.5  ,2.5  ,0.1
9610  ,2.162e+08   ,2.4  ,2.5  ,0.39564
9612  ,9.901e+08   ,-0.72473  ,2.5  ,4.9
9614  ,2.750e+08   ,1.7  ,2.5  ,0.1
9635  ,3.329e+08   ,2.5  ,1.7  ,0.1
9646  ,1.654e+08   ,2.3  ,2.5  ,0.1
9651  ,1.721e+10   ,2.1656  ,2.4888  ,4.9325
9653  ,9.051e+08   ,2.5  ,-1.316  ,4.9
9656  ,4.126e+08   ,-2.4  ,-1.7  ,5
9659  ,2.733e+09   ,2.3  ,-2.5  ,4.6765
9661  ,1.684e+08   ,2.3  ,-2.5  ,3.9531
9664  ,8.919e+08   ,-2.3  ,-2.4  ,5
9666  ,4.580e+08   ,1.9  ,-2.4  ,0
9677  ,4.407e+08   ,2.4  ,0.5  ,0
9678  ,3.354e+08   ,-2.5  ,-1.1  ,0.1
9680  ,7.118e+08   ,2.5  ,2.4  ,1.184
9681  ,1.412e+08   ,2.5  ,2.4  ,0.19855
9696  ,4.292e+08   ,-2.3  ,-2.5  ,2.0162
9698  ,5.786e+08   ,2.4  ,-2.3  ,0
9699  ,3.267e+08   ,-0.24243  ,-2.5  ,0.2
9701  ,5.730e+08   ,0.1  ,-2.4  ,0
9704  ,5.012e+08   ,-0.4838  ,-2.5  ,0.2
9718  ,5.036e+08   ,-0.72262  ,-2.5  ,0.2
9726  ,8.303e+08   ,2.3  ,-0.76628  ,0.2
9727  ,5.116e+08   ,-2.5  ,2.4  ,0.4
9730  ,1.838e+08   ,1.9433E-06  ,-2.5  ,4.8
9731  ,2.222e+08   ,-0.24243  ,-2.5  ,4.8
9732  ,4.832e+08   ,-2.5  ,2.4  ,2.2
9738  ,1.126e+09   ,-2.5  ,-2.4  ,4
9743  ,7.968e+08   ,-1.6937  ,-2.5  ,4.8
9744  ,3.844e+08   ,-2.4  ,-2.5  ,4
9750  ,1.417e+08   ,-1.7  ,-2.5  ,0.1
9752  ,2.015e+07   ,-1.6937  ,-2.5  ,0.2
9754  ,3.253e+08   ,-1.3  ,-2.4  ,0
9759  ,8.323e+07   ,-2.4707  ,2.4  ,0.029289
9760  ,1.014e+08   ,-2.4  ,2.4707  ,0.029289
9768  ,6.860e+08   ,2.3  ,-2.5  ,4.1937
9770  ,1.219e+08   ,1.9433E-06  ,-2.5  ,0.2
9771  ,4.739e+08   ,0.4838  ,-2.5  ,0.2
9772  ,4.814e+08   ,2.4  ,-2.5  ,0.2
9773  ,9.849e+08   ,2.4  ,-2.5  ,4.6
9776  ,6.984e+08   ,2.4  ,0.063638  ,5
9780  ,1.300e+09   ,0.65491  ,2.5  ,4.9
9781  ,1.403e+08   ,2.4  ,2.5  ,0.19855
9782  ,3.169e+08   ,-2.3  ,-2.5  ,2.9838
9786  ,1.577e+08   ,-1.2085  ,-2.5  ,0.2
9787  ,4.908e+07   ,-1.4531  ,-2.5  ,0.2
9790  ,7.201e+08   ,2.3  ,-2.4  ,0
9793  ,5.507e+09   ,2.0345  ,2.4  ,5
9797  ,3.425e+08   ,2.3  ,-2.5  ,1.5364
9798  ,9.155e+08   ,2.4  ,1.0491  ,5
9809  ,1.256e+09   ,2.4  ,2.5  ,3.352
