Date:  11:22, Monday, July 10, 2023
Model name: Hollow_DropBox
Study name: Drop Test_hollow_draft1(-Default-)
Plot type:  Stress1
Plot step: 14   time : 73.4672 Microseconds
Result Type: von Mises 


Node  ,Value (N/m^2)  ,X (in)  ,Y (in)  ,Z (in)
1  ,6.381e+09   ,2.5  ,2.1331  ,4.9
2  ,2.237e+10   ,2.4577  ,2.1908  ,4.9577
3  ,1.340e+10   ,2.4894  ,2.1331  ,4.9447
4  ,6.773e+09   ,2.1331  ,2.5  ,4.9
5  ,1.454e+10   ,2.1331  ,2.4894  ,4.9447
6  ,2.073e+10   ,2.1908  ,2.4577  ,4.9577
7  ,1.171e+08   ,-2.4  ,2.4  ,5
8  ,5.237e+08   ,-2.4  ,-2.4  ,5
9  ,8.262e+08   ,2.4  ,-2.4  ,5
10  ,5.824e+09   ,2.4  ,2.1331  ,5
11  ,6.175e+09   ,2.1331  ,2.4  ,5
12  ,8.876e+08   ,2.5  ,-2.4  ,4.9
13  ,4.846e+08   ,2.5  ,-2.4  ,0.1
14  ,1.071e+08   ,2.5  ,2.4  ,0.1
15  ,6.746e+09   ,2.5  ,2.4  ,4.6331
16  ,1.096e+08   ,2.4  ,2.5  ,0.1
17  ,4.530e+07   ,-2.4  ,2.5  ,0.1
18  ,9.599e+07   ,-2.4  ,2.5  ,4.9
19  ,6.742e+09   ,2.4  ,2.5  ,4.6331
20  ,6.514e+07   ,-2.5  ,2.4  ,0.1
21  ,2.283e+08   ,-2.5  ,-2.4  ,0.1
22  ,3.377e+08   ,-2.5  ,-2.4  ,4.9
23  ,1.505e+08   ,-2.5  ,2.4  ,4.9
24  ,1.983e+08   ,-2.3  ,-2.5  ,0.2
25  ,5.802e+08   ,-2.3  ,-2.5  ,4.8
26  ,7.892e+08   ,2.3  ,-2.5  ,4.8
27  ,5.622e+08   ,2.3  ,-2.5  ,0.2
28  ,5.224e+08   ,-2.4  ,-2.5  ,4.9
29  ,9.690e+08   ,2.4  ,-2.5  ,4.9
30  ,2.475e+08   ,-2.4  ,-2.5  ,0.1
31  ,5.213e+08   ,2.4  ,-2.5  ,0.1
32  ,3.770e+08   ,2.4  ,-2.4  ,0
33  ,1.495e+08   ,2.4  ,2.4  ,0
34  ,2.540e+08   ,-2.4  ,-2.4  ,0
35  ,5.395e+07   ,-2.4  ,2.4  ,0
36  ,2.512e+10   ,2.4577  ,2.4577  ,4.6908
37  ,3.891e+08   ,-2.3  ,2.3  ,4.8
38  ,7.342e+09   ,2.1599  ,2.3  ,4.8
39  ,7.152e+09   ,2.3  ,2.1599  ,4.8
40  ,7.148e+09   ,2.3  ,2.3  ,4.6599
41  ,3.605e+08   ,2.3  ,2.3  ,0.2
42  ,2.581e+08   ,-2.3  ,2.3  ,0.2
43  ,1.974e+08   ,-2.4  ,2.2  ,5
44  ,2.508e+08   ,-2.4  ,2  ,5
45  ,2.408e+08   ,-2.4  ,1.8  ,5
46  ,2.446e+08   ,-2.4  ,1.6  ,5
47  ,2.466e+08   ,-2.4  ,1.4  ,5
48  ,3.153e+08   ,-2.4  ,1.2  ,5
49  ,3.464e+08   ,-2.4  ,1  ,5
50  ,4.545e+08   ,-2.4  ,0.8  ,5
51  ,4.041e+08   ,-2.4  ,0.6  ,5
52  ,3.522e+08   ,-2.4  ,0.4  ,5
53  ,3.352e+08   ,-2.4  ,0.2  ,5
54  ,2.870e+08   ,-2.4  ,5.8879E-16  ,5
55  ,2.998e+08   ,-2.4  ,-0.2  ,5
56  ,3.936e+08   ,-2.4  ,-0.4  ,5
57  ,4.352e+08   ,-2.4  ,-0.6  ,5
58  ,4.010e+08   ,-2.4  ,-0.8  ,5
59  ,4.058e+08   ,-2.4  ,-1  ,5
60  ,3.711e+08   ,-2.4  ,-1.2  ,5
61  ,4.942e+08   ,-2.4  ,-1.4  ,5
62  ,4.099e+08   ,-2.4  ,-1.6  ,5
63  ,3.599e+08   ,-2.4  ,-1.8  ,5
64  ,4.688e+08   ,-2.4  ,-2  ,5
65  ,4.660e+08   ,-2.4  ,-2.2  ,5
66  ,8.337e+08   ,-2.2  ,-2.4  ,5
67  ,9.745e+08   ,-2  ,-2.4  ,5
68  ,9.530e+08   ,-1.8  ,-2.4  ,5
69  ,8.184e+08   ,-1.6  ,-2.4  ,5
70  ,6.524e+08   ,-1.4  ,-2.4  ,5
71  ,5.834e+08   ,-1.2  ,-2.4  ,5
72  ,5.317e+08   ,-1  ,-2.4  ,5
73  ,5.303e+08   ,-0.8  ,-2.4  ,5
74  ,4.242e+08   ,-0.6  ,-2.4  ,5
75  ,2.928e+08   ,-0.4  ,-2.4  ,5
76  ,5.890e+07   ,-0.2  ,-2.4  ,5
77  ,1.311e+08   ,-5.8879E-16  ,-2.4  ,5
78  ,3.087e+08   ,0.2  ,-2.4  ,5
79  ,5.423e+08   ,0.4  ,-2.4  ,5
80  ,9.108e+08   ,0.6  ,-2.4  ,5
81  ,1.185e+09   ,0.8  ,-2.4  ,5
82  ,1.340e+09   ,1  ,-2.4  ,5
83  ,1.244e+09   ,1.2  ,-2.4  ,5
84  ,1.047e+09   ,1.4  ,-2.4  ,5
85  ,5.388e+08   ,1.6  ,-2.4  ,5
86  ,2.750e+08   ,1.8  ,-2.4  ,5
87  ,5.363e+08   ,2  ,-2.4  ,5
88  ,1.415e+09   ,2.2  ,-2.4  ,5
89  ,7.289e+08   ,2.4  ,-2.2029  ,5
90  ,8.268e+08   ,2.4  ,-2.0058  ,5
91  ,6.638e+08   ,2.4  ,-1.8087  ,5
92  ,6.333e+08   ,2.4  ,-1.6116  ,5
93  ,7.076e+08   ,2.4  ,-1.4145  ,5
94  ,6.063e+08   ,2.4  ,-1.2175  ,5
95  ,6.522e+08   ,2.4  ,-1.0204  ,5
96  ,7.173e+08   ,2.4  ,-0.82327  ,5
97  ,6.693e+08   ,2.4  ,-0.62618  ,5
98  ,6.078e+08   ,2.4  ,-0.42909  ,5
99  ,6.118e+08   ,2.4  ,-0.232  ,5
100  ,6.275e+08   ,2.4  ,-0.034907  ,5
101  ,6.445e+08   ,2.4  ,0.16218  ,5
102  ,7.388e+08   ,2.4  ,0.35927  ,5
103  ,9.832e+08   ,2.4  ,0.55637  ,5
104  ,1.005e+09   ,2.4  ,0.75346  ,5
105  ,8.492e+08   ,2.4  ,0.95055  ,5
106  ,8.908e+08   ,2.4  ,1.1476  ,5
107  ,1.490e+09   ,2.4  ,1.3447  ,5
108  ,1.991e+09   ,2.4  ,1.5418  ,5
109  ,2.758e+09   ,2.4  ,1.7389  ,5
110  ,4.695e+09   ,2.4  ,1.936  ,5
111  ,6.292e+09   ,2.2665  ,2.2665  ,5
112  ,4.977e+09   ,1.936  ,2.4  ,5
113  ,2.998e+09   ,1.7389  ,2.4  ,5
114  ,2.387e+09   ,1.5418  ,2.4  ,5
115  ,1.738e+09   ,1.3447  ,2.4  ,5
116  ,1.403e+09   ,1.1476  ,2.4  ,5
117  ,1.327e+09   ,0.95055  ,2.4  ,5
118  ,1.322e+09   ,0.75346  ,2.4  ,5
119  ,1.305e+09   ,0.55637  ,2.4  ,5
120  ,1.057e+09   ,0.35927  ,2.4  ,5
121  ,9.984e+08   ,0.16218  ,2.4  ,5
122  ,9.558e+08   ,-0.034907  ,2.4  ,5
123  ,1.019e+09   ,-0.232  ,2.4  ,5
124  ,8.957e+08   ,-0.42909  ,2.4  ,5
125  ,8.688e+08   ,-0.62618  ,2.4  ,5
126  ,1.023e+09   ,-0.82327  ,2.4  ,5
127  ,8.945e+08   ,-1.0204  ,2.4  ,5
128  ,7.928e+08   ,-1.2175  ,2.4  ,5
129  ,6.410e+08   ,-1.4145  ,2.4  ,5
130  ,4.439e+08   ,-1.6116  ,2.4  ,5
131  ,2.913e+08   ,-1.8087  ,2.4  ,5
132  ,1.882e+08   ,-2.0058  ,2.4  ,5
133  ,8.909e+07   ,-2.2029  ,2.4  ,5
294  ,6.153e+08   ,2.5  ,-2.2029  ,4.9
295  ,8.007e+08   ,2.5  ,-2.0058  ,4.9
296  ,6.439e+08   ,2.5  ,-1.8087  ,4.9
297  ,6.845e+08   ,2.5  ,-1.6116  ,4.9
298  ,5.920e+08   ,2.5  ,-1.4145  ,4.9
299  ,5.968e+08   ,2.5  ,-1.2175  ,4.9
300  ,6.966e+08   ,2.5  ,-1.0204  ,4.9
301  ,5.832e+08   ,2.5  ,-0.82327  ,4.9
302  ,6.367e+08   ,2.5  ,-0.62618  ,4.9
303  ,6.179e+08   ,2.5  ,-0.42909  ,4.9
304  ,7.091e+08   ,2.5  ,-0.232  ,4.9
305  ,8.200e+08   ,2.5  ,-0.034907  ,4.9
306  ,8.082e+08   ,2.5  ,0.16218  ,4.9
307  ,7.253e+08   ,2.5  ,0.35927  ,4.9
308  ,8.867e+08   ,2.5  ,0.55637  ,4.9
309  ,9.384e+08   ,2.5  ,0.75346  ,4.9
310  ,9.424e+08   ,2.5  ,0.95055  ,4.9
311  ,1.161e+09   ,2.5  ,1.1476  ,4.9
312  ,1.491e+09   ,2.5  ,1.3447  ,4.9
313  ,2.031e+09   ,2.5  ,1.5418  ,4.9
314  ,3.247e+09   ,2.5  ,1.7389  ,4.9
315  ,5.076e+09   ,2.5  ,1.936  ,4.9
316  ,1.380e+09   ,2.5  ,-2.4  ,4.7
317  ,4.944e+08   ,2.5  ,-2.4  ,4.5
318  ,3.064e+08   ,2.5  ,-2.4  ,4.3
319  ,5.774e+08   ,2.5  ,-2.4  ,4.1
320  ,1.009e+09   ,2.5  ,-2.4  ,3.9
321  ,1.304e+09   ,2.5  ,-2.4  ,3.7
322  ,1.362e+09   ,2.5  ,-2.4  ,3.5
323  ,1.190e+09   ,2.5  ,-2.4  ,3.3
324  ,8.684e+08   ,2.5  ,-2.4  ,3.1
325  ,5.202e+08   ,2.5  ,-2.4  ,2.9
326  ,3.118e+08   ,2.5  ,-2.4  ,2.7
327  ,1.414e+08   ,2.5  ,-2.4  ,2.5
328  ,8.301e+07   ,2.5  ,-2.4  ,2.3
329  ,2.671e+08   ,2.5  ,-2.4  ,2.1
330  ,3.828e+08   ,2.5  ,-2.4  ,1.9
331  ,4.697e+08   ,2.5  ,-2.4  ,1.7
332  ,4.945e+08   ,2.5  ,-2.4  ,1.5
333  ,5.655e+08   ,2.5  ,-2.4  ,1.3
334  ,6.363e+08   ,2.5  ,-2.4  ,1.1
335  ,8.101e+08   ,2.5  ,-2.4  ,0.9
336  ,8.746e+08   ,2.5  ,-2.4  ,0.7
337  ,7.762e+08   ,2.5  ,-2.4  ,0.5
338  ,7.462e+08   ,2.5  ,-2.4  ,0.3
339  ,4.365e+08   ,2.5  ,-2.2  ,0.1
340  ,4.449e+08   ,2.5  ,-2  ,0.1
341  ,3.534e+08   ,2.5  ,-1.8  ,0.1
342  ,3.662e+08   ,2.5  ,-1.6  ,0.1
343  ,3.277e+08   ,2.5  ,-1.4  ,0.1
344  ,3.803e+08   ,2.5  ,-1.2  ,0.1
345  ,4.255e+08   ,2.5  ,-1  ,0.1
346  ,4.209e+08   ,2.5  ,-0.8  ,0.1
347  ,4.307e+08   ,2.5  ,-0.6  ,0.1
348  ,3.284e+08   ,2.5  ,-0.4  ,0.1
349  ,2.941e+08   ,2.5  ,-0.2  ,0.1
350  ,2.960e+08   ,2.5  ,-1.7664E-15  ,0.1
351  ,3.045e+08   ,2.5  ,0.2  ,0.1
352  ,3.682e+08   ,2.5  ,0.4  ,0.1
353  ,4.180e+08   ,2.5  ,0.6  ,0.1
354  ,5.370e+08   ,2.5  ,0.8  ,0.1
355  ,3.539e+08   ,2.5  ,1  ,0.1
356  ,3.180e+08   ,2.5  ,1.2  ,0.1
357  ,2.863e+08   ,2.5  ,1.4  ,0.1
358  ,2.631e+08   ,2.5  ,1.6  ,0.1
359  ,1.862e+08   ,2.5  ,1.8  ,0.1
360  ,1.812e+08   ,2.5  ,2  ,0.1
361  ,1.996e+08   ,2.5  ,2.2  ,0.1
362  ,4.883e+09   ,2.5  ,2.4  ,4.436
363  ,3.290e+09   ,2.5  ,2.4  ,4.2389
364  ,2.197e+09   ,2.5  ,2.4  ,4.0418
365  ,1.760e+09   ,2.5  ,2.4  ,3.8447
366  ,1.346e+09   ,2.5  ,2.4  ,3.6476
367  ,1.256e+09   ,2.5  ,2.4  ,3.4505
368  ,1.359e+09   ,2.5  ,2.4  ,3.2535
369  ,1.266e+09   ,2.5  ,2.4  ,3.0564
370  ,1.100e+09   ,2.5  ,2.4  ,2.8593
371  ,1.077e+09   ,2.5  ,2.4  ,2.6622
372  ,1.115e+09   ,2.5  ,2.4  ,2.4651
373  ,9.583e+08   ,2.5  ,2.4  ,2.268
374  ,9.816e+08   ,2.5  ,2.4  ,2.0709
375  ,9.610e+08   ,2.5  ,2.4  ,1.8738
376  ,1.013e+09   ,2.5  ,2.4  ,1.6767
377  ,6.571e+08   ,2.5  ,2.4  ,1.4796
378  ,6.478e+08   ,2.5  ,2.4  ,1.2825
379  ,5.607e+08   ,2.5  ,2.4  ,1.0855
380  ,5.188e+08   ,2.5  ,2.4  ,0.88836
381  ,4.156e+08   ,2.5  ,2.4  ,0.69127
382  ,2.174e+08   ,2.5  ,2.4  ,0.49418
383  ,1.054e+08   ,2.5  ,2.4  ,0.29709
384  ,6.410e+09   ,2.5  ,2.2665  ,4.7665
544  ,2.042e+08   ,2.2  ,2.5  ,0.1
545  ,2.462e+08   ,2  ,2.5  ,0.1
546  ,2.449e+08   ,1.8  ,2.5  ,0.1
547  ,2.780e+08   ,1.6  ,2.5  ,0.1
548  ,2.680e+08   ,1.4  ,2.5  ,0.1
549  ,3.205e+08   ,1.2  ,2.5  ,0.1
550  ,4.171e+08   ,1  ,2.5  ,0.1
551  ,5.956e+08   ,0.8  ,2.5  ,0.1
552  ,6.982e+08   ,0.6  ,2.5  ,0.1
553  ,7.507e+08   ,0.4  ,2.5  ,0.1
554  ,8.012e+08   ,0.2  ,2.5  ,0.1
555  ,6.807e+08   ,5.8879E-16  ,2.5  ,0.1
556  ,4.518e+08   ,-0.2  ,2.5  ,0.1
557  ,5.478e+08   ,-0.4  ,2.5  ,0.1
558  ,5.897e+08   ,-0.6  ,2.5  ,0.1
559  ,6.319e+08   ,-0.8  ,2.5  ,0.1
560  ,6.033e+08   ,-1  ,2.5  ,0.1
561  ,5.856e+08   ,-1.2  ,2.5  ,0.1
562  ,5.445e+08   ,-1.4  ,2.5  ,0.1
563  ,5.027e+08   ,-1.6  ,2.5  ,0.1
564  ,4.383e+08   ,-1.8  ,2.5  ,0.1
565  ,3.294e+08   ,-2  ,2.5  ,0.1
566  ,2.162e+08   ,-2.2  ,2.5  ,0.1
567  ,1.928e+08   ,-2.4  ,2.5  ,4.7
568  ,2.256e+08   ,-2.4  ,2.5  ,4.5
569  ,2.300e+08   ,-2.4  ,2.5  ,4.3
570  ,2.579e+08   ,-2.4  ,2.5  ,4.1
571  ,2.546e+08   ,-2.4  ,2.5  ,3.9
572  ,2.914e+08   ,-2.4  ,2.5  ,3.7
573  ,3.850e+08   ,-2.4  ,2.5  ,3.5
574  ,6.480e+08   ,-2.4  ,2.5  ,3.3
575  ,6.262e+08   ,-2.4  ,2.5  ,3.1
576  ,5.930e+08   ,-2.4  ,2.5  ,2.9
577  ,5.760e+08   ,-2.4  ,2.5  ,2.7
578  ,5.939e+08   ,-2.4  ,2.5  ,2.5
579  ,5.792e+08   ,-2.4  ,2.5  ,2.3
580  ,6.239e+08   ,-2.4  ,2.5  ,2.1
581  ,6.637e+08   ,-2.4  ,2.5  ,1.9
582  ,7.081e+08   ,-2.4  ,2.5  ,1.7
583  ,6.309e+08   ,-2.4  ,2.5  ,1.5
584  ,5.762e+08   ,-2.4  ,2.5  ,1.3
585  ,5.114e+08   ,-2.4  ,2.5  ,1.1
586  ,4.673e+08   ,-2.4  ,2.5  ,0.9
587  ,3.922e+08   ,-2.4  ,2.5  ,0.7
588  ,3.119e+08   ,-2.4  ,2.5  ,0.5
589  ,2.029e+08   ,-2.4  ,2.5  ,0.3
590  ,5.414e+09   ,1.936  ,2.5  ,4.9
591  ,2.856e+09   ,1.7389  ,2.5  ,4.9
592  ,2.177e+09   ,1.5418  ,2.5  ,4.9
593  ,1.764e+09   ,1.3447  ,2.5  ,4.9
594  ,1.380e+09   ,1.1476  ,2.5  ,4.9
595  ,1.346e+09   ,0.95055  ,2.5  ,4.9
596  ,1.392e+09   ,0.75346  ,2.5  ,4.9
597  ,1.254e+09   ,0.55637  ,2.5  ,4.9
598  ,1.147e+09   ,0.35927  ,2.5  ,4.9
599  ,9.891e+08   ,0.16218  ,2.5  ,4.9
600  ,9.414e+08   ,-0.034907  ,2.5  ,4.9
601  ,8.820e+08   ,-0.232  ,2.5  ,4.9
602  ,1.012e+09   ,-0.42909  ,2.5  ,4.9
603  ,1.093e+09   ,-0.62618  ,2.5  ,4.9
604  ,1.021e+09   ,-0.82327  ,2.5  ,4.9
605  ,9.695e+08   ,-1.0204  ,2.5  ,4.9
606  ,8.611e+08   ,-1.2175  ,2.5  ,4.9
607  ,6.741e+08   ,-1.4145  ,2.5  ,4.9
608  ,4.949e+08   ,-1.6116  ,2.5  ,4.9
609  ,3.433e+08   ,-1.8087  ,2.5  ,4.9
610  ,2.200e+08   ,-2.0058  ,2.5  ,4.9
611  ,1.236e+08   ,-2.2029  ,2.5  ,4.9
612  ,6.767e+09   ,2.2665  ,2.5  ,4.7665
613  ,4.708e+09   ,2.4  ,2.5  ,4.436
614  ,2.990e+09   ,2.4  ,2.5  ,4.2389
615  ,2.192e+09   ,2.4  ,2.5  ,4.0418
616  ,1.693e+09   ,2.4  ,2.5  ,3.8447
617  ,1.404e+09   ,2.4  ,2.5  ,3.6476
618  ,1.300e+09   ,2.4  ,2.5  ,3.4505
619  ,1.350e+09   ,2.4  ,2.5  ,3.2535
620  ,1.333e+09   ,2.4  ,2.5  ,3.0564
621  ,1.070e+09   ,2.4  ,2.5  ,2.8593
622  ,1.067e+09   ,2.4  ,2.5  ,2.6622
623  ,9.410e+08   ,2.4  ,2.5  ,2.4651
624  ,9.169e+08   ,2.4  ,2.5  ,2.268
625  ,9.119e+08   ,2.4  ,2.5  ,2.0709
626  ,9.594e+08   ,2.4  ,2.5  ,1.8738
627  ,9.917e+08   ,2.4  ,2.5  ,1.6767
628  ,9.361e+08   ,2.4  ,2.5  ,1.4796
629  ,8.393e+08   ,2.4  ,2.5  ,1.2825
630  ,5.918e+08   ,2.4  ,2.5  ,1.0855
631  ,4.609e+08   ,2.4  ,2.5  ,0.88836
632  ,3.224e+08   ,2.4  ,2.5  ,0.69127
633  ,2.430e+08   ,2.4  ,2.5  ,0.49418
634  ,9.761e+07   ,2.4  ,2.5  ,0.29709
796  ,1.821e+08   ,-2.5  ,2.2  ,0.1
797  ,3.347e+08   ,-2.5  ,2  ,0.1
798  ,4.103e+08   ,-2.5  ,1.8  ,0.1
799  ,4.954e+08   ,-2.5  ,1.6  ,0.1
800  ,5.495e+08   ,-2.5  ,1.4  ,0.1
801  ,5.926e+08   ,-2.5  ,1.2  ,0.1
802  ,6.454e+08   ,-2.5  ,1  ,0.1
803  ,6.744e+08   ,-2.5  ,0.8  ,0.1
804  ,6.770e+08   ,-2.5  ,0.6  ,0.1
805  ,6.770e+08   ,-2.5  ,0.4  ,0.1
806  ,6.462e+08   ,-2.5  ,0.2  ,0.1
807  ,6.465e+08   ,-2.5  ,5.8879E-16  ,0.1
808  ,6.139e+08   ,-2.5  ,-0.2  ,0.1
809  ,5.254e+08   ,-2.5  ,-0.4  ,0.1
810  ,3.977e+08   ,-2.5  ,-0.6  ,0.1
811  ,3.301e+08   ,-2.5  ,-0.8  ,0.1
812  ,3.520e+08   ,-2.5  ,-1  ,0.1
813  ,4.710e+08   ,-2.5  ,-1.2  ,0.1
814  ,4.207e+08   ,-2.5  ,-1.4  ,0.1
815  ,3.761e+08   ,-2.5  ,-1.6  ,0.1
816  ,2.796e+08   ,-2.5  ,-1.8  ,0.1
817  ,2.246e+08   ,-2.5  ,-2  ,0.1
818  ,1.951e+08   ,-2.5  ,-2.2  ,0.1
819  ,3.397e+08   ,-2.5  ,-2.4  ,4.7
820  ,1.674e+08   ,-2.5  ,-2.4  ,4.5
821  ,4.492e+08   ,-2.5  ,-2.4  ,4.3
822  ,7.912e+08   ,-2.5  ,-2.4  ,4.1
823  ,9.321e+08   ,-2.5  ,-2.4  ,3.9
824  ,9.851e+08   ,-2.5  ,-2.4  ,3.7
825  ,9.879e+08   ,-2.5  ,-2.4  ,3.5
826  ,7.469e+08   ,-2.5  ,-2.4  ,3.3
827  ,6.411e+08   ,-2.5  ,-2.4  ,3.1
828  ,4.551e+08   ,-2.5  ,-2.4  ,2.9
829  ,2.851e+08   ,-2.5  ,-2.4  ,2.7
830  ,1.435e+08   ,-2.5  ,-2.4  ,2.5
831  ,1.413e+08   ,-2.5  ,-2.4  ,2.3
832  ,1.297e+08   ,-2.5  ,-2.4  ,2.1
833  ,1.842e+08   ,-2.5  ,-2.4  ,1.9
834  ,2.430e+08   ,-2.5  ,-2.4  ,1.7
835  ,3.767e+08   ,-2.5  ,-2.4  ,1.5
836  ,4.118e+08   ,-2.5  ,-2.4  ,1.3
837  ,4.017e+08   ,-2.5  ,-2.4  ,1.1
838  ,3.382e+08   ,-2.5  ,-2.4  ,0.9
839  ,1.707e+08   ,-2.5  ,-2.4  ,0.7
840  ,1.651e+08   ,-2.5  ,-2.4  ,0.5
841  ,4.160e+08   ,-2.5  ,-2.4  ,0.3
842  ,1.852e+08   ,-2.5  ,2.2  ,4.9
843  ,2.142e+08   ,-2.5  ,2  ,4.9
844  ,2.128e+08   ,-2.5  ,1.8  ,4.9
845  ,2.383e+08   ,-2.5  ,1.6  ,4.9
846  ,2.519e+08   ,-2.5  ,1.4  ,4.9
847  ,2.893e+08   ,-2.5  ,1.2  ,4.9
848  ,3.172e+08   ,-2.5  ,1  ,4.9
849  ,4.234e+08   ,-2.5  ,0.8  ,4.9
850  ,3.396e+08   ,-2.5  ,0.6  ,4.9
851  ,3.164e+08   ,-2.5  ,0.4  ,4.9
852  ,3.115e+08   ,-2.5  ,0.2  ,4.9
853  ,3.127e+08   ,-2.5  ,5.8879E-16  ,4.9
854  ,2.985e+08   ,-2.5  ,-0.2  ,4.9
855  ,3.326e+08   ,-2.5  ,-0.4  ,4.9
856  ,3.294e+08   ,-2.5  ,-0.6  ,4.9
857  ,3.302e+08   ,-2.5  ,-0.8  ,4.9
858  ,3.329e+08   ,-2.5  ,-1  ,4.9
859  ,3.303e+08   ,-2.5  ,-1.2  ,4.9
860  ,2.831e+08   ,-2.5  ,-1.4  ,4.9
861  ,2.685e+08   ,-2.5  ,-1.6  ,4.9
862  ,3.204e+08   ,-2.5  ,-1.8  ,4.9
863  ,4.011e+08   ,-2.5  ,-2  ,4.9
864  ,4.056e+08   ,-2.5  ,-2.2  ,4.9
865  ,1.552e+08   ,-2.5  ,2.4  ,4.7
866  ,2.269e+08   ,-2.5  ,2.4  ,4.5
867  ,2.839e+08   ,-2.5  ,2.4  ,4.3
868  ,2.606e+08   ,-2.5  ,2.4  ,4.1
869  ,3.279e+08   ,-2.5  ,2.4  ,3.9
870  ,3.596e+08   ,-2.5  ,2.4  ,3.7
871  ,4.532e+08   ,-2.5  ,2.4  ,3.5
872  ,6.031e+08   ,-2.5  ,2.4  ,3.3
873  ,6.004e+08   ,-2.5  ,2.4  ,3.1
874  ,5.438e+08   ,-2.5  ,2.4  ,2.9
875  ,5.388e+08   ,-2.5  ,2.4  ,2.7
876  ,5.497e+08   ,-2.5  ,2.4  ,2.5
877  ,5.684e+08   ,-2.5  ,2.4  ,2.3
878  ,5.813e+08   ,-2.5  ,2.4  ,2.1
879  ,6.071e+08   ,-2.5  ,2.4  ,1.9
880  ,6.325e+08   ,-2.5  ,2.4  ,1.7
881  ,5.193e+08   ,-2.5  ,2.4  ,1.5
882  ,5.002e+08   ,-2.5  ,2.4  ,1.3
883  ,4.214e+08   ,-2.5  ,2.4  ,1.1
884  ,3.899e+08   ,-2.5  ,2.4  ,0.9
885  ,2.990e+08   ,-2.5  ,2.4  ,0.7
886  ,2.138e+08   ,-2.5  ,2.4  ,0.5
887  ,1.105e+08   ,-2.5  ,2.4  ,0.3
1044  ,2.510e+08   ,-2.3  ,-2.5  ,0.44697
1045  ,1.133e+08   ,-2.3  ,-2.5  ,0.68705
1046  ,1.264e+08   ,-2.3  ,-2.5  ,0.92554
1047  ,7.553e+07   ,-2.3  ,-2.5  ,1.1682
1048  ,1.189e+08   ,-2.3  ,-2.5  ,1.4148
1049  ,3.078e+08   ,-2.3  ,-2.5  ,1.6581
1050  ,4.472e+08   ,-2.3  ,-2.5  ,1.8967
1051  ,4.951e+08   ,-2.3  ,-2.5  ,2.1357
1052  ,4.841e+08   ,-2.3  ,-2.5  ,2.3794
1053  ,4.057e+08   ,-2.3  ,-2.5  ,2.6206
1054  ,2.310e+08   ,-2.3  ,-2.5  ,2.8643
1055  ,7.445e+07   ,-2.3  ,-2.5  ,3.1033
1056  ,1.739e+08   ,-2.3  ,-2.5  ,3.342
1057  ,4.276e+08   ,-2.3  ,-2.5  ,3.5852
1058  ,4.713e+08   ,-2.3  ,-2.5  ,3.8318
1059  ,3.773e+08   ,-2.3  ,-2.5  ,4.0745
1060  ,2.303e+08   ,-2.3  ,-2.5  ,4.3129
1061  ,1.903e+08   ,-2.3  ,-2.5  ,4.553
1062  ,9.165e+08   ,-2.053  ,-2.5  ,4.8
1063  ,8.133e+08   ,-1.8129  ,-2.5  ,4.8
1064  ,7.038e+08   ,-1.5745  ,-2.5  ,4.8
1065  ,4.159e+08   ,-1.3318  ,-2.5  ,4.8
1066  ,2.554e+08   ,-1.0852  ,-2.5  ,4.8
1067  ,5.013e+08   ,-0.84195  ,-2.5  ,4.8
1068  ,6.541e+08   ,-0.60329  ,-2.5  ,4.8
1069  ,7.050e+08   ,-0.3643  ,-2.5  ,4.8
1070  ,6.750e+08   ,-0.12055  ,-2.5  ,4.8
1071  ,6.440e+08   ,0.12056  ,-2.5  ,4.8
1072  ,3.625e+08   ,0.3643  ,-2.5  ,4.8
1073  ,1.158e+08   ,0.6033  ,-2.5  ,4.8
1074  ,3.944e+08   ,0.84195  ,-2.5  ,4.8
1075  ,5.211e+08   ,1.0852  ,-2.5  ,4.8
1076  ,4.363e+08   ,1.3318  ,-2.5  ,4.8
1077  ,2.696e+08   ,1.5745  ,-2.5  ,4.8
1078  ,6.678e+08   ,1.8129  ,-2.5  ,4.8
1079  ,1.291e+09   ,2.053  ,-2.5  ,4.8
1080  ,1.267e+09   ,2.3  ,-2.5  ,4.553
1081  ,6.813e+08   ,2.3  ,-2.5  ,4.3129
1082  ,3.082e+08   ,2.3  ,-2.5  ,4.0745
1083  ,4.417e+08   ,2.3  ,-2.5  ,3.8318
1084  ,4.634e+08   ,2.3  ,-2.5  ,3.5852
1085  ,3.815e+08   ,2.3  ,-2.5  ,3.3419
1086  ,1.419e+08   ,2.3  ,-2.5  ,3.1033
1087  ,3.884e+08   ,2.3  ,-2.5  ,2.8643
1088  ,6.153e+08   ,2.3  ,-2.5  ,2.6206
1089  ,6.787e+08   ,2.3  ,-2.5  ,2.3794
1090  ,7.018e+08   ,2.3  ,-2.5  ,2.1357
1091  ,6.155e+08   ,2.3  ,-2.5  ,1.8967
1092  ,4.486e+08   ,2.3  ,-2.5  ,1.658
1093  ,2.829e+08   ,2.3  ,-2.5  ,1.4148
1094  ,4.852e+08   ,2.3  ,-2.5  ,1.1682
1095  ,7.468e+08   ,2.3  ,-2.5  ,0.92554
1096  ,8.326e+08   ,2.3  ,-2.5  ,0.68705
1097  ,8.752e+08   ,2.3  ,-2.5  ,0.44697
1098  ,1.668e+08   ,-2.053  ,-2.5  ,0.2
1099  ,1.204e+08   ,-1.8129  ,-2.5  ,0.2
1100  ,1.385e+08   ,-1.5745  ,-2.5  ,0.2
1101  ,6.858e+07   ,-1.3318  ,-2.5  ,0.2
1102  ,1.161e+08   ,-1.0852  ,-2.5  ,0.2
1103  ,3.239e+08   ,-0.84195  ,-2.5  ,0.2
1104  ,4.541e+08   ,-0.60329  ,-2.5  ,0.2
1105  ,4.646e+08   ,-0.3643  ,-2.5  ,0.2
1106  ,5.142e+08   ,-0.12055  ,-2.5  ,0.2
1107  ,4.477e+08   ,0.12056  ,-2.5  ,0.2
1108  ,2.337e+08   ,0.3643  ,-2.5  ,0.2
1109  ,8.725e+07   ,0.6033  ,-2.5  ,0.2
1110  ,1.894e+08   ,0.84195  ,-2.5  ,0.2
1111  ,4.045e+08   ,1.0852  ,-2.5  ,0.2
1112  ,4.922e+08   ,1.3318  ,-2.5  ,0.2
1113  ,3.729e+08   ,1.5745  ,-2.5  ,0.2
1114  ,2.176e+08   ,1.8129  ,-2.5  ,0.2
1115  ,2.533e+08   ,2.053  ,-2.5  ,0.2
1116  ,6.704e+08   ,-2.2  ,-2.5  ,4.9
1117  ,2.712e+08   ,-2  ,-2.5  ,4.9
1118  ,3.042e+08   ,-1.8  ,-2.5  ,4.9
1119  ,1.177e+08   ,-1.6  ,-2.5  ,4.9
1120  ,1.900e+08   ,-1.4  ,-2.5  ,4.9
1121  ,3.434e+08   ,-1.2  ,-2.5  ,4.9
1122  ,4.758e+08   ,-1  ,-2.5  ,4.9
1123  ,4.998e+08   ,-0.8  ,-2.5  ,4.9
1124  ,3.434e+08   ,-0.6  ,-2.5  ,4.9
1125  ,2.775e+08   ,-0.4  ,-2.5  ,4.9
1126  ,2.913e+08   ,-0.2  ,-2.5  ,4.9
1127  ,4.267e+08   ,-1.7664E-15  ,-2.5  ,4.9
1128  ,4.608e+08   ,0.2  ,-2.5  ,4.9
1129  ,4.916e+08   ,0.4  ,-2.5  ,4.9
1130  ,4.485e+08   ,0.6  ,-2.5  ,4.9
1131  ,4.881e+08   ,0.8  ,-2.5  ,4.9
1132  ,5.020e+08   ,1  ,-2.5  ,4.9
1133  ,6.159e+08   ,1.2  ,-2.5  ,4.9
1134  ,5.093e+08   ,1.4  ,-2.5  ,4.9
1135  ,5.406e+08   ,1.6  ,-2.5  ,4.9
1136  ,4.630e+08   ,1.8  ,-2.5  ,4.9
1137  ,3.361e+08   ,2  ,-2.5  ,4.9
1138  ,2.991e+08   ,2.2  ,-2.5  ,4.9
1139  ,4.973e+08   ,-2.4  ,-2.5  ,4.7
1140  ,2.963e+08   ,-2.4  ,-2.5  ,4.5
1141  ,2.978e+08   ,-2.4  ,-2.5  ,4.3
1142  ,2.709e+08   ,-2.4  ,-2.5  ,4.1
1143  ,3.037e+08   ,-2.4  ,-2.5  ,3.9
1144  ,4.030e+08   ,-2.4  ,-2.5  ,3.7
1145  ,3.107e+08   ,-2.4  ,-2.5  ,3.5
1146  ,4.143e+08   ,-2.4  ,-2.5  ,3.3
1147  ,3.632e+08   ,-2.4  ,-2.5  ,3.1
1148  ,3.754e+08   ,-2.4  ,-2.5  ,2.9
1149  ,3.221e+08   ,-2.4  ,-2.5  ,2.7
1150  ,2.953e+08   ,-2.4  ,-2.5  ,2.5
1151  ,2.877e+08   ,-2.4  ,-2.5  ,2.3
1152  ,3.316e+08   ,-2.4  ,-2.5  ,2.1
1153  ,3.227e+08   ,-2.4  ,-2.5  ,1.9
1154  ,3.188e+08   ,-2.4  ,-2.5  ,1.7
1155  ,2.840e+08   ,-2.4  ,-2.5  ,1.5
1156  ,2.805e+08   ,-2.4  ,-2.5  ,1.3
1157  ,1.981e+08   ,-2.4  ,-2.5  ,1.1
1158  ,1.298e+08   ,-2.4  ,-2.5  ,0.9
1159  ,1.500e+08   ,-2.4  ,-2.5  ,0.7
1160  ,1.822e+08   ,-2.4  ,-2.5  ,0.5
1161  ,1.662e+08   ,-2.4  ,-2.5  ,0.3
1162  ,1.401e+08   ,-2.2  ,-2.5  ,0.1
1163  ,2.067e+08   ,-2  ,-2.5  ,0.1
1164  ,1.585e+08   ,-1.8  ,-2.5  ,0.1
1165  ,1.406e+08   ,-1.6  ,-2.5  ,0.1
1166  ,2.035e+08   ,-1.4  ,-2.5  ,0.1
1167  ,2.640e+08   ,-1.2  ,-2.5  ,0.1
1168  ,2.866e+08   ,-1  ,-2.5  ,0.1
1169  ,3.095e+08   ,-0.8  ,-2.5  ,0.1
1170  ,3.278e+08   ,-0.6  ,-2.5  ,0.1
1171  ,3.342e+08   ,-0.4  ,-2.5  ,0.1
1172  ,3.197e+08   ,-0.2  ,-2.5  ,0.1
1173  ,2.689e+08   ,-1.7664E-15  ,-2.5  ,0.1
1174  ,3.222e+08   ,0.2  ,-2.5  ,0.1
1175  ,3.727e+08   ,0.4  ,-2.5  ,0.1
1176  ,4.057e+08   ,0.6  ,-2.5  ,0.1
1177  ,3.507e+08   ,0.8  ,-2.5  ,0.1
1178  ,3.672e+08   ,1  ,-2.5  ,0.1
1179  ,3.555e+08   ,1.2  ,-2.5  ,0.1
1180  ,3.157e+08   ,1.4  ,-2.5  ,0.1
1181  ,3.255e+08   ,1.6  ,-2.5  ,0.1
1182  ,2.954e+08   ,1.8  ,-2.5  ,0.1
1183  ,2.808e+08   ,2  ,-2.5  ,0.1
1184  ,4.906e+08   ,2.2  ,-2.5  ,0.1
1185  ,2.435e+08   ,2.4  ,-2.5  ,4.7
1186  ,3.258e+08   ,2.4  ,-2.5  ,4.5
1187  ,4.608e+08   ,2.4  ,-2.5  ,4.3
1188  ,5.742e+08   ,2.4  ,-2.5  ,4.1
1189  ,5.832e+08   ,2.4  ,-2.5  ,3.9
1190  ,5.419e+08   ,2.4  ,-2.5  ,3.7
1191  ,4.545e+08   ,2.4  ,-2.5  ,3.5
1192  ,5.533e+08   ,2.4  ,-2.5  ,3.3
1193  ,5.440e+08   ,2.4  ,-2.5  ,3.1
1194  ,4.657e+08   ,2.4  ,-2.5  ,2.9
1195  ,4.397e+08   ,2.4  ,-2.5  ,2.7
1196  ,4.221e+08   ,2.4  ,-2.5  ,2.5
1197  ,2.991e+08   ,2.4  ,-2.5  ,2.3
1198  ,3.004e+08   ,2.4  ,-2.5  ,2.1
1199  ,3.105e+08   ,2.4  ,-2.5  ,1.9
1200  ,4.309e+08   ,2.4  ,-2.5  ,1.7
1201  ,4.550e+08   ,2.4  ,-2.5  ,1.5
1202  ,3.726e+08   ,2.4  ,-2.5  ,1.3
1203  ,1.860e+08   ,2.4  ,-2.5  ,1.1
1204  ,1.508e+08   ,2.4  ,-2.5  ,0.9
1205  ,2.782e+08   ,2.4  ,-2.5  ,0.7
1206  ,3.954e+08   ,2.4  ,-2.5  ,0.5
1207  ,5.161e+08   ,2.4  ,-2.5  ,0.3
1208  ,3.720e+08   ,2.4  ,-2.2  ,0
1209  ,3.893e+08   ,2.4  ,-2  ,0
1210  ,2.879e+08   ,2.4  ,-1.8  ,0
1211  ,2.749e+08   ,2.4  ,-1.6  ,0
1212  ,3.162e+08   ,2.4  ,-1.4  ,0
1213  ,3.151e+08   ,2.4  ,-1.2  ,0
1214  ,3.685e+08   ,2.4  ,-1  ,0
1215  ,3.910e+08   ,2.4  ,-0.8  ,0
1216  ,3.457e+08   ,2.4  ,-0.6  ,0
1217  ,3.078e+08   ,2.4  ,-0.4  ,0
1218  ,2.669e+08   ,2.4  ,-0.2  ,0
1219  ,2.729e+08   ,2.4  ,-1.7664E-15  ,0
1220  ,3.031e+08   ,2.4  ,0.2  ,0
1221  ,3.019e+08   ,2.4  ,0.4  ,0
1222  ,3.783e+08   ,2.4  ,0.6  ,0
1223  ,4.646e+08   ,2.4  ,0.8  ,0
1224  ,3.382e+08   ,2.4  ,1  ,0
1225  ,2.909e+08   ,2.4  ,1.2  ,0
1226  ,2.693e+08   ,2.4  ,1.4  ,0
1227  ,2.206e+08   ,2.4  ,1.6  ,0
1228  ,2.555e+08   ,2.4  ,1.8  ,0
1229  ,2.251e+08   ,2.4  ,2  ,0
1230  ,1.901e+08   ,2.4  ,2.2  ,0
1231  ,3.768e+08   ,-2.2  ,-2.4  ,0
1232  ,1.966e+08   ,-2  ,-2.4  ,0
1233  ,1.622e+08   ,-1.8  ,-2.4  ,0
1234  ,3.425e+08   ,-1.6  ,-2.4  ,0
1235  ,4.115e+08   ,-1.4  ,-2.4  ,0
1236  ,4.260e+08   ,-1.2  ,-2.4  ,0
1237  ,3.486e+08   ,-1  ,-2.4  ,0
1238  ,2.216e+08   ,-0.8  ,-2.4  ,0
1239  ,1.732e+08   ,-0.6  ,-2.4  ,0
1240  ,1.755e+08   ,-0.4  ,-2.4  ,0
1241  ,1.518e+08   ,-0.2  ,-2.4  ,0
1242  ,1.056e+08   ,5.8879E-16  ,-2.4  ,0
1243  ,2.529e+08   ,0.2  ,-2.4  ,0
1244  ,4.830e+08   ,0.4  ,-2.4  ,0
1245  ,6.136e+08   ,0.6  ,-2.4  ,0
1246  ,8.116e+08   ,0.8  ,-2.4  ,0
1247  ,9.507e+08   ,1  ,-2.4  ,0
1248  ,1.056e+09   ,1.2  ,-2.4  ,0
1249  ,9.530e+08   ,1.4  ,-2.4  ,0
1250  ,7.368e+08   ,1.6  ,-2.4  ,0
1251  ,4.091e+08   ,1.8  ,-2.4  ,0
1252  ,2.368e+08   ,2  ,-2.4  ,0
1253  ,4.071e+08   ,2.2  ,-2.4  ,0
1254  ,1.780e+08   ,-2.4  ,2.2  ,0
1255  ,3.018e+08   ,-2.4  ,2  ,0
1256  ,4.223e+08   ,-2.4  ,1.8  ,0
1257  ,4.738e+08   ,-2.4  ,1.6  ,0
1258  ,5.284e+08   ,-2.4  ,1.4  ,0
1259  ,5.809e+08   ,-2.4  ,1.2  ,0
1260  ,6.208e+08   ,-2.4  ,1  ,0
1261  ,6.640e+08   ,-2.4  ,0.8  ,0
1262  ,6.808e+08   ,-2.4  ,0.6  ,0
1263  ,6.645e+08   ,-2.4  ,0.4  ,0
1264  ,6.516e+08   ,-2.4  ,0.2  ,0
1265  ,6.441e+08   ,-2.4  ,5.8879E-16  ,0
1266  ,5.904e+08   ,-2.4  ,-0.2  ,0
1267  ,5.098e+08   ,-2.4  ,-0.4  ,0
1268  ,4.164e+08   ,-2.4  ,-0.6  ,0
1269  ,3.709e+08   ,-2.4  ,-0.8  ,0
1270  ,4.092e+08   ,-2.4  ,-1  ,0
1271  ,4.876e+08   ,-2.4  ,-1.2  ,0
1272  ,4.185e+08   ,-2.4  ,-1.4  ,0
1273  ,3.344e+08   ,-2.4  ,-1.6  ,0
1274  ,2.487e+08   ,-2.4  ,-1.8  ,0
1275  ,2.253e+08   ,-2.4  ,-2  ,0
1276  ,1.766e+08   ,-2.4  ,-2.2  ,0
1277  ,1.518e+08   ,2.2  ,2.4  ,0
1278  ,2.198e+08   ,2  ,2.4  ,0
1279  ,2.836e+08   ,1.8  ,2.4  ,0
1280  ,2.503e+08   ,1.6  ,2.4  ,0
1281  ,2.737e+08   ,1.4  ,2.4  ,0
1282  ,3.706e+08   ,1.2  ,2.4  ,0
1283  ,4.835e+08   ,1  ,2.4  ,0
1284  ,6.182e+08   ,0.8  ,2.4  ,0
1285  ,6.459e+08   ,0.6  ,2.4  ,0
1286  ,5.931e+08   ,0.4  ,2.4  ,0
1287  ,6.157e+08   ,0.2  ,2.4  ,0
1288  ,5.900e+08   ,5.8879E-16  ,2.4  ,0
1289  ,6.443e+08   ,-0.2  ,2.4  ,0
1290  ,5.816e+08   ,-0.4  ,2.4  ,0
1291  ,5.689e+08   ,-0.6  ,2.4  ,0
1292  ,5.721e+08   ,-0.8  ,2.4  ,0
1293  ,5.367e+08   ,-1  ,2.4  ,0
1294  ,5.235e+08   ,-1.2  ,2.4  ,0
1295  ,4.887e+08   ,-1.4  ,2.4  ,0
1296  ,4.345e+08   ,-1.6  ,2.4  ,0
1297  ,3.565e+08   ,-1.8  ,2.4  ,0
1298  ,2.630e+08   ,-2  ,2.4  ,0
1299  ,1.028e+08   ,-2.2  ,2.4  ,0
1460  ,8.985e+09   ,2.3243  ,2.3243  ,4.9577
1461  ,8.697e+09   ,2.4577  ,2.3243  ,4.8243
1462  ,7.099e+09   ,2.3243  ,2.4577  ,4.8243
1463  ,6.641e+08   ,-2.3  ,-2.1759  ,4.8
1464  ,6.403e+08   ,-2.3  ,-1.7631  ,4.8
1465  ,5.792e+08   ,-2.3  ,-1.1827  ,4.8
1466  ,8.421e+08   ,-2.3  ,-0.34986  ,4.8
1467  ,9.113e+08   ,-2.3  ,0.80545  ,4.8
1468  ,1.043e+09   ,-0.81337  ,2.3  ,4.8
1469  ,1.780e+09   ,0.67326  ,2.3  ,4.8
1470  ,6.820e+08   ,2.3  ,-2.1824  ,4.8
1471  ,5.267e+08   ,2.3  ,-1.7784  ,4.8
1472  ,7.014e+08   ,2.3  ,-1.2138  ,4.8
1473  ,8.472e+08   ,2.3  ,-0.40752  ,4.8
1474  ,1.465e+09   ,2.3  ,0.70532  ,4.8
1516  ,1.046e+09   ,2.3  ,2.3  ,1.6866
1517  ,1.761e+09   ,2.3  ,2.3  ,3.1733
1518  ,6.620e+08   ,2.3  ,-2.1759  ,0.2
1519  ,6.350e+08   ,2.3  ,-1.7631  ,0.2
1520  ,5.755e+08   ,2.3  ,-1.1827  ,0.2
1521  ,8.589e+08   ,2.3  ,-0.34986  ,0.2
1522  ,9.278e+08   ,2.3  ,0.80545  ,0.2
1564  ,8.379e+08   ,-0.76667  ,2.3  ,0.2
1565  ,9.867e+08   ,0.76667  ,2.3  ,0.2
1566  ,8.245e+08   ,-2.3  ,2.3  ,1.7333
1567  ,9.890e+08   ,-2.3  ,2.3  ,3.2667
1574  ,1.044e+08   ,-2.3  ,-2.1759  ,0.2
1575  ,1.372e+08   ,-2.3  ,-1.7631  ,0.2
1576  ,2.826e+08   ,-2.3  ,-1.1827  ,0.2
1577  ,3.609e+08   ,-2.3  ,-0.34986  ,0.2
1578  ,3.436e+08   ,-2.3  ,0.80545  ,0.2
1777  ,1.061e+09   ,-0.52764  ,2.5  ,4.9
1801  ,3.553e+08   ,-2.3  ,1.5527  ,0.2
1825  ,6.256e+08   ,-1.5333  ,2.3  ,0.2
1841  ,9.842e+08   ,0.063638  ,2.5  ,4.9
1876  ,5.681e+08   ,-0.5  ,2.4  ,0
1894  ,8.484e+08   ,2.3  ,1.5527  ,0.2
1907  ,2.162e+08   ,2.1  ,2.5  ,0.1
1928  ,2.389e+08   ,1.9  ,2.4  ,0
1974  ,3.055e+08   ,2.4  ,1.1  ,0
1981  ,2.942e+08   ,2.4  ,2.5  ,0.59273
1987  ,3.073e+08   ,-2.5  ,2.4  ,4
2004  ,2.150e+08   ,-2.4  ,2.5  ,4.6
2009  ,2.620e+08   ,2.4  ,1.3  ,0
2020  ,3.116e+08   ,2.5  ,1.1  ,0.1
2035  ,3.487e+08   ,-2.3  ,-0.76628  ,0.2
2070  ,2.621e+09   ,1.6404  ,2.4  ,5
2081  ,9.170e+08   ,2.4  ,2.5  ,1.9724
2095  ,4.249e+08   ,2.4  ,2.5  ,0.78982
2138  ,6.108e+08   ,-2.4  ,-0.1  ,0
2146  ,9.272e+08   ,-0.92182  ,2.4  ,5
2174  ,6.704e+08   ,2.4  ,2.5  ,1.184
2190  ,5.211e+08   ,2.5  ,2.4  ,0.98691
2203  ,8.251e+08   ,2.5  ,-0.13345  ,4.9
2232  ,1.541e+09   ,2.3  ,0.1489  ,4.8
2242  ,1.184e+09   ,2.4  ,2.5  ,2.9578
2293  ,6.839e+08   ,-2.5  ,0.5  ,0.1
2311  ,1.940e+09   ,2.3  ,2.3  ,2.4299
2313  ,4.907e+08   ,2.5  ,2.4  ,0.78982
2329  ,9.166e+08   ,2.4  ,2.5  ,2.1695
2355  ,2.224e+08   ,-2.4  ,2.5  ,4.4
2380  ,4.046e+08   ,-2.5  ,-1.5  ,0.1
2383  ,1.214e+09   ,0.45782  ,2.5  ,4.9
2408  ,8.306e+08   ,2.3  ,-1.4961  ,4.8
2445  ,6.108e+08   ,2.5  ,-1.5131  ,4.9
2484  ,3.009e+08   ,-2.5  ,-2.4  ,1.6
2495  ,2.355e+08   ,-2.4  ,1.7  ,5
2508  ,3.063e+08   ,2.4  ,0.3  ,0
2514  ,1.068e+09   ,2.3  ,0.2278  ,0.2
2570  ,2.451e+08   ,-2.4  ,1.5  ,5
2580  ,2.574e+09   ,1.6404  ,2.5  ,4.9
2603  ,9.638e+08   ,-1.1189  ,2.5  ,4.9
2695  ,7.691e+08   ,2.3  ,2.3  ,0.94331
2705  ,9.080e+08   ,2.4  ,2.5  ,1.3811
2714  ,8.133e+08   ,2.5  ,0.45782  ,4.9
2734  ,3.683e+08   ,2.4  ,-0.9  ,0
2775  ,2.855e+08   ,2.5  ,-0.1  ,0.1
2779  ,2.691e+08   ,2.4  ,-0.1  ,0
2801  ,3.313e+09   ,1.4166  ,2.3  ,4.8
2814  ,1.985e+09   ,1.4433  ,2.5  ,4.9
2863  ,3.503e+08   ,-2.4  ,2.5  ,0.6
2884  ,4.262e+08   ,-2.4  ,2.5  ,0.8
2886  ,5.477e+08   ,-2.4  ,2.5  ,1.2
2967  ,2.098e+08   ,2.4  ,1.7  ,0
2973  ,2.627e+08   ,2.5  ,1.5  ,0.1
2987  ,4.905e+08   ,-0.3  ,2.5  ,0.1
3008  ,6.719e+08   ,-2.3  ,2.3  ,0.96667
3012  ,5.432e+08   ,-2.5  ,2.4  ,2.6
3021  ,5.208e+08   ,-2.5  ,2.4  ,2.8
3025  ,5.494e+08   ,-2.5  ,2.4  ,2.4
3030  ,5.837e+08   ,-2.4  ,2.5  ,2.4
3033  ,5.876e+08   ,-2.4  ,2.5  ,2.2
3047  ,9.135e+08   ,2.4  ,2.5  ,2.3665
3052  ,1.098e+09   ,2.5  ,2.4  ,2.5636
3061  ,1.002e+09   ,2.4  ,2.5  ,2.5636
3081  ,2.805e+08   ,-2.4  ,1.3  ,5
3088  ,2.329e+08   ,-1.9073  ,2.4  ,5
3099  ,2.416e+08   ,-2.4  ,1.9  ,5
3107  ,2.604e+08   ,-2.4  ,2.5  ,3.8
3139  ,5.418e+08   ,-1.5131  ,2.4  ,5
3145  ,5.924e+08   ,-1.5131  ,2.5  ,4.9
3148  ,4.206e+08   ,-1.7102  ,2.5  ,4.9
3168  ,5.031e+08   ,-2.4  ,1.5  ,0
3188  ,3.657e+08   ,-2.5  ,-2.4  ,1
3202  ,9.785e+08   ,0.26073  ,2.5  ,4.9
3212  ,2.388e+09   ,2.5  ,1.6404  ,4.9
3247  ,3.926e+09   ,2.5  ,1.8375  ,4.9
3265  ,3.184e+09   ,2.3  ,1.4326  ,4.8
3271  ,7.017e+09   ,2.2299  ,2.2299  ,4.8
3284  ,1.746e+09   ,2.4  ,1.4433  ,5
3291  ,1.682e+09   ,2.5  ,1.4433  ,4.9
3296  ,7.396e+08   ,-2.3  ,-0.76628  ,4.8
3303  ,4.010e+08   ,-2.4  ,-0.9  ,5
3311  ,3.958e+08   ,-2.4  ,-0.7  ,5
3315  ,2.437e+08   ,1.9  ,2.5  ,0.1
3336  ,6.538e+08   ,-2.4  ,0.3  ,0
3340  ,6.345e+08   ,-2.5  ,0.1  ,0.1
3344  ,6.423e+08   ,-2.4  ,0.1  ,0
3356  ,5.953e+08   ,-0.3  ,2.4  ,0
3361  ,8.781e+08   ,-0.33054  ,2.5  ,4.9
3364  ,9.235e+08   ,-0.13345  ,2.5  ,4.9
3383  ,1.370e+09   ,2.4  ,2.5  ,3.5491
3402  ,5.544e+09   ,2.4  ,2.5  ,4.5345
3421  ,7.319e+08   ,-1.316  ,2.5  ,4.9
3439  ,1.888e+09   ,2.5  ,2.4  ,3.9433
3447  ,1.899e+09   ,2.4  ,2.5  ,3.9433
3451  ,1.528e+09   ,2.4  ,2.5  ,3.7462
3468  ,1.976e+09   ,1.4433  ,2.4  ,5
3480  ,1.390e+09   ,1.0491  ,2.4  ,5
3519  ,2.605e+08   ,1.5  ,2.4  ,0
3527  ,7.090e+08   ,2.3  ,-1.4729  ,0.2
3550  ,3.886e+08   ,-1.7  ,2.4  ,0
3554  ,4.613e+08   ,-1.7  ,2.5  ,0.1
3558  ,4.572e+08   ,-1.5  ,2.4  ,0
3562  ,5.215e+08   ,-1.5  ,2.5  ,0.1
3574  ,2.082e+08   ,-2.4  ,2.1  ,5
3581  ,4.445e+08   ,-2.5  ,1.7  ,0.1
3583  ,3.741e+08   ,-2.5  ,1.9  ,0.1
3584  ,2.665e+08   ,-1.9073  ,2.5  ,4.9
3591  ,3.283e+08   ,2.5  ,0.3  ,0.1
3595  ,3.010e+08   ,2.5  ,0.1  ,0.1
3603  ,1.327e+10   ,2.4577  ,2.391  ,4.7576
3663  ,9.180e+07   ,-1.933  ,-2.5  ,0.2
3669  ,2.966e+08   ,-2.1765  ,-2.5  ,0.2
3672  ,1.885e+08   ,-2.3  ,-2.3379  ,0.2
3682  ,1.020e+08   ,-1.9  ,-2.4  ,0
3700  ,5.164e+08   ,2.3  ,-2.5  ,2.7424
3712  ,5.757e+08   ,-2.1  ,-2.5  ,4.9
3715  ,3.303e+08   ,-1.9  ,-2.5  ,4.9
3740  ,5.760e+08   ,-1.3  ,-2.4  ,5
3746  ,3.077e+08   ,-1.2085  ,-2.5  ,4.8
3755  ,7.184e+08   ,-1.5  ,-2.4  ,5
3760  ,2.586e+08   ,-1.7  ,-2.5  ,4.9
3786  ,9.489e+08   ,2.4  ,2.5  ,1.5782
3813  ,1.075e+09   ,0.26073  ,2.4  ,5
3858  ,5.116e+08   ,-0.9  ,-2.4  ,5
3863  ,3.721e+08   ,-2.5  ,0.9  ,4.9
3875  ,8.952e+08   ,-1.9  ,-2.4  ,5
3885  ,6.698e+08   ,2.4  ,-0.72473  ,5
3910  ,3.796e+08   ,-2.4  ,-2.5  ,3.4
3959  ,2.655e+09   ,2.5  ,2.4  ,4.1404
3969  ,1.036e+09   ,2.5  ,1.0491  ,4.9
3992  ,1.478e+10   ,2.391  ,2.2576  ,4.9577
3993  ,1.311e+10   ,2.4577  ,2.2576  ,4.891
4016  ,1.077e+08   ,-2.3015  ,2.5  ,4.9
4018  ,1.278e+08   ,-2.4  ,2.5  ,4.8
4021  ,1.535e+09   ,1.2462  ,2.4  ,5
4042  ,3.344e+08   ,2.4  ,-1.1  ,0
4046  ,5.386e+08   ,-0.9  ,2.4  ,0
4055  ,4.811e+08   ,1.7  ,-2.5  ,4.9
4087  ,2.846e+08   ,1.7  ,2.4  ,0
4114  ,6.403e+08   ,2.5  ,-0.33054  ,4.9
4120  ,3.938e+08   ,2.4  ,-2.5  ,1.8
4125  ,4.257e+08   ,2.4  ,2.5  ,0.98691
4144  ,3.857e+09   ,2.4  ,2.5  ,4.3375
4161  ,3.561e+08   ,-2.4  ,0.3  ,5
4201  ,2.208e+08   ,1.933  ,-2.5  ,0.2
4225  ,2.899e+08   ,-2.3  ,-2.4  ,0
4230  ,1.145e+08   ,-2.3  ,-2.5  ,0.56701
4269  ,5.428e+08   ,-0.9  ,-2.5  ,4.9
4277  ,5.027e+08   ,-1.1  ,-2.4  ,5
4288  ,1.621e+09   ,-0.070055  ,2.3  ,4.8
4328  ,6.008e+08   ,-2.5  ,-2.4  ,4.2
4336  ,3.043e+08   ,-2.5  ,-2.4  ,4.4
4342  ,1.831e+08   ,-2.5  ,-2.4  ,4.6
4348  ,4.451e+08   ,-2.4  ,-2.4707  ,4.9707
4352  ,5.941e+08   ,-2.3  ,-2.5  ,4.9
4354  ,9.804e+08   ,-2.1765  ,-2.5  ,4.8
4355  ,6.864e+08   ,-2.3  ,-2.3379  ,4.8
4362  ,2.759e+08   ,2.5  ,2.4  ,0.59273
4364  ,8.585e+07   ,2.5  ,-2.4  ,2.4
4366  ,1.497e+08   ,2.5  ,-2.4  ,2.2
4372  ,2.745e+08   ,2.4  ,-2.5  ,2.2
4385  ,2.478e+08   ,-2.5  ,-1.9  ,0.1
4399  ,2.547e+08   ,-2.5  ,2.1  ,0.1
4407  ,1.953e+08   ,-0.7  ,-2.4  ,0
4436  ,6.249e+08   ,-2.5  ,-0.1  ,0.1
4462  ,8.012e+08   ,-2.3  ,2.3  ,4.0333
4491  ,6.102e+08   ,2.5  ,-0.52764  ,4.9
4494  ,5.090e+08   ,2.5  ,-2.4  ,1.4
4503  ,4.374e+08   ,2.4  ,-2.5  ,1.4
4508  ,3.125e+08   ,2.4  ,-2.5  ,1.2
4515  ,4.049e+08   ,2.5  ,-2.4  ,1.8
4517  ,4.852e+08   ,2.4  ,-2.5  ,1.6
4522  ,6.755e+08   ,0.7  ,-2.4  ,0
4538  ,8.221e+08   ,-1.1189  ,2.4  ,5
4546  ,2.492e+09   ,2.4  ,2.5  ,4.1404
4559  ,5.625e+08   ,1.7  ,-2.4  ,0
4590  ,5.547e+08   ,0.5  ,-2.4  ,0
4631  ,4.406e+08   ,2.4  ,-2.5  ,2.6
4634  ,4.165e+08   ,2.5  ,-2.4  ,2.8
4657  ,1.630e+08   ,-2.5  ,-2.4  ,2
4660  ,2.125e+08   ,-2.5  ,-2.4  ,1.8
4664  ,1.688e+08   ,-0.3  ,-2.4  ,0
4675  ,4.504e+08   ,-2.4  ,-2.5  ,4.8
4681  ,5.728e+08   ,-2.5  ,-0.3  ,0.1
4684  ,2.866e+08   ,1.7  ,-2.4  ,5
4703  ,4.317e+08   ,-2.4  ,0.7  ,5
4707  ,3.165e+08   ,-2.5  ,0.3  ,4.9
4714  ,5.910e+08   ,2.4  ,-0.33054  ,5
4723  ,9.312e+08   ,-1.5567  ,2.3  ,4.8
4739  ,1.542e+08   ,-2.1044  ,2.5  ,4.9
4763  ,2.958e+08   ,-1.9  ,2.4  ,0
4780  ,1.047e+08   ,-2.3  ,-1.9695  ,0.2
4782  ,1.869e+08   ,-2.4707  ,-2.4  ,0.029289
4784  ,2.281e+08   ,-2.4  ,-1.9  ,0
4791  ,3.369e+08   ,-2.4  ,-2.5  ,1.8
4796  ,8.535e+08   ,2.4707  ,-2.4707  ,4.9
4799  ,9.629e+08   ,2.5  ,-2.4  ,4.8
4806  ,5.982e+08   ,2.3  ,-2.5  ,4.9
4809  ,3.392e+09   ,2.3  ,2.3  ,3.9166
4833  ,2.525e+08   ,-2.4  ,2.5  ,0.4
4841  ,5.760e+08   ,-2.4  ,2.5  ,2.6
4846  ,1.788e+08   ,-2.5  ,2.1  ,4.9
4848  ,1.664e+08   ,-2.5  ,2.3  ,4.9
4849  ,1.495e+08   ,-2.5  ,2.4  ,4.8
4893  ,2.571e+08   ,-2.4  ,2.5  ,4.2
4897  ,5.607e+09   ,2.3333  ,2.1998  ,5
4900  ,1.306e+10   ,2.391  ,2.4577  ,4.7576
4908  ,1.270e+10   ,2.2576  ,2.391  ,4.9577
4911  ,1.309e+10   ,2.2576  ,2.4577  ,4.891
4926  ,4.010e+08   ,-2.5  ,2.4  ,1
4932  ,6.741e+08   ,-2.4  ,2.5  ,1.6
4937  ,5.902e+08   ,-1.1  ,2.5  ,0.1
4939  ,6.880e+09   ,2.3  ,2.2299  ,4.7299
4944  ,6.986e+08   ,2.5  ,-1.9073  ,4.9
4987  ,8.216e+08   ,-2.3  ,1.5527  ,4.8
5010  ,1.053e+10   ,2.4973  ,2.1331  ,4.923
5013  ,5.474e+09   ,2.5  ,2.0345  ,4.9
5017  ,5.687e+09   ,2.4  ,2.0345  ,5
5035  ,9.822e+08   ,1.3  ,-2.4  ,0
5038  ,4.594e+08   ,1.2085  ,-2.5  ,0.2
5092  ,2.283e+08   ,-2.4  ,-2.5  ,1.2
5123  ,8.083e+08   ,2.5  ,-2.4  ,0.6
5151  ,4.550e+08   ,-2.5  ,-0.5  ,0.1
5160  ,3.558e+08   ,-2.5  ,-0.7  ,0.1
5164  ,3.968e+08   ,-2.4  ,0.9  ,5
5168  ,3.596e+08   ,-2.4  ,0.5  ,5
5176  ,3.972e+08   ,2.5  ,-0.7  ,0.1
5179  ,3.209e+08   ,2.4  ,-0.5  ,0
5189  ,3.747e+08   ,2.4  ,-2.5  ,2.4
5194  ,6.964e+08   ,2.3  ,-2.5  ,2.2576
5198  ,3.413e+08   ,-2.3  ,-2.5  ,0.32348
5205  ,1.625e+08   ,-2.4  ,-2.5  ,0.2
5207  ,1.455e+08   ,-2.1  ,-2.5  ,0.1
5246  ,6.076e+08   ,-2.5  ,2.4  ,3.2
5257  ,2.429e+08   ,-2.5  ,1.5  ,4.9
5263  ,3.711e+08   ,-2.3  ,0.2278  ,0.2
5272  ,6.499e+08   ,-2.5  ,0.3  ,0.1
5275  ,3.122e+08   ,-2.5  ,0.5  ,4.9
5281  ,3.363e+09   ,1.8375  ,2.5  ,4.9
5297  ,6.133e+08   ,-0.9  ,2.5  ,0.1
5306  ,5.631e+08   ,-0.7  ,2.4  ,0
5309  ,5.618e+08   ,-0.5  ,2.5  ,0.1
5324  ,1.053e+09   ,2.4  ,2.5  ,2.7607
5332  ,8.123e+08   ,2.5  ,-2.4  ,0.8
5334  ,1.336e+08   ,2.4  ,-2.5  ,1
5360  ,6.382e+08   ,2.4  ,-1.7102  ,5
5362  ,6.706e+08   ,2.4  ,-1.5131  ,5
5368  ,3.447e+09   ,2.4  ,1.8375  ,5
5371  ,2.273e+10   ,2.4325  ,2.4888  ,4.6656
5372  ,6.257e+09   ,2.3333  ,2.5  ,4.6998
5376  ,4.837e+09   ,2.4707  ,2.4707  ,4.6331
5377  ,5.850e+09   ,2.5  ,2.4  ,4.5345
5379  ,1.044e+08   ,-1.5  ,-2.5  ,4.9
5406  ,8.268e+08   ,-2.5  ,-2.4  ,3.4
5420  ,6.888e+07   ,-2.3  ,-2.5  ,3.2226
5423  ,8.319e+08   ,1.5  ,-2.4  ,0
5502  ,1.930e+08   ,-2.5  ,-2.3  ,0.1
5504  ,2.781e+08   ,-2.5  ,-2.4  ,0.2
5506  ,2.104e+08   ,-2.4  ,-2.3  ,0
5511  ,1.844e+08   ,-2.5  ,-2.1  ,0.1
5513  ,6.626e+08   ,-2.4  ,0.5  ,0
5517  ,3.054e+08   ,-0.9  ,-2.5  ,0.1
5532  ,9.728e+07   ,-2.4707  ,2.4707  ,4.9
5534  ,3.676e+08   ,2.4  ,-0.7  ,0
5551  ,1.155e+09   ,2.5  ,-2.4  ,3.8
5566  ,7.071e+08   ,2.5  ,2.4  ,1.3811
5603  ,2.773e+08   ,2.4  ,-0.3  ,0
5617  ,2.752e+08   ,-2.1  ,2.5  ,0.1
5637  ,6.845e+08   ,-2.3  ,-1.9695  ,4.8
5641  ,4.289e+08   ,2.3  ,-2.5  ,3.4636
5645  ,3.380e+08   ,-2.4  ,-2.5  ,2
5649  ,3.209e+08   ,-2.4  ,-2.5  ,2.2
5659  ,3.887e+08   ,-2.3  ,-2.5  ,1.7774
5662  ,1.414e+09   ,2.1765  ,-2.5  ,4.8
5666  ,6.170e+08   ,2.4  ,-2.5  ,4.8
5669  ,7.938e+08   ,2.3  ,-2.3412  ,4.8
5695  ,6.713e+08   ,-2.4  ,0.7  ,0
5701  ,5.644e+08   ,-2.5  ,2.4  ,1.6
5715  ,6.884e+08   ,-2.4  ,2.5  ,1.8
5726  ,5.908e+08   ,-0.7  ,2.5  ,0.1
5727  ,5.361e+08   ,-1.1  ,2.4  ,0
5730  ,5.417e+08   ,2.3  ,-2.5  ,1.7774
5746  ,9.621e+08   ,2.5  ,2.4  ,1.7753
5755  ,3.528e+08   ,2.5  ,-2.4  ,4.4
5763  ,3.417e+08   ,2.4  ,-2.5  ,4.4
5773  ,1.366e+09   ,1.0491  ,2.5  ,4.9
5791  ,9.448e+08   ,-0.72473  ,2.4  ,5
5795  ,3.642e+09   ,1.8375  ,2.4  ,5
5803  ,1.606e+08   ,-0.3  ,-2.4  ,5
5810  ,2.332e+09   ,2.4  ,1.6404  ,5
5836  ,2.499e+08   ,-2.5  ,1.3  ,4.9
5860  ,4.903e+08   ,2.5  ,-2.4  ,1.6
5866  ,3.385e+08   ,1.5  ,-2.5  ,0.1
5884  ,3.341e+08   ,-2.4  ,-0.3  ,5
5888  ,3.317e+08   ,-2.5  ,-0.5  ,4.9
5901  ,6.586e+08   ,2.3  ,-2.5  ,2.5
5908  ,5.883e+08   ,2.5  ,-2.4  ,1.2
5909  ,3.185e+08   ,2.5  ,-2.4  ,2
5934  ,3.612e+08   ,1.9  ,-2.5  ,4.9
5938  ,8.986e+08   ,1.933  ,-2.5  ,4.8
5948  ,3.484e+08   ,-2.4  ,-2.5  ,4.6
5950  ,3.828e+08   ,-2.4707  ,-2.4707  ,4.9
5951  ,3.488e+08   ,-2.5  ,-2.4  ,4.8
5952  ,3.611e+08   ,-2.5  ,-2.3  ,4.9
5986  ,4.655e+08   ,2.3  ,-2.5  ,3.7085
5990  ,9.343e+08   ,-0.92182  ,2.5  ,4.9
6019  ,1.825e+08   ,2.5  ,1.9  ,0.1
6025  ,2.722e+08   ,2.4  ,-1.3  ,0
6035  ,2.143e+08   ,-2.5  ,1.9  ,4.9
6044  ,8.496e+08   ,0.1  ,2.5  ,0.1
6054  ,2.856e+08   ,2.4  ,0.1  ,0
6070  ,9.797e+07   ,-2.4  ,2.3  ,0
6071  ,5.175e+07   ,-2.3  ,2.4  ,0
6076  ,2.378e+08   ,-2.4  ,2.1  ,0
6083  ,2.610e+08   ,2.1  ,-2.4  ,0
6084  ,1.607e+08   ,2.4  ,2.3  ,0
6087  ,1.592e+08   ,2.3  ,2.4  ,0
6092  ,2.094e+08   ,-2.4  ,-2.5  ,0.4
6096  ,1.692e+08   ,-2.3  ,-2.5  ,0.1
6099  ,3.777e+08   ,0.7  ,-2.5  ,0.1
6149  ,3.869e+08   ,-2.4  ,-0.9  ,0
6159  ,2.187e+08   ,-2.5  ,-2.4  ,2.6
6183  ,1.533e+09   ,1.2462  ,2.5  ,4.9
6224  ,8.040e+08   ,2.5  ,-2.4  ,4
6228  ,5.424e+08   ,2.4  ,-2.5  ,3.8
6237  ,4.699e+08   ,2.5  ,0.7  ,0.1
6241  ,6.022e+09   ,2.5  ,2.3333  ,4.6998
6245  ,8.035e+08   ,2.5  ,2.4  ,1.5782
6259  ,7.097e+08   ,2.5  ,-2.1044  ,4.9
6265  ,6.522e+08   ,2.3  ,-1.9804  ,4.8
6267  ,7.301e+08   ,2.5  ,-2.3015  ,4.9
6268  ,6.559e+08   ,2.4707  ,-2.4  ,4.9707
6270  ,7.248e+08   ,2.4  ,-2.1044  ,5
6317  ,9.379e+08   ,-2.3  ,0.2278  ,4.8
6349  ,1.003e+09   ,-0.52764  ,2.4  ,5
6391  ,9.662e+08   ,2.4  ,2.5  ,1.7753
6440  ,3.415e+08   ,-2.5  ,2.4  ,3.8
6471  ,6.486e+08   ,2.5  ,-0.92182  ,4.9
6489  ,1.347e+09   ,2.5  ,1.2462  ,4.9
6523  ,3.928e+08   ,-1.1  ,-2.4  ,0
6528  ,2.684e+08   ,-1.1  ,-2.5  ,0.1
6535  ,2.841e+08   ,-0.9  ,-2.4  ,0
6538  ,7.503e+08   ,1.5  ,-2.4  ,5
6541  ,5.828e+08   ,1.5  ,-2.5  ,4.9
6551  ,6.084e+08   ,2.5  ,-0.72473  ,4.9
6564  ,1.121e+10   ,2.1331  ,2.4973  ,4.923
6565  ,5.879e+09   ,2.0345  ,2.5  ,4.9
6572  ,2.624e+08   ,2.4  ,-1.7  ,0
6581  ,1.111e+09   ,0  ,2.3  ,0.2
6592  ,7.069e+08   ,2.3  ,-1.9695  ,0.2
6594  ,5.958e+08   ,0.3  ,2.4  ,0
6601  ,7.098e+08   ,0.5  ,2.5  ,0.1
6605  ,4.577e+08   ,-2.4  ,-1.3  ,0
6606  ,4.542e+08   ,-2.4  ,-1.1  ,0
6615  ,5.585e+08   ,-2.4  ,-0.3  ,0
6634  ,4.313e+08   ,2.1  ,-2.5  ,4.9
6635  ,8.480e+08   ,2.4  ,-2.4707  ,4.9707
6636  ,9.717e+08   ,2.3  ,-2.4  ,5
6647  ,3.686e+08   ,0.5  ,-2.5  ,0.1
6704  ,4.311e+07   ,-2.4707  ,2.4707  ,0.1
6708  ,8.121e+07   ,-2.5  ,2.4  ,0.2
6712  ,3.402e+08   ,-2.4  ,2.5  ,3.6
6715  ,4.947e+08   ,-2.4  ,2.5  ,3.4
6728  ,3.721e+08   ,-2.5  ,0.7  ,4.9
6753  ,1.395e+08   ,-2.1044  ,2.4  ,5
6788  ,3.884e+09   ,2.5  ,2.4  ,4.3375
6791  ,8.947e+08   ,-1.933  ,-2.5  ,4.8
6795  ,5.712e+09   ,2.1998  ,2.5  ,4.8333
6837  ,1.338e+08   ,-2.3  ,-2.5  ,0.8063
6869  ,6.479e+08   ,2.5  ,-1.7102  ,4.9
6873  ,7.513e+08   ,2.4  ,-1.9073  ,5
6880  ,6.539e+08   ,2.4  ,-0.92182  ,5
6885  ,6.140e+08   ,2.4  ,-0.52764  ,5
6893  ,1.245e+09   ,2.4  ,1.2462  ,5
6914  ,6.288e+08   ,0.7  ,2.5  ,0.1
6920  ,5.573e+08   ,0.9  ,2.4  ,0
6923  ,6.338e+08   ,0.7  ,2.4  ,0
6936  ,5.324e+08   ,2.4  ,-2.5  ,3.4
6939  ,2.784e+08   ,2.3  ,-2.5  ,3.2226
6961  ,3.806e+08   ,-0.1  ,-2.5  ,4.9
6967  ,3.119e+08   ,-2.5  ,-1.5  ,4.9
6975  ,3.056e+08   ,-2.4  ,1.1  ,5
6978  ,9.773e+07   ,-2.4  ,2.5  ,0.2
6987  ,6.384e+08   ,2.4  ,-1.316  ,5
6994  ,3.317e+08   ,2.4  ,-1.5  ,0
7004  ,4.989e+08   ,2.4  ,-2.5  ,3.6
7011  ,1.014e+09   ,2.4  ,0.65491  ,5
7016  ,8.770e+08   ,2.4  ,0.45782  ,5
7019  ,9.313e+08   ,2.5  ,2.4  ,2.1695
7021  ,9.786e+08   ,2.5  ,2.4  ,1.9724
7052  ,5.387e+08   ,-1.3  ,2.5  ,0.1
7054  ,1.081e+08   ,-2.4  ,-2.5  ,0.8
7057  ,3.529e+08   ,0.3  ,-2.5  ,0.1
7065  ,3.439e+08   ,0.24243  ,-2.5  ,0.2
7075  ,2.257e+10   ,2.4888  ,2.4325  ,4.6656
7113  ,3.081e+08   ,-2.4  ,-2.5  ,2.6
7121  ,3.490e+08   ,-2.4  ,-2.5  ,2.8
7126  ,3.728e+08   ,-2.5  ,-2.4  ,2.8
7128  ,2.232e+08   ,-2.4707  ,-2.4707  ,0.1
7129  ,2.319e+08   ,-2.4  ,-2.4707  ,0.029289
7141  ,8.784e+08   ,-1.7  ,-2.4  ,5
7145  ,4.109e+08   ,1.1  ,2.4  ,0
7163  ,3.335e+08   ,-1.7102  ,2.4  ,5
7172  ,1.023e+09   ,2.5  ,-2.4  ,3.2
7174  ,3.962e+08   ,-2.5  ,2.4  ,3.6
7183  ,5.724e+08   ,-1.4531  ,-2.5  ,4.8
7204  ,1.476e+09   ,2.3  ,-0.81068  ,4.8
7220  ,7.455e+08   ,2.5  ,0.063638  ,4.9
7227  ,3.777e+08   ,2.5  ,-1.9  ,0.1
7256  ,5.847e+07   ,-0.1  ,-2.4  ,5
7280  ,9.139e+08   ,-0.33054  ,2.4  ,5
7299  ,6.220e+08   ,2.5  ,-1.1189  ,4.9
7316  ,2.451e+08   ,-2.5  ,-2.4  ,0.8
7323  ,1.514e+08   ,-2.4  ,-2.5  ,1
7396  ,1.309e+09   ,1.1  ,-2.4  ,5
7400  ,6.732e+08   ,-2.5  ,0.7  ,0.1
7409  ,1.151e+09   ,1.3  ,-2.4  ,5
7420  ,2.028e+08   ,2.5  ,2.1  ,0.1
7429  ,2.242e+08   ,2.4  ,1.9  ,0
7436  ,3.361e+08   ,2.5  ,-1.7  ,0.1
7438  ,4.548e+08   ,2.4  ,-2.5  ,2.8
7445  ,1.817e+10   ,2.4325  ,2.1656  ,4.9888
7464  ,3.052e+08   ,2.5  ,-1.5  ,0.1
7480  ,5.025e+08   ,2.5  ,-2.4  ,0.2
7482  ,2.342e+08   ,1.9  ,-2.5  ,0.1
7483  ,2.936e+08   ,1.7  ,-2.5  ,0.1
7486  ,3.602e+08   ,1.9  ,-2.4  ,5
7488  ,4.921e+08   ,1.6937  ,-2.5  ,4.8
7492  ,1.045e+09   ,2.1  ,-2.4  ,5
7495  ,2.906e+08   ,0.1  ,-2.5  ,0.1
7504  ,3.606e+08   ,0.3  ,-2.4  ,0
7507  ,3.567e+08   ,0.9  ,-2.5  ,0.1
7533  ,6.529e+08   ,-2.5  ,0.9  ,0.1
7536  ,3.618e+08   ,-2.4  ,-2.5  ,3.2
7540  ,3.676e+08   ,-2.4  ,-2.5  ,3
7545  ,5.305e+08   ,-2.5  ,-2.4  ,3
7582  ,2.714e+08   ,1.3  ,2.5  ,0.1
7588  ,1.043e+09   ,2.5  ,2.4  ,2.3665
7598  ,2.934e+08   ,-2.5  ,2.4  ,4.2
7607  ,7.452e+08   ,1.5333  ,2.3  ,0.2
7627  ,2.877e+08   ,-2.5  ,1.1  ,4.9
7651  ,3.252e+08   ,2.4  ,-1.9  ,0
7656  ,1.648e+08   ,2.5  ,2.4  ,0.39564
7660  ,6.860e+09   ,2.2299  ,2.3  ,4.7299
7668  ,3.050e+08   ,1.4531  ,-2.5  ,4.8
7676  ,4.551e+08   ,0.1  ,-2.5  ,4.9
7683  ,2.289e+08   ,0.1  ,-2.4  ,5
7686  ,3.698e+08   ,-2.4  ,-1.1  ,5
7702  ,2.148e+08   ,-2.3  ,-2.5  ,4.433
7710  ,3.684e+08   ,-2.3  ,-2.5  ,4.6765
7752  ,1.225e+09   ,0.9  ,-2.4  ,5
7763  ,5.316e+08   ,0.24243  ,-2.5  ,4.8
7767  ,6.704e+08   ,-2.5  ,-2.4  ,3.2
7768  ,2.006e+08   ,-2.4  ,-2.1  ,0
7776  ,6.345e+08   ,-2.4  ,0.9  ,0
7786  ,6.998e+08   ,-0.4838  ,-2.5  ,4.8
7800  ,9.961e+08   ,2.5  ,-2.4  ,4.6
7805  ,2.900e+08   ,-2.5  ,-1.3  ,4.9
7811  ,3.238e+08   ,-2.5  ,-1.1  ,4.9
7820  ,3.976e+08   ,2.5  ,-2.1  ,0.1
7824  ,3.536e+08   ,2.4  ,-2.1  ,0
7828  ,5.091e+08   ,2.4  ,-2.5  ,4.2
7831  ,6.081e+08   ,2.4  ,-2.5  ,4
7838  ,2.951e+08   ,2.5  ,-2.4  ,4.2
7839  ,1.057e+09   ,2.5  ,2.4  ,2.7607
7840  ,1.183e+09   ,2.5  ,2.4  ,2.9578
7863  ,3.730e+08   ,-2.4  ,-1.5  ,0
7890  ,3.835e+08   ,2.4  ,0.9  ,0
7897  ,3.836e+08   ,-2.4  ,-0.7  ,0
7912  ,3.768e+08   ,-1.5  ,-2.4  ,0
7917  ,2.293e+08   ,-1.3  ,-2.5  ,0.1
7931  ,6.055e+08   ,0.5  ,2.4  ,0
7934  ,9.843e+08   ,1.1  ,-2.4  ,0
7937  ,1.810e+08   ,2.4  ,-2.5  ,0.8
7941  ,1.748e+08   ,-2.4  ,-2.5  ,0.6
7969  ,1.011e+08   ,-2.5  ,2.3  ,0.1
7971  ,3.704e+08   ,-2.4  ,1.9  ,0
7972  ,3.868e+08   ,-1.9  ,2.5  ,0.1
7978  ,5.925e+08   ,-2.4  ,1.1  ,0
7996  ,4.143e+08   ,-2.4  ,-0.5  ,5
8000  ,1.040e+08   ,-2.5  ,-2.4  ,0.6
8003  ,3.076e+08   ,-2.5  ,-2.4  ,0.4
8025  ,4.814e+08   ,0.9  ,2.5  ,0.1
8035  ,7.724e+08   ,0.3  ,2.5  ,0.1
8039  ,9.552e+08   ,2.3  ,-2.5  ,0.32348
8041  ,6.639e+08   ,2.3  ,-2.3379  ,0.2
8043  ,3.842e+08   ,2.1765  ,-2.5  ,0.2
8045  ,2.149e+08   ,-0.96359  ,-2.5  ,0.2
8054  ,3.242e+08   ,1.3  ,2.4  ,0
8058  ,3.633e+08   ,1.1  ,2.5  ,0.1
8062  ,5.069e+08   ,-2.5  ,2.4  ,1.4
8067  ,3.279e+08   ,-2.5  ,2.4  ,0.8
8087  ,5.186e+08   ,-2.5  ,1.5  ,0.1
8132  ,9.966e+08   ,-0.13345  ,2.4  ,5
8183  ,4.313e+08   ,2.5  ,-0.9  ,0.1
8184  ,2.931e+08   ,1.6937  ,-2.5  ,0.2
8214  ,2.828e+08   ,-2.4707  ,-2.4  ,4.9707
8217  ,9.383e+08   ,-2.1  ,-2.4  ,5
8219  ,2.758e+08   ,-2.4  ,-2.5  ,4.4
8227  ,1.358e+09   ,2.5  ,2.4  ,3.1549
8242  ,4.345e+08   ,0.7  ,-2.5  ,4.9
8248  ,1.292e+09   ,2.5  ,-2.4  ,3.6
8254  ,3.031e+08   ,2.5  ,-0.3  ,0.1
8256  ,3.977e+08   ,2.5  ,-0.5  ,0.1
8258  ,2.426e+08   ,-0.3  ,-2.5  ,4.9
8263  ,3.302e+08   ,-0.5  ,-2.5  ,4.9
8268  ,4.642e+08   ,-2.3  ,-2.5  ,3.7085
8277  ,2.943e+08   ,-0.1  ,-2.5  ,0.1
8285  ,5.004e+08   ,1.1  ,-2.5  ,4.9
8307  ,5.905e+08   ,0.1  ,2.4  ,0
8308  ,3.951e+08   ,-0.1  ,2.5  ,0.1
8309  ,5.884e+08   ,-0.1  ,2.4  ,0
8313  ,3.893e+08   ,2.5  ,-2.3  ,0.1
8318  ,6.693e+08   ,2.5  ,-2.4  ,3
8338  ,1.285e+09   ,2.5  ,2.4  ,3.352
8339  ,1.402e+09   ,2.4  ,2.5  ,3.1549
8344  ,5.222e+08   ,-2.5  ,2.4  ,3.4
8357  ,1.738e+10   ,2.4888  ,2.1656  ,4.9325
8358  ,5.438e+09   ,2.5  ,2.1998  ,4.8333
8383  ,2.406e+08   ,-1.7  ,-2.4  ,0
8396  ,3.274e+08   ,1.1  ,-2.5  ,0.1
8399  ,7.010e+09   ,2.4526  ,2.1331  ,4.9851
8405  ,7.435e+08   ,2.5  ,-2.4  ,1
8412  ,8.181e+08   ,2.3  ,-2.5  ,0.8063
8417  ,4.515e+08   ,-2.3  ,-2.5  ,2.5
8434  ,4.783e+08   ,0.9636  ,-2.5  ,4.8
8438  ,3.388e+08   ,-0.3  ,-2.5  ,0.1
8452  ,2.821e+08   ,-2.4  ,-0.1  ,5
8468  ,1.506e+09   ,2.5  ,2.4  ,3.7462
8471  ,2.554e+08   ,-1.3  ,-2.5  ,4.9
8493  ,4.342e+08   ,-1.1  ,-2.5  ,4.9
8509  ,3.311e+08   ,-2.5  ,-1.7  ,0.1
8517  ,6.101e+08   ,-2.4  ,2.5  ,3
8531  ,4.406e+08   ,-2.4  ,1.7  ,0
8556  ,1.341e+09   ,2.5  ,2.4  ,3.5491
8573  ,6.824e+08   ,-1.316  ,2.4  ,5
8576  ,5.515e+08   ,-2.4  ,1.3  ,0
8611  ,3.622e+08   ,2.3  ,-2.5  ,1.2915
8618  ,2.395e+08   ,-2.4  ,2.5  ,4
8646  ,6.150e+08   ,-2.5  ,1.1  ,0.1
8656  ,3.668e+08   ,2.5  ,-1.3  ,0.1
8657  ,1.922e+08   ,2.4  ,2.1  ,0
8673  ,4.871e+08   ,-1.3  ,2.4  ,0
8692  ,2.615e+08   ,0.72263  ,-2.5  ,4.8
8696  ,6.376e+08   ,2.3  ,-2.5  ,1.0469
8706  ,9.381e+08   ,2.5  ,0.65491  ,4.9
8721  ,3.174e+08   ,-2.4  ,-2.5  ,1.6
8725  ,1.321e+09   ,0.65491  ,2.4  ,5
8739  ,1.882e+10   ,2.1656  ,2.4325  ,4.9888
8741  ,5.885e+09   ,2.1998  ,2.3333  ,5
8746  ,2.791e+08   ,-2.1  ,-2.4  ,0
8748  ,4.145e+08   ,-2.5  ,-2.4  ,1.2
8752  ,8.588e+09   ,2.1331  ,2.4526  ,4.9851
8759  ,8.467e+07   ,-2.3  ,-2.5  ,1.0469
8787  ,1.247e+08   ,-0.1  ,-2.4  ,0
8793  ,4.932e+08   ,-2.3  ,-2.5  ,2.2576
8795  ,2.979e+08   ,-2.4  ,-2.5  ,2.4
8798  ,3.090e+08   ,-2.3  ,-2.5  ,4.1937
8808  ,4.278e+08   ,-2.3  ,-2.5  ,3.9531
8814  ,4.959e+08   ,-2.4  ,-1.5  ,5
8849  ,1.317e+08   ,0.4838  ,-2.5  ,4.8
8851  ,3.033e+08   ,-2.4  ,-2.5  ,4.2
8868  ,4.784e+08   ,2.4  ,-2.5  ,3
8874  ,1.342e+09   ,0.852  ,2.4  ,5
8883  ,3.792e+08   ,-0.5  ,-2.4  ,5
8886  ,5.982e+08   ,-0.72262  ,-2.5  ,4.8
8893  ,4.082e+08   ,-0.7  ,-2.5  ,4.9
8897  ,9.825e+08   ,-2.5  ,-2.4  ,3.6
8899  ,3.086e+08   ,-2.3  ,-2.5  ,3.4636
8900  ,1.936e+08   ,-2.3  ,-1.4729  ,0.2
8906  ,4.523e+08   ,-2.5  ,-1.3  ,0.1
8910  ,1.360e+09   ,0.852  ,2.5  ,4.9
8925  ,5.688e+08   ,-2.4  ,2.5  ,1.4
8941  ,1.036e+08   ,2.4707  ,2.4  ,0.029289
8942  ,1.484e+08   ,2.5  ,2.3  ,0.1
8945  ,3.227e+08   ,-2.5  ,0.1  ,4.9
8950  ,8.981e+07   ,2.4707  ,2.4707  ,0.1
8951  ,9.730e+07   ,2.4  ,2.4707  ,0.029289
8959  ,6.692e+08   ,2.4  ,0.26073  ,5
8965  ,1.189e+09   ,0.45782  ,2.4  ,5
8978  ,9.024e+08   ,2.4  ,0.852  ,5
8983  ,3.974e+08   ,2.5  ,-1.1  ,0.1
8991  ,2.408e+08   ,-2.5  ,2.4  ,0.6
9008  ,9.146e+08   ,2.5  ,0.852  ,4.9
9011  ,4.556e+08   ,-2.4  ,-0.5  ,0
9025  ,1.641e+08   ,-1.5  ,-2.5  ,0.1
9038  ,3.200e+08   ,2.4  ,-2.5  ,2
9041  ,4.360e+08   ,2.5  ,0.9  ,0.1
9050  ,3.695e+08   ,2.5  ,0.5  ,0.1
9054  ,8.319e+08   ,0.9  ,-2.4  ,0
9060  ,4.117e+08   ,2.4  ,-2.5  ,0.4
9062  ,8.852e+08   ,2.3  ,-2.5  ,0.56701
9064  ,7.435e+08   ,2.5  ,-2.4  ,0.4
9069  ,4.024e+08   ,2.4  ,-2.5  ,0.6
9071  ,4.509e+08   ,1.4531  ,-2.5  ,0.2
9082  ,8.321e+07   ,-2.3  ,-2.5  ,1.2915
9086  ,2.649e+08   ,-2.4  ,-2.5  ,1.4
9091  ,3.984e+08   ,-2.5  ,-2.4  ,1.4
9094  ,5.090e+08   ,1.3  ,-2.5  ,4.9
9097  ,3.308e+08   ,-0.7  ,-2.5  ,0.1
9137  ,3.162e+08   ,-2.5  ,-0.7  ,4.9
9143  ,2.808e+08   ,-2.5  ,-0.1  ,4.9
9146  ,1.759e+08   ,-2.1  ,2.4  ,0
9148  ,2.245e+08   ,-2.5  ,1.7  ,4.9
9173  ,5.512e+08   ,-2.5  ,2.4  ,3
9192  ,4.728e+08   ,-0.7  ,-2.4  ,5
9195  ,1.123e+08   ,0.72263  ,-2.5  ,0.2
9209  ,1.227e+09   ,2.5  ,-2.4  ,3.4
9215  ,2.940e+08   ,0.9636  ,-2.5  ,0.2
9217  ,5.420e+08   ,2.4  ,-2.5  ,3.2
9218  ,3.666e+08   ,-0.96359  ,-2.5  ,4.8
9229  ,5.786e+08   ,-2.4  ,2.5  ,2.8
9248  ,9.170e+08   ,2.3  ,-2.5  ,4.433
9255  ,2.979e+08   ,2.5  ,1.3  ,0.1
9257  ,2.378e+08   ,2.4  ,1.5  ,0
9262  ,6.919e+08   ,0.5  ,-2.4  ,5
9264  ,5.961e+08   ,2.4  ,-0.13345  ,5
9272  ,9.141e+08   ,0.063638  ,2.4  ,5
9277  ,4.482e+08   ,-2.5  ,2.4  ,1.2
9279  ,7.199e+08   ,2.5  ,0.26073  ,4.9
9282  ,4.864e+08   ,1.2085  ,-2.5  ,4.8
9286  ,4.701e+08   ,0.9  ,-2.5  ,4.9
9292  ,8.996e+07   ,-2.4  ,2.4707  ,4.9707
9293  ,8.283e+07   ,-2.3015  ,2.4  ,5
9296  ,4.298e+08   ,-2.4  ,-2.1  ,5
9303  ,4.416e+08   ,-2.4  ,-1.9  ,5
9311  ,1.555e+08   ,-2.4  ,2.3  ,5
9313  ,2.881e+08   ,-2.4  ,0.1  ,5
9319  ,1.836e+08   ,-0.5  ,-2.4  ,0
9328  ,2.078e+08   ,-2.3  ,-2.5  ,1.5364
9334  ,1.105e+08   ,-2.3  ,2.5  ,0.1
9338  ,1.407e+08   ,-2.5  ,-2.4  ,2.4
9339  ,5.643e+08   ,-2.5  ,1.3  ,0.1
9341  ,3.166e+08   ,-2.3  ,-2.5  ,2.7424
9344  ,1.308e+08   ,-2.5  ,-2.4  ,2.2
9358  ,1.431e+09   ,-2.3  ,2.3  ,2.5
9364  ,4.227e+08   ,-2.5  ,-2.1  ,4.9
9367  ,4.484e+08   ,-2.4  ,-2.3  ,5
9374  ,4.011e+08   ,-2.4  ,-1.3  ,5
9378  ,6.335e+08   ,-2.5  ,2.4  ,1.8
9384  ,6.726e+08   ,2.3  ,-2.5  ,2.0162
9385  ,2.434e+08   ,-2.5  ,2.4  ,4.4
9389  ,5.804e+08   ,-2.5  ,2.4  ,2
9395  ,6.894e+08   ,2.4  ,-2.3015  ,5
9396  ,2.815e+08   ,-2.4  ,-1.7  ,0
9407  ,7.003e+08   ,-2.3  ,-1.4729  ,4.8
9411  ,2.974e+08   ,-2.5  ,-1.7  ,4.9
9423  ,3.104e+08   ,-2.4  ,-2.5  ,3.6
9432  ,9.907e+08   ,0.7  ,-2.4  ,5
9438  ,3.111e+08   ,-2.5  ,-0.9  ,4.9
9443  ,3.117e+08   ,-2.5  ,-0.3  ,4.9
9445  ,9.716e+07   ,-2.4707  ,2.4  ,4.9707
9448  ,6.003e+08   ,2.4  ,-1.1189  ,5
9453  ,4.273e+08   ,2.4  ,0.7  ,0
9455  ,2.435e+08   ,2.5  ,-2.4  ,2.6
9457  ,1.937e+08   ,2.3  ,-2.5  ,2.9838
9494  ,4.786e+08   ,-2.4  ,2.5  ,1
9500  ,5.059e+08   ,0.3  ,-2.5  ,4.9
9504  ,4.346e+08   ,0.3  ,-2.4  ,5
9506  ,3.344e+08   ,2.1  ,-2.5  ,0.1
9518  ,1.841e+08   ,-1.9  ,-2.5  ,0.1
9528  ,4.481e+08   ,2.3  ,-2.5  ,0.1
9531  ,4.290e+08   ,2.4707  ,-2.4707  ,0.1
9533  ,3.065e+08   ,2.4707  ,-2.4  ,0.029289
9534  ,4.042e+08   ,2.4  ,-2.4707  ,0.029289
9541  ,4.544e+08   ,0.5  ,-2.5  ,4.9
9544  ,3.468e+08   ,-0.5  ,-2.5  ,0.1
9559  ,3.588e+08   ,-2.5  ,-1.9  ,4.9
9562  ,1.742e+08   ,-2.5  ,2.4  ,4.6
9565  ,6.245e+08   ,-2.4  ,2.5  ,2
9571  ,9.626e+08   ,-2.5  ,-2.4  ,3.8
9574  ,2.938e+08   ,-2.4  ,-2.5  ,3.8
9577  ,3.161e+08   ,1.3  ,-2.5  ,0.1
9582  ,3.412e+08   ,-2.5  ,-0.9  ,0.1
9596  ,1.615e+08   ,2.1  ,2.4  ,0
9598  ,6.401e+08   ,-2.4  ,2.5  ,3.2
9602  ,2.645e+08   ,1.5  ,2.5  ,0.1
9610  ,1.574e+08   ,2.4  ,2.5  ,0.39564
9612  ,1.045e+09   ,-0.72473  ,2.5  ,4.9
9614  ,2.513e+08   ,1.7  ,2.5  ,0.1
9635  ,2.461e+08   ,2.5  ,1.7  ,0.1
9646  ,1.390e+08   ,2.3  ,2.5  ,0.1
9651  ,1.782e+10   ,2.1656  ,2.4888  ,4.9325
9653  ,5.966e+08   ,2.5  ,-1.316  ,4.9
9656  ,3.456e+08   ,-2.4  ,-1.7  ,5
9659  ,1.373e+09   ,2.3  ,-2.5  ,4.6765
9661  ,3.340e+08   ,2.3  ,-2.5  ,3.9531
9664  ,5.627e+08   ,-2.3  ,-2.4  ,5
9666  ,2.899e+08   ,1.9  ,-2.4  ,0
9677  ,3.588e+08   ,2.4  ,0.5  ,0
9678  ,4.025e+08   ,-2.5  ,-1.1  ,0.1
9680  ,6.009e+08   ,2.5  ,2.4  ,1.184
9681  ,8.257e+07   ,2.5  ,2.4  ,0.19855
9696  ,4.773e+08   ,-2.3  ,-2.5  ,2.0162
9698  ,3.677e+08   ,2.4  ,-2.3  ,0
9699  ,4.894e+08   ,-0.24243  ,-2.5  ,0.2
9701  ,1.544e+08   ,0.1  ,-2.4  ,0
9704  ,4.572e+08   ,-0.4838  ,-2.5  ,0.2
9718  ,4.088e+08   ,-0.72262  ,-2.5  ,0.2
9726  ,8.801e+08   ,2.3  ,-0.76628  ,0.2
9727  ,1.520e+08   ,-2.5  ,2.4  ,0.4
9730  ,6.772e+08   ,1.9433E-06  ,-2.5  ,4.8
9731  ,6.883e+08   ,-0.24243  ,-2.5  ,4.8
9732  ,5.577e+08   ,-2.5  ,2.4  ,2.2
9738  ,8.251e+08   ,-2.5  ,-2.4  ,4
9743  ,8.131e+08   ,-1.6937  ,-2.5  ,4.8
9744  ,2.737e+08   ,-2.4  ,-2.5  ,4
9750  ,1.195e+08   ,-1.7  ,-2.5  ,0.1
9752  ,1.387e+08   ,-1.6937  ,-2.5  ,0.2
9754  ,4.229e+08   ,-1.3  ,-2.4  ,0
9759  ,2.900e+07   ,-2.4707  ,2.4  ,0.029289
9760  ,3.150e+07   ,-2.4  ,2.4707  ,0.029289
9768  ,5.006e+08   ,2.3  ,-2.5  ,4.1937
9770  ,4.948e+08   ,1.9433E-06  ,-2.5  ,0.2
9771  ,1.472e+08   ,0.4838  ,-2.5  ,0.2
9772  ,5.322e+08   ,2.4  ,-2.5  ,0.2
9773  ,3.775e+08   ,2.4  ,-2.5  ,4.6
9776  ,6.206e+08   ,2.4  ,0.063638  ,5
9780  ,1.338e+09   ,0.65491  ,2.5  ,4.9
9781  ,9.193e+07   ,2.4  ,2.5  ,0.19855
9782  ,1.449e+08   ,-2.3  ,-2.5  ,2.9838
9786  ,6.800e+07   ,-1.2085  ,-2.5  ,0.2
9787  ,9.931e+07   ,-1.4531  ,-2.5  ,0.2
9790  ,3.779e+08   ,2.3  ,-2.4  ,0
9793  ,5.827e+09   ,2.0345  ,2.4  ,5
9797  ,3.432e+08   ,2.3  ,-2.5  ,1.5364
9798  ,9.398e+08   ,2.4  ,1.0491  ,5
9809  ,1.253e+09   ,2.4  ,2.5  ,3.352
