Date:  11:11, Monday, July 10, 2023
Model name: Hollow_DropBox
Study name: Drop Test_hollow_draft1(-Default-)
Plot type:  Stress1
Plot step: 1   time : 5.23047 Microseconds
Result Type: von Mises 


Node  ,Value (N/m^2)  ,X (in)  ,Y (in)  ,Z (in)
1  ,1.312e+09   ,2.5  ,2.1331  ,4.9
2  ,6.374e+09   ,2.4577  ,2.1908  ,4.9577
3  ,2.052e+09   ,2.4894  ,2.1331  ,4.9447
4  ,1.269e+09   ,2.1331  ,2.5  ,4.9
5  ,1.916e+09   ,2.1331  ,2.4894  ,4.9447
6  ,5.927e+09   ,2.1908  ,2.4577  ,4.9577
7  ,1.250e+05   ,-2.4  ,2.4  ,5
8  ,4.460e+00   ,-2.4  ,-2.4  ,5
9  ,3.554e+02   ,2.4  ,-2.4  ,5
10  ,1.115e+09   ,2.4  ,2.1331  ,5
11  ,1.354e+09   ,2.1331  ,2.4  ,5
12  ,4.391e+02   ,2.5  ,-2.4  ,4.9
13  ,3.511e+00   ,2.5  ,-2.4  ,0.1
14  ,1.251e+05   ,2.5  ,2.4  ,0.1
15  ,1.484e+09   ,2.5  ,2.4  ,4.6331
16  ,1.126e+05   ,2.4  ,2.5  ,0.1
17  ,7.651e+03   ,-2.4  ,2.5  ,0.1
18  ,1.359e+05   ,-2.4  ,2.5  ,4.9
19  ,1.533e+09   ,2.4  ,2.5  ,4.6331
20  ,6.021e+03   ,-2.5  ,2.4  ,0.1
21  ,3.599e-04   ,-2.5  ,-2.4  ,0.1
22  ,2.236e+00   ,-2.5  ,-2.4  ,4.9
23  ,1.018e+05   ,-2.5  ,2.4  ,4.9
24  ,2.726e-04   ,-2.3  ,-2.5  ,0.2
25  ,1.848e+00   ,-2.3  ,-2.5  ,4.8
26  ,3.762e+02   ,2.3  ,-2.5  ,4.8
27  ,3.149e+00   ,2.3  ,-2.5  ,0.2
28  ,8.308e-01   ,-2.4  ,-2.5  ,4.9
29  ,2.250e+02   ,2.4  ,-2.5  ,4.9
30  ,7.280e-05   ,-2.4  ,-2.5  ,0.1
31  ,2.200e+00   ,2.4  ,-2.5  ,0.1
32  ,2.388e+00   ,2.4  ,-2.4  ,0
33  ,8.352e+04   ,2.4  ,2.4  ,0
34  ,3.905e-04   ,-2.4  ,-2.4  ,0
35  ,5.115e+03   ,-2.4  ,2.4  ,0
36  ,5.530e+09   ,2.4577  ,2.4577  ,4.6908
37  ,2.432e+05   ,-2.3  ,2.3  ,4.8
38  ,1.856e+09   ,2.1599  ,2.3  ,4.8
39  ,1.807e+09   ,2.3  ,2.1599  ,4.8
40  ,1.744e+09   ,2.3  ,2.3  ,4.6599
41  ,2.178e+05   ,2.3  ,2.3  ,0.2
42  ,8.508e+03   ,-2.3  ,2.3  ,0.2
43  ,1.220e+05   ,-2.4  ,2.2  ,5
44  ,1.632e+05   ,-2.4  ,2  ,5
45  ,1.585e+05   ,-2.4  ,1.8  ,5
46  ,1.761e+05   ,-2.4  ,1.6  ,5
47  ,1.574e+05   ,-2.4  ,1.4  ,5
48  ,1.787e+05   ,-2.4  ,1.2  ,5
49  ,1.753e+05   ,-2.4  ,1  ,5
50  ,1.018e+05   ,-2.4  ,0.8  ,5
51  ,5.699e+04   ,-2.4  ,0.6  ,5
52  ,5.476e+04   ,-2.4  ,0.4  ,5
53  ,4.176e+04   ,-2.4  ,0.2  ,5
54  ,5.276e+04   ,-2.4  ,5.8879E-16  ,5
55  ,7.412e+04   ,-2.4  ,-0.2  ,5
56  ,5.736e+04   ,-2.4  ,-0.4  ,5
57  ,1.613e+04   ,-2.4  ,-0.6  ,5
58  ,1.291e+04   ,-2.4  ,-0.8  ,5
59  ,7.475e+03   ,-2.4  ,-1  ,5
60  ,8.099e+03   ,-2.4  ,-1.2  ,5
61  ,2.748e+03   ,-2.4  ,-1.4  ,5
62  ,1.148e+03   ,-2.4  ,-1.6  ,5
63  ,4.374e+02   ,-2.4  ,-1.8  ,5
64  ,5.894e+01   ,-2.4  ,-2  ,5
65  ,1.299e+01   ,-2.4  ,-2.2  ,5
66  ,8.395e+00   ,-2.2  ,-2.4  ,5
67  ,1.258e+01   ,-2  ,-2.4  ,5
68  ,2.537e+01   ,-1.8  ,-2.4  ,5
69  ,2.060e+01   ,-1.6  ,-2.4  ,5
70  ,1.522e+01   ,-1.4  ,-2.4  ,5
71  ,2.185e+01   ,-1.2  ,-2.4  ,5
72  ,5.769e+00   ,-1  ,-2.4  ,5
73  ,1.051e+01   ,-0.8  ,-2.4  ,5
74  ,1.012e+02   ,-0.6  ,-2.4  ,5
75  ,6.731e+01   ,-0.4  ,-2.4  ,5
76  ,9.853e+01   ,-0.2  ,-2.4  ,5
77  ,1.102e+02   ,-5.8879E-16  ,-2.4  ,5
78  ,9.791e+01   ,0.2  ,-2.4  ,5
79  ,1.958e+02   ,0.4  ,-2.4  ,5
80  ,1.198e+02   ,0.6  ,-2.4  ,5
81  ,9.884e+01   ,0.8  ,-2.4  ,5
82  ,2.382e+02   ,1  ,-2.4  ,5
83  ,1.805e+02   ,1.2  ,-2.4  ,5
84  ,1.600e+02   ,1.4  ,-2.4  ,5
85  ,3.349e+02   ,1.6  ,-2.4  ,5
86  ,9.570e+02   ,1.8  ,-2.4  ,5
87  ,1.417e+03   ,2  ,-2.4  ,5
88  ,3.431e+02   ,2.2  ,-2.4  ,5
89  ,1.241e+03   ,2.4  ,-2.2029  ,5
90  ,5.907e+03   ,2.4  ,-2.0058  ,5
91  ,3.071e+04   ,2.4  ,-1.8087  ,5
92  ,7.849e+04   ,2.4  ,-1.6116  ,5
93  ,1.934e+05   ,2.4  ,-1.4145  ,5
94  ,9.248e+05   ,2.4  ,-1.2175  ,5
95  ,8.347e+05   ,2.4  ,-1.0204  ,5
96  ,2.090e+06   ,2.4  ,-0.82327  ,5
97  ,2.305e+06   ,2.4  ,-0.62618  ,5
98  ,1.097e+07   ,2.4  ,-0.42909  ,5
99  ,1.187e+07   ,2.4  ,-0.232  ,5
100  ,1.355e+07   ,2.4  ,-0.034907  ,5
101  ,1.809e+07   ,2.4  ,0.16218  ,5
102  ,2.869e+07   ,2.4  ,0.35927  ,5
103  ,6.328e+07   ,2.4  ,0.55637  ,5
104  ,1.155e+08   ,2.4  ,0.75346  ,5
105  ,1.459e+08   ,2.4  ,0.95055  ,5
106  ,1.223e+08   ,2.4  ,1.1476  ,5
107  ,1.500e+08   ,2.4  ,1.3447  ,5
108  ,2.110e+08   ,2.4  ,1.5418  ,5
109  ,4.424e+08   ,2.4  ,1.7389  ,5
110  ,8.083e+08   ,2.4  ,1.936  ,5
111  ,1.466e+09   ,2.2665  ,2.2665  ,5
112  ,8.185e+08   ,1.936  ,2.4  ,5
113  ,4.707e+08   ,1.7389  ,2.4  ,5
114  ,2.597e+08   ,1.5418  ,2.4  ,5
115  ,1.071e+08   ,1.3447  ,2.4  ,5
116  ,1.113e+08   ,1.1476  ,2.4  ,5
117  ,1.628e+08   ,0.95055  ,2.4  ,5
118  ,1.063e+08   ,0.75346  ,2.4  ,5
119  ,4.014e+07   ,0.55637  ,2.4  ,5
120  ,1.893e+07   ,0.35927  ,2.4  ,5
121  ,1.243e+07   ,0.16218  ,2.4  ,5
122  ,7.984e+06   ,-0.034907  ,2.4  ,5
123  ,6.558e+06   ,-0.232  ,2.4  ,5
124  ,8.094e+06   ,-0.42909  ,2.4  ,5
125  ,6.212e+06   ,-0.62618  ,2.4  ,5
126  ,4.734e+06   ,-0.82327  ,2.4  ,5
127  ,1.510e+06   ,-1.0204  ,2.4  ,5
128  ,4.075e+05   ,-1.2175  ,2.4  ,5
129  ,3.343e+05   ,-1.4145  ,2.4  ,5
130  ,2.560e+05   ,-1.6116  ,2.4  ,5
131  ,2.608e+05   ,-1.8087  ,2.4  ,5
132  ,2.028e+05   ,-2.0058  ,2.4  ,5
133  ,2.094e+05   ,-2.2029  ,2.4  ,5
294  ,1.484e+03   ,2.5  ,-2.2029  ,4.9
295  ,5.616e+03   ,2.5  ,-2.0058  ,4.9
296  ,2.661e+04   ,2.5  ,-1.8087  ,4.9
297  ,6.253e+04   ,2.5  ,-1.6116  ,4.9
298  ,2.173e+05   ,2.5  ,-1.4145  ,4.9
299  ,7.845e+05   ,2.5  ,-1.2175  ,4.9
300  ,1.084e+06   ,2.5  ,-1.0204  ,4.9
301  ,1.738e+06   ,2.5  ,-0.82327  ,4.9
302  ,3.201e+06   ,2.5  ,-0.62618  ,4.9
303  ,9.724e+06   ,2.5  ,-0.42909  ,4.9
304  ,1.274e+07   ,2.5  ,-0.232  ,4.9
305  ,1.249e+07   ,2.5  ,-0.034907  ,4.9
306  ,1.473e+07   ,2.5  ,0.16218  ,4.9
307  ,2.929e+07   ,2.5  ,0.35927  ,4.9
308  ,6.831e+07   ,2.5  ,0.55637  ,4.9
309  ,1.129e+08   ,2.5  ,0.75346  ,4.9
310  ,1.951e+08   ,2.5  ,0.95055  ,4.9
311  ,1.350e+08   ,2.5  ,1.1476  ,4.9
312  ,1.524e+08   ,2.5  ,1.3447  ,4.9
313  ,2.586e+08   ,2.5  ,1.5418  ,4.9
314  ,5.607e+08   ,2.5  ,1.7389  ,4.9
315  ,8.900e+08   ,2.5  ,1.936  ,4.9
316  ,3.875e+02   ,2.5  ,-2.4  ,4.7
317  ,1.334e+03   ,2.5  ,-2.4  ,4.5
318  ,7.165e+02   ,2.5  ,-2.4  ,4.3
319  ,4.451e+02   ,2.5  ,-2.4  ,4.1
320  ,4.518e+02   ,2.5  ,-2.4  ,3.9
321  ,5.239e+02   ,2.5  ,-2.4  ,3.7
322  ,1.119e+02   ,2.5  ,-2.4  ,3.5
323  ,1.570e+02   ,2.5  ,-2.4  ,3.3
324  ,4.972e+01   ,2.5  ,-2.4  ,3.1
325  ,1.904e+02   ,2.5  ,-2.4  ,2.9
326  ,1.084e+02   ,2.5  ,-2.4  ,2.7
327  ,2.474e+02   ,2.5  ,-2.4  ,2.5
328  ,5.396e+01   ,2.5  ,-2.4  ,2.3
329  ,6.354e+01   ,2.5  ,-2.4  ,2.1
330  ,6.283e+01   ,2.5  ,-2.4  ,1.9
331  ,9.835e+00   ,2.5  ,-2.4  ,1.7
332  ,1.697e+01   ,2.5  ,-2.4  ,1.5
333  ,1.224e+01   ,2.5  ,-2.4  ,1.3
334  ,1.039e+01   ,2.5  ,-2.4  ,1.1
335  ,1.750e+01   ,2.5  ,-2.4  ,0.9
336  ,2.375e+01   ,2.5  ,-2.4  ,0.7
337  ,2.533e+01   ,2.5  ,-2.4  ,0.5
338  ,1.181e+01   ,2.5  ,-2.4  ,0.3
339  ,2.637e+01   ,2.5  ,-2.2  ,0.1
340  ,1.144e+02   ,2.5  ,-2  ,0.1
341  ,6.714e+02   ,2.5  ,-1.8  ,0.1
342  ,1.523e+03   ,2.5  ,-1.6  ,0.1
343  ,1.688e+03   ,2.5  ,-1.4  ,0.1
344  ,8.813e+03   ,2.5  ,-1.2  ,0.1
345  ,1.708e+04   ,2.5  ,-1  ,0.1
346  ,2.372e+04   ,2.5  ,-0.8  ,0.1
347  ,4.717e+04   ,2.5  ,-0.6  ,0.1
348  ,1.349e+05   ,2.5  ,-0.4  ,0.1
349  ,9.591e+04   ,2.5  ,-0.2  ,0.1
350  ,1.795e+05   ,2.5  ,-1.7664E-15  ,0.1
351  ,1.839e+05   ,2.5  ,0.2  ,0.1
352  ,2.385e+05   ,2.5  ,0.4  ,0.1
353  ,4.590e+05   ,2.5  ,0.6  ,0.1
354  ,8.608e+05   ,2.5  ,0.8  ,0.1
355  ,6.107e+05   ,2.5  ,1  ,0.1
356  ,4.492e+05   ,2.5  ,1.2  ,0.1
357  ,3.519e+05   ,2.5  ,1.4  ,0.1
358  ,2.532e+05   ,2.5  ,1.6  ,0.1
359  ,1.239e+05   ,2.5  ,1.8  ,0.1
360  ,1.302e+05   ,2.5  ,2  ,0.1
361  ,2.562e+05   ,2.5  ,2.2  ,0.1
362  ,8.772e+08   ,2.5  ,2.4  ,4.436
363  ,5.919e+08   ,2.5  ,2.4  ,4.2389
364  ,2.519e+08   ,2.5  ,2.4  ,4.0418
365  ,1.185e+08   ,2.5  ,2.4  ,3.8447
366  ,1.033e+08   ,2.5  ,2.4  ,3.6476
367  ,1.680e+08   ,2.5  ,2.4  ,3.4505
368  ,1.120e+08   ,2.5  ,2.4  ,3.2535
369  ,5.163e+07   ,2.5  ,2.4  ,3.0564
370  ,2.534e+07   ,2.5  ,2.4  ,2.8593
371  ,1.498e+07   ,2.5  ,2.4  ,2.6622
372  ,8.198e+06   ,2.5  ,2.4  ,2.4651
373  ,5.352e+06   ,2.5  ,2.4  ,2.268
374  ,7.913e+06   ,2.5  ,2.4  ,2.0709
375  ,8.489e+06   ,2.5  ,2.4  ,1.8738
376  ,4.804e+06   ,2.5  ,2.4  ,1.6767
377  ,2.138e+06   ,2.5  ,2.4  ,1.4796
378  ,1.091e+06   ,2.5  ,2.4  ,1.2825
379  ,5.730e+05   ,2.5  ,2.4  ,1.0855
380  ,2.835e+05   ,2.5  ,2.4  ,0.88836
381  ,2.991e+05   ,2.5  ,2.4  ,0.69127
382  ,3.132e+05   ,2.5  ,2.4  ,0.49418
383  ,2.023e+05   ,2.5  ,2.4  ,0.29709
384  ,1.354e+09   ,2.5  ,2.2665  ,4.7665
544  ,2.936e+05   ,2.2  ,2.5  ,0.1
545  ,3.436e+05   ,2  ,2.5  ,0.1
546  ,2.642e+05   ,1.8  ,2.5  ,0.1
547  ,1.667e+05   ,1.6  ,2.5  ,0.1
548  ,3.003e+05   ,1.4  ,2.5  ,0.1
549  ,4.598e+05   ,1.2  ,2.5  ,0.1
550  ,7.112e+05   ,1  ,2.5  ,0.1
551  ,8.607e+05   ,0.8  ,2.5  ,0.1
552  ,4.983e+05   ,0.6  ,2.5  ,0.1
553  ,2.918e+05   ,0.4  ,2.5  ,0.1
554  ,2.144e+05   ,0.2  ,2.5  ,0.1
555  ,9.406e+04   ,5.8879E-16  ,2.5  ,0.1
556  ,9.657e+04   ,-0.2  ,2.5  ,0.1
557  ,9.337e+04   ,-0.4  ,2.5  ,0.1
558  ,1.254e+05   ,-0.6  ,2.5  ,0.1
559  ,1.192e+05   ,-0.8  ,2.5  ,0.1
560  ,7.244e+04   ,-1  ,2.5  ,0.1
561  ,4.907e+04   ,-1.2  ,2.5  ,0.1
562  ,2.108e+04   ,-1.4  ,2.5  ,0.1
563  ,9.335e+03   ,-1.6  ,2.5  ,0.1
564  ,1.021e+04   ,-1.8  ,2.5  ,0.1
565  ,1.408e+04   ,-2  ,2.5  ,0.1
566  ,1.591e+04   ,-2.2  ,2.5  ,0.1
567  ,1.589e+05   ,-2.4  ,2.5  ,4.7
568  ,1.199e+05   ,-2.4  ,2.5  ,4.5
569  ,1.137e+05   ,-2.4  ,2.5  ,4.3
570  ,2.088e+05   ,-2.4  ,2.5  ,4.1
571  ,4.560e+05   ,-2.4  ,2.5  ,3.9
572  ,5.469e+05   ,-2.4  ,2.5  ,3.7
573  ,5.985e+05   ,-2.4  ,2.5  ,3.5
574  ,6.602e+05   ,-2.4  ,2.5  ,3.3
575  ,3.861e+05   ,-2.4  ,2.5  ,3.1
576  ,3.399e+05   ,-2.4  ,2.5  ,2.9
577  ,1.462e+05   ,-2.4  ,2.5  ,2.7
578  ,1.021e+05   ,-2.4  ,2.5  ,2.5
579  ,1.100e+05   ,-2.4  ,2.5  ,2.3
580  ,1.005e+05   ,-2.4  ,2.5  ,2.1
581  ,7.883e+04   ,-2.4  ,2.5  ,1.9
582  ,7.530e+04   ,-2.4  ,2.5  ,1.7
583  ,4.339e+04   ,-2.4  ,2.5  ,1.5
584  ,2.659e+04   ,-2.4  ,2.5  ,1.3
585  ,1.297e+04   ,-2.4  ,2.5  ,1.1
586  ,6.981e+03   ,-2.4  ,2.5  ,0.9
587  ,6.727e+03   ,-2.4  ,2.5  ,0.7
588  ,7.761e+03   ,-2.4  ,2.5  ,0.5
589  ,1.414e+04   ,-2.4  ,2.5  ,0.3
590  ,9.376e+08   ,1.936  ,2.5  ,4.9
591  ,4.169e+08   ,1.7389  ,2.5  ,4.9
592  ,1.714e+08   ,1.5418  ,2.5  ,4.9
593  ,1.870e+08   ,1.3447  ,2.5  ,4.9
594  ,1.048e+08   ,1.1476  ,2.5  ,4.9
595  ,1.360e+08   ,0.95055  ,2.5  ,4.9
596  ,1.053e+08   ,0.75346  ,2.5  ,4.9
597  ,5.109e+07   ,0.55637  ,2.5  ,4.9
598  ,1.737e+07   ,0.35927  ,2.5  ,4.9
599  ,1.001e+07   ,0.16218  ,2.5  ,4.9
600  ,8.424e+06   ,-0.034907  ,2.5  ,4.9
601  ,7.748e+06   ,-0.232  ,2.5  ,4.9
602  ,8.873e+06   ,-0.42909  ,2.5  ,4.9
603  ,7.868e+06   ,-0.62618  ,2.5  ,4.9
604  ,5.106e+06   ,-0.82327  ,2.5  ,4.9
605  ,1.513e+06   ,-1.0204  ,2.5  ,4.9
606  ,6.308e+05   ,-1.2175  ,2.5  ,4.9
607  ,3.363e+05   ,-1.4145  ,2.5  ,4.9
608  ,2.608e+05   ,-1.6116  ,2.5  ,4.9
609  ,2.977e+05   ,-1.8087  ,2.5  ,4.9
610  ,2.290e+05   ,-2.0058  ,2.5  ,4.9
611  ,1.740e+05   ,-2.2029  ,2.5  ,4.9
612  ,1.385e+09   ,2.2665  ,2.5  ,4.7665
613  ,8.337e+08   ,2.4  ,2.5  ,4.436
614  ,4.266e+08   ,2.4  ,2.5  ,4.2389
615  ,1.824e+08   ,2.4  ,2.5  ,4.0418
616  ,1.619e+08   ,2.4  ,2.5  ,3.8447
617  ,1.284e+08   ,2.4  ,2.5  ,3.6476
618  ,2.034e+08   ,2.4  ,2.5  ,3.4505
619  ,9.620e+07   ,2.4  ,2.5  ,3.2535
620  ,6.037e+07   ,2.4  ,2.5  ,3.0564
621  ,2.261e+07   ,2.4  ,2.5  ,2.8593
622  ,1.417e+07   ,2.4  ,2.5  ,2.6622
623  ,7.083e+06   ,2.4  ,2.5  ,2.4651
624  ,6.312e+06   ,2.4  ,2.5  ,2.268
625  ,6.836e+06   ,2.4  ,2.5  ,2.0709
626  ,8.216e+06   ,2.4  ,2.5  ,1.8738
627  ,5.335e+06   ,2.4  ,2.5  ,1.6767
628  ,2.555e+06   ,2.4  ,2.5  ,1.4796
629  ,1.388e+06   ,2.4  ,2.5  ,1.2825
630  ,6.832e+05   ,2.4  ,2.5  ,1.0855
631  ,2.850e+05   ,2.4  ,2.5  ,0.88836
632  ,1.815e+05   ,2.4  ,2.5  ,0.69127
633  ,2.481e+05   ,2.4  ,2.5  ,0.49418
634  ,2.509e+05   ,2.4  ,2.5  ,0.29709
796  ,5.102e+03   ,-2.5  ,2.2  ,0.1
797  ,3.260e+03   ,-2.5  ,2  ,0.1
798  ,1.048e+03   ,-2.5  ,1.8  ,0.1
799  ,6.514e+02   ,-2.5  ,1.6  ,0.1
800  ,7.467e+02   ,-2.5  ,1.4  ,0.1
801  ,7.859e+02   ,-2.5  ,1.2  ,0.1
802  ,5.523e+02   ,-2.5  ,1  ,0.1
803  ,6.118e+02   ,-2.5  ,0.8  ,0.1
804  ,4.394e+02   ,-2.5  ,0.6  ,0.1
805  ,4.082e+02   ,-2.5  ,0.4  ,0.1
806  ,1.149e+02   ,-2.5  ,0.2  ,0.1
807  ,3.126e+01   ,-2.5  ,5.8879E-16  ,0.1
808  ,3.964e+01   ,-2.5  ,-0.2  ,0.1
809  ,4.961e+01   ,-2.5  ,-0.4  ,0.1
810  ,2.887e+01   ,-2.5  ,-0.6  ,0.1
811  ,2.533e+00   ,-2.5  ,-0.8  ,0.1
812  ,2.474e+00   ,-2.5  ,-1  ,0.1
813  ,1.376e+00   ,-2.5  ,-1.2  ,0.1
814  ,7.212e-01   ,-2.5  ,-1.4  ,0.1
815  ,4.055e-02   ,-2.5  ,-1.6  ,0.1
816  ,3.948e-02   ,-2.5  ,-1.8  ,0.1
817  ,2.235e-02   ,-2.5  ,-2  ,0.1
818  ,9.334e-04   ,-2.5  ,-2.2  ,0.1
819  ,2.468e+00   ,-2.5  ,-2.4  ,4.7
820  ,1.447e+00   ,-2.5  ,-2.4  ,4.5
821  ,3.294e-01   ,-2.5  ,-2.4  ,4.3
822  ,4.705e-01   ,-2.5  ,-2.4  ,4.1
823  ,3.023e-01   ,-2.5  ,-2.4  ,3.9
824  ,1.351e-01   ,-2.5  ,-2.4  ,3.7
825  ,4.237e-02   ,-2.5  ,-2.4  ,3.5
826  ,4.569e-02   ,-2.5  ,-2.4  ,3.3
827  ,2.993e-02   ,-2.5  ,-2.4  ,3.1
828  ,2.124e-02   ,-2.5  ,-2.4  ,2.9
829  ,8.497e-03   ,-2.5  ,-2.4  ,2.7
830  ,2.832e-03   ,-2.5  ,-2.4  ,2.5
831  ,3.315e-03   ,-2.5  ,-2.4  ,2.3
832  ,1.748e-03   ,-2.5  ,-2.4  ,2.1
833  ,1.322e-03   ,-2.5  ,-2.4  ,1.9
834  ,1.417e-03   ,-2.5  ,-2.4  ,1.7
835  ,6.607e-04   ,-2.5  ,-2.4  ,1.5
836  ,8.318e-04   ,-2.5  ,-2.4  ,1.3
837  ,3.670e-04   ,-2.5  ,-2.4  ,1.1
838  ,3.204e-04   ,-2.5  ,-2.4  ,0.9
839  ,8.799e-04   ,-2.5  ,-2.4  ,0.7
840  ,2.566e-03   ,-2.5  ,-2.4  ,0.5
841  ,4.060e-04   ,-2.5  ,-2.4  ,0.3
842  ,8.265e+04   ,-2.5  ,2.2  ,4.9
843  ,7.087e+04   ,-2.5  ,2  ,4.9
844  ,3.532e+04   ,-2.5  ,1.8  ,4.9
845  ,4.792e+04   ,-2.5  ,1.6  ,4.9
846  ,3.483e+04   ,-2.5  ,1.4  ,4.9
847  ,2.887e+04   ,-2.5  ,1.2  ,4.9
848  ,7.120e+04   ,-2.5  ,1  ,4.9
849  ,8.034e+04   ,-2.5  ,0.8  ,4.9
850  ,6.897e+04   ,-2.5  ,0.6  ,4.9
851  ,3.139e+04   ,-2.5  ,0.4  ,4.9
852  ,1.723e+04   ,-2.5  ,0.2  ,4.9
853  ,2.859e+04   ,-2.5  ,5.8879E-16  ,4.9
854  ,4.482e+04   ,-2.5  ,-0.2  ,4.9
855  ,4.816e+04   ,-2.5  ,-0.4  ,4.9
856  ,2.446e+04   ,-2.5  ,-0.6  ,4.9
857  ,7.706e+03   ,-2.5  ,-0.8  ,4.9
858  ,8.608e+03   ,-2.5  ,-1  ,4.9
859  ,6.372e+03   ,-2.5  ,-1.2  ,4.9
860  ,2.255e+03   ,-2.5  ,-1.4  ,4.9
861  ,8.360e+02   ,-2.5  ,-1.6  ,4.9
862  ,3.137e+02   ,-2.5  ,-1.8  ,4.9
863  ,9.917e+01   ,-2.5  ,-2  ,4.9
864  ,1.446e+01   ,-2.5  ,-2.2  ,4.9
865  ,9.496e+04   ,-2.5  ,2.4  ,4.7
866  ,6.706e+04   ,-2.5  ,2.4  ,4.5
867  ,9.529e+04   ,-2.5  ,2.4  ,4.3
868  ,2.696e+05   ,-2.5  ,2.4  ,4.1
869  ,2.689e+05   ,-2.5  ,2.4  ,3.9
870  ,3.048e+05   ,-2.5  ,2.4  ,3.7
871  ,3.160e+05   ,-2.5  ,2.4  ,3.5
872  ,4.036e+05   ,-2.5  ,2.4  ,3.3
873  ,3.579e+05   ,-2.5  ,2.4  ,3.1
874  ,2.232e+05   ,-2.5  ,2.4  ,2.9
875  ,3.222e+04   ,-2.5  ,2.4  ,2.7
876  ,4.559e+04   ,-2.5  ,2.4  ,2.5
877  ,7.644e+04   ,-2.5  ,2.4  ,2.3
878  ,5.861e+04   ,-2.5  ,2.4  ,2.1
879  ,5.375e+04   ,-2.5  ,2.4  ,1.9
880  ,5.946e+04   ,-2.5  ,2.4  ,1.7
881  ,3.458e+04   ,-2.5  ,2.4  ,1.5
882  ,5.480e+03   ,-2.5  ,2.4  ,1.3
883  ,7.791e+03   ,-2.5  ,2.4  ,1.1
884  ,6.007e+03   ,-2.5  ,2.4  ,0.9
885  ,5.014e+03   ,-2.5  ,2.4  ,0.7
886  ,5.604e+03   ,-2.5  ,2.4  ,0.5
887  ,1.200e+04   ,-2.5  ,2.4  ,0.3
1044  ,2.275e-03   ,-2.3  ,-2.5  ,0.44697
1045  ,3.984e-03   ,-2.3  ,-2.5  ,0.68705
1046  ,2.062e-04   ,-2.3  ,-2.5  ,0.92554
1047  ,2.204e-04   ,-2.3  ,-2.5  ,1.1682
1048  ,6.236e-04   ,-2.3  ,-2.5  ,1.4148
1049  ,8.809e-04   ,-2.3  ,-2.5  ,1.6581
1050  ,8.549e-04   ,-2.3  ,-2.5  ,1.8967
1051  ,3.164e-04   ,-2.3  ,-2.5  ,2.1357
1052  ,3.469e-03   ,-2.3  ,-2.5  ,2.3794
1053  ,3.169e-03   ,-2.3  ,-2.5  ,2.6206
1054  ,1.071e-02   ,-2.3  ,-2.5  ,2.8643
1055  ,1.773e-02   ,-2.3  ,-2.5  ,3.1033
1056  ,1.882e-02   ,-2.3  ,-2.5  ,3.342
1057  ,9.184e-02   ,-2.3  ,-2.5  ,3.5852
1058  ,1.164e-01   ,-2.3  ,-2.5  ,3.8318
1059  ,2.437e-01   ,-2.3  ,-2.5  ,4.0745
1060  ,2.540e-01   ,-2.3  ,-2.5  ,4.3129
1061  ,2.118e+00   ,-2.3  ,-2.5  ,4.553
1062  ,9.711e+00   ,-2.053  ,-2.5  ,4.8
1063  ,2.162e+01   ,-1.8129  ,-2.5  ,4.8
1064  ,6.950e+00   ,-1.5745  ,-2.5  ,4.8
1065  ,1.066e+01   ,-1.3318  ,-2.5  ,4.8
1066  ,4.304e+00   ,-1.0852  ,-2.5  ,4.8
1067  ,1.075e+01   ,-0.84195  ,-2.5  ,4.8
1068  ,6.751e+01   ,-0.60329  ,-2.5  ,4.8
1069  ,6.987e+01   ,-0.3643  ,-2.5  ,4.8
1070  ,6.476e+01   ,-0.12055  ,-2.5  ,4.8
1071  ,6.726e+01   ,0.12056  ,-2.5  ,4.8
1072  ,5.182e+01   ,0.3643  ,-2.5  ,4.8
1073  ,4.413e+01   ,0.6033  ,-2.5  ,4.8
1074  ,1.814e+01   ,0.84195  ,-2.5  ,4.8
1075  ,2.459e+02   ,1.0852  ,-2.5  ,4.8
1076  ,2.000e+02   ,1.3318  ,-2.5  ,4.8
1077  ,2.782e+02   ,1.5745  ,-2.5  ,4.8
1078  ,1.334e+03   ,1.8129  ,-2.5  ,4.8
1079  ,9.537e+02   ,2.053  ,-2.5  ,4.8
1080  ,9.343e+02   ,2.3  ,-2.5  ,4.553
1081  ,1.752e+03   ,2.3  ,-2.5  ,4.3129
1082  ,3.154e+02   ,2.3  ,-2.5  ,4.0745
1083  ,1.291e+02   ,2.3  ,-2.5  ,3.8318
1084  ,7.900e+01   ,2.3  ,-2.5  ,3.5852
1085  ,6.250e+01   ,2.3  ,-2.5  ,3.3419
1086  ,6.263e+01   ,2.3  ,-2.5  ,3.1033
1087  ,1.319e+02   ,2.3  ,-2.5  ,2.8643
1088  ,1.444e+02   ,2.3  ,-2.5  ,2.6206
1089  ,7.570e+01   ,2.3  ,-2.5  ,2.3794
1090  ,6.990e+01   ,2.3  ,-2.5  ,2.1357
1091  ,4.825e+01   ,2.3  ,-2.5  ,1.8967
1092  ,5.737e+00   ,2.3  ,-2.5  ,1.658
1093  ,5.236e+00   ,2.3  ,-2.5  ,1.4148
1094  ,6.544e+00   ,2.3  ,-2.5  ,1.1682
1095  ,9.684e+00   ,2.3  ,-2.5  ,0.92554
1096  ,3.897e+01   ,2.3  ,-2.5  ,0.68705
1097  ,2.063e+01   ,2.3  ,-2.5  ,0.44697
1098  ,3.057e-04   ,-2.053  ,-2.5  ,0.2
1099  ,3.465e-04   ,-1.8129  ,-2.5  ,0.2
1100  ,2.761e-03   ,-1.5745  ,-2.5  ,0.2
1101  ,1.904e-02   ,-1.3318  ,-2.5  ,0.2
1102  ,9.585e-02   ,-1.0852  ,-2.5  ,0.2
1103  ,1.191e-01   ,-0.84195  ,-2.5  ,0.2
1104  ,2.357e-01   ,-0.60329  ,-2.5  ,0.2
1105  ,3.017e-01   ,-0.3643  ,-2.5  ,0.2
1106  ,1.910e-01   ,-0.12055  ,-2.5  ,0.2
1107  ,3.650e-01   ,0.12056  ,-2.5  ,0.2
1108  ,3.320e-01   ,0.3643  ,-2.5  ,0.2
1109  ,1.233e-01   ,0.6033  ,-2.5  ,0.2
1110  ,8.841e-02   ,0.84195  ,-2.5  ,0.2
1111  ,3.859e-01   ,1.0852  ,-2.5  ,0.2
1112  ,2.008e-01   ,1.3318  ,-2.5  ,0.2
1113  ,1.107e+00   ,1.5745  ,-2.5  ,0.2
1114  ,7.301e+00   ,1.8129  ,-2.5  ,0.2
1115  ,9.146e+00   ,2.053  ,-2.5  ,0.2
1116  ,8.480e+00   ,-2.2  ,-2.5  ,4.9
1117  ,3.149e+01   ,-2  ,-2.5  ,4.9
1118  ,2.245e+01   ,-1.8  ,-2.5  ,4.9
1119  ,8.476e+00   ,-1.6  ,-2.5  ,4.9
1120  ,6.531e+00   ,-1.4  ,-2.5  ,4.9
1121  ,1.112e+01   ,-1.2  ,-2.5  ,4.9
1122  ,3.368e+00   ,-1  ,-2.5  ,4.9
1123  ,5.217e+00   ,-0.8  ,-2.5  ,4.9
1124  ,8.938e+01   ,-0.6  ,-2.5  ,4.9
1125  ,1.047e+02   ,-0.4  ,-2.5  ,4.9
1126  ,6.557e+01   ,-0.2  ,-2.5  ,4.9
1127  ,4.348e+01   ,-1.7664E-15  ,-2.5  ,4.9
1128  ,5.822e+01   ,0.2  ,-2.5  ,4.9
1129  ,5.495e+01   ,0.4  ,-2.5  ,4.9
1130  ,7.106e+01   ,0.6  ,-2.5  ,4.9
1131  ,5.258e+01   ,0.8  ,-2.5  ,4.9
1132  ,1.685e+02   ,1  ,-2.5  ,4.9
1133  ,7.480e+01   ,1.2  ,-2.5  ,4.9
1134  ,1.692e+02   ,1.4  ,-2.5  ,4.9
1135  ,3.106e+02   ,1.6  ,-2.5  ,4.9
1136  ,1.199e+03   ,1.8  ,-2.5  ,4.9
1137  ,1.584e+03   ,2  ,-2.5  ,4.9
1138  ,5.126e+02   ,2.2  ,-2.5  ,4.9
1139  ,5.377e-01   ,-2.4  ,-2.5  ,4.7
1140  ,6.380e-01   ,-2.4  ,-2.5  ,4.5
1141  ,1.886e-01   ,-2.4  ,-2.5  ,4.3
1142  ,1.626e-01   ,-2.4  ,-2.5  ,4.1
1143  ,1.076e-01   ,-2.4  ,-2.5  ,3.9
1144  ,8.799e-02   ,-2.4  ,-2.5  ,3.7
1145  ,3.715e-02   ,-2.4  ,-2.5  ,3.5
1146  ,1.916e-02   ,-2.4  ,-2.5  ,3.3
1147  ,2.089e-02   ,-2.4  ,-2.5  ,3.1
1148  ,1.682e-02   ,-2.4  ,-2.5  ,2.9
1149  ,2.876e-03   ,-2.4  ,-2.5  ,2.7
1150  ,2.349e-03   ,-2.4  ,-2.5  ,2.5
1151  ,3.189e-03   ,-2.4  ,-2.5  ,2.3
1152  ,6.895e-04   ,-2.4  ,-2.5  ,2.1
1153  ,1.303e-03   ,-2.4  ,-2.5  ,1.9
1154  ,1.234e-03   ,-2.4  ,-2.5  ,1.7
1155  ,8.024e-04   ,-2.4  ,-2.5  ,1.5
1156  ,4.307e-04   ,-2.4  ,-2.5  ,1.3
1157  ,4.268e-04   ,-2.4  ,-2.5  ,1.1
1158  ,3.078e-04   ,-2.4  ,-2.5  ,0.9
1159  ,1.544e-03   ,-2.4  ,-2.5  ,0.7
1160  ,2.042e-03   ,-2.4  ,-2.5  ,0.5
1161  ,1.244e-04   ,-2.4  ,-2.5  ,0.3
1162  ,2.450e-04   ,-2.2  ,-2.5  ,0.1
1163  ,1.684e-04   ,-2  ,-2.5  ,0.1
1164  ,9.199e-05   ,-1.8  ,-2.5  ,0.1
1165  ,2.116e-03   ,-1.6  ,-2.5  ,0.1
1166  ,1.991e-02   ,-1.4  ,-2.5  ,0.1
1167  ,2.748e-02   ,-1.2  ,-2.5  ,0.1
1168  ,5.090e-02   ,-1  ,-2.5  ,0.1
1169  ,9.708e-02   ,-0.8  ,-2.5  ,0.1
1170  ,2.225e-01   ,-0.6  ,-2.5  ,0.1
1171  ,2.784e-01   ,-0.4  ,-2.5  ,0.1
1172  ,2.626e-01   ,-0.2  ,-2.5  ,0.1
1173  ,2.531e-01   ,-1.7664E-15  ,-2.5  ,0.1
1174  ,2.206e-01   ,0.2  ,-2.5  ,0.1
1175  ,1.423e-01   ,0.4  ,-2.5  ,0.1
1176  ,8.460e-02   ,0.6  ,-2.5  ,0.1
1177  ,9.129e-02   ,0.8  ,-2.5  ,0.1
1178  ,2.422e-01   ,1  ,-2.5  ,0.1
1179  ,2.158e-01   ,1.2  ,-2.5  ,0.1
1180  ,2.105e-01   ,1.4  ,-2.5  ,0.1
1181  ,9.425e-01   ,1.6  ,-2.5  ,0.1
1182  ,1.691e+00   ,1.8  ,-2.5  ,0.1
1183  ,1.194e+00   ,2  ,-2.5  ,0.1
1184  ,2.225e+00   ,2.2  ,-2.5  ,0.1
1185  ,4.573e+02   ,2.4  ,-2.5  ,4.7
1186  ,1.954e+03   ,2.4  ,-2.5  ,4.5
1187  ,1.387e+03   ,2.4  ,-2.5  ,4.3
1188  ,4.283e+02   ,2.4  ,-2.5  ,4.1
1189  ,9.727e+01   ,2.4  ,-2.5  ,3.9
1190  ,9.620e+01   ,2.4  ,-2.5  ,3.7
1191  ,6.596e+01   ,2.4  ,-2.5  ,3.5
1192  ,1.430e+02   ,2.4  ,-2.5  ,3.3
1193  ,8.650e+01   ,2.4  ,-2.5  ,3.1
1194  ,1.114e+02   ,2.4  ,-2.5  ,2.9
1195  ,1.195e+02   ,2.4  ,-2.5  ,2.7
1196  ,1.036e+02   ,2.4  ,-2.5  ,2.5
1197  ,7.859e+01   ,2.4  ,-2.5  ,2.3
1198  ,9.336e+01   ,2.4  ,-2.5  ,2.1
1199  ,8.193e+01   ,2.4  ,-2.5  ,1.9
1200  ,4.945e+00   ,2.4  ,-2.5  ,1.7
1201  ,4.030e+00   ,2.4  ,-2.5  ,1.5
1202  ,4.510e+00   ,2.4  ,-2.5  ,1.3
1203  ,6.770e+00   ,2.4  ,-2.5  ,1.1
1204  ,9.094e+00   ,2.4  ,-2.5  ,0.9
1205  ,2.598e+01   ,2.4  ,-2.5  ,0.7
1206  ,8.920e+00   ,2.4  ,-2.5  ,0.5
1207  ,7.990e+00   ,2.4  ,-2.5  ,0.3
1208  ,1.478e+01   ,2.4  ,-2.2  ,0
1209  ,8.441e+01   ,2.4  ,-2  ,0
1210  ,2.270e+02   ,2.4  ,-1.8  ,0
1211  ,7.460e+02   ,2.4  ,-1.6  ,0
1212  ,1.559e+03   ,2.4  ,-1.4  ,0
1213  ,4.835e+03   ,2.4  ,-1.2  ,0
1214  ,9.606e+03   ,2.4  ,-1  ,0
1215  ,1.205e+04   ,2.4  ,-0.8  ,0
1216  ,2.654e+04   ,2.4  ,-0.6  ,0
1217  ,8.262e+04   ,2.4  ,-0.4  ,0
1218  ,8.013e+04   ,2.4  ,-0.2  ,0
1219  ,1.099e+05   ,2.4  ,-1.7664E-15  ,0
1220  ,8.826e+04   ,2.4  ,0.2  ,0
1221  ,5.413e+04   ,2.4  ,0.4  ,0
1222  ,3.057e+05   ,2.4  ,0.6  ,0
1223  ,4.439e+05   ,2.4  ,0.8  ,0
1224  ,2.683e+05   ,2.4  ,1  ,0
1225  ,5.850e+04   ,2.4  ,1.2  ,0
1226  ,1.309e+05   ,2.4  ,1.4  ,0
1227  ,2.494e+05   ,2.4  ,1.6  ,0
1228  ,1.309e+05   ,2.4  ,1.8  ,0
1229  ,1.215e+05   ,2.4  ,2  ,0
1230  ,9.286e+04   ,2.4  ,2.2  ,0
1231  ,3.849e-04   ,-2.2  ,-2.4  ,0
1232  ,2.042e-04   ,-2  ,-2.4  ,0
1233  ,2.161e-03   ,-1.8  ,-2.4  ,0
1234  ,5.845e-03   ,-1.6  ,-2.4  ,0
1235  ,2.269e-02   ,-1.4  ,-2.4  ,0
1236  ,6.492e-02   ,-1.2  ,-2.4  ,0
1237  ,9.667e-02   ,-1  ,-2.4  ,0
1238  ,1.904e-01   ,-0.8  ,-2.4  ,0
1239  ,3.584e-01   ,-0.6  ,-2.4  ,0
1240  ,4.568e-01   ,-0.4  ,-2.4  ,0
1241  ,5.965e-01   ,-0.2  ,-2.4  ,0
1242  ,7.541e-01   ,5.8879E-16  ,-2.4  ,0
1243  ,4.292e-01   ,0.2  ,-2.4  ,0
1244  ,3.158e-01   ,0.4  ,-2.4  ,0
1245  ,1.588e-01   ,0.6  ,-2.4  ,0
1246  ,1.048e-01   ,0.8  ,-2.4  ,0
1247  ,2.265e-01   ,1  ,-2.4  ,0
1248  ,1.005e+00   ,1.2  ,-2.4  ,0
1249  ,1.218e+00   ,1.4  ,-2.4  ,0
1250  ,1.752e+00   ,1.6  ,-2.4  ,0
1251  ,2.171e+00   ,1.8  ,-2.4  ,0
1252  ,9.488e+00   ,2  ,-2.4  ,0
1253  ,5.598e+00   ,2.2  ,-2.4  ,0
1254  ,5.968e+03   ,-2.4  ,2.2  ,0
1255  ,5.123e+03   ,-2.4  ,2  ,0
1256  ,1.322e+03   ,-2.4  ,1.8  ,0
1257  ,1.346e+03   ,-2.4  ,1.6  ,0
1258  ,8.531e+02   ,-2.4  ,1.4  ,0
1259  ,9.174e+02   ,-2.4  ,1.2  ,0
1260  ,7.739e+02   ,-2.4  ,1  ,0
1261  ,5.660e+02   ,-2.4  ,0.8  ,0
1262  ,2.753e+02   ,-2.4  ,0.6  ,0
1263  ,1.209e+02   ,-2.4  ,0.4  ,0
1264  ,6.529e+01   ,-2.4  ,0.2  ,0
1265  ,3.166e+01   ,-2.4  ,5.8879E-16  ,0
1266  ,3.802e+01   ,-2.4  ,-0.2  ,0
1267  ,3.608e+01   ,-2.4  ,-0.4  ,0
1268  ,2.635e+01   ,-2.4  ,-0.6  ,0
1269  ,4.543e+00   ,-2.4  ,-0.8  ,0
1270  ,2.583e+00   ,-2.4  ,-1  ,0
1271  ,2.235e+00   ,-2.4  ,-1.2  ,0
1272  ,9.047e-01   ,-2.4  ,-1.4  ,0
1273  ,5.683e-02   ,-2.4  ,-1.6  ,0
1274  ,5.972e-02   ,-2.4  ,-1.8  ,0
1275  ,2.497e-02   ,-2.4  ,-2  ,0
1276  ,1.812e-03   ,-2.4  ,-2.2  ,0
1277  ,1.304e+05   ,2.2  ,2.4  ,0
1278  ,6.136e+04   ,2  ,2.4  ,0
1279  ,1.879e+05   ,1.8  ,2.4  ,0
1280  ,2.113e+05   ,1.6  ,2.4  ,0
1281  ,3.315e+05   ,1.4  ,2.4  ,0
1282  ,4.230e+05   ,1.2  ,2.4  ,0
1283  ,4.706e+05   ,1  ,2.4  ,0
1284  ,5.888e+05   ,0.8  ,2.4  ,0
1285  ,4.806e+05   ,0.6  ,2.4  ,0
1286  ,3.290e+05   ,0.4  ,2.4  ,0
1287  ,4.173e+04   ,0.2  ,2.4  ,0
1288  ,5.884e+04   ,5.8879E-16  ,2.4  ,0
1289  ,4.339e+04   ,-0.2  ,2.4  ,0
1290  ,7.425e+04   ,-0.4  ,2.4  ,0
1291  ,9.233e+04   ,-0.6  ,2.4  ,0
1292  ,9.569e+04   ,-0.8  ,2.4  ,0
1293  ,6.280e+04   ,-1  ,2.4  ,0
1294  ,7.883e+03   ,-1.2  ,2.4  ,0
1295  ,1.148e+04   ,-1.4  ,2.4  ,0
1296  ,8.918e+03   ,-1.6  ,2.4  ,0
1297  ,6.976e+03   ,-1.8  ,2.4  ,0
1298  ,9.411e+03   ,-2  ,2.4  ,0
1299  ,1.190e+04   ,-2.2  ,2.4  ,0
1460  ,2.184e+09   ,2.3243  ,2.3243  ,4.9577
1461  ,2.059e+09   ,2.4577  ,2.3243  ,4.8243
1462  ,1.641e+09   ,2.3243  ,2.4577  ,4.8243
1463  ,4.309e+01   ,-2.3  ,-2.1759  ,4.8
1464  ,8.960e+02   ,-2.3  ,-1.7631  ,4.8
1465  ,7.762e+03   ,-2.3  ,-1.1827  ,4.8
1466  ,3.223e+04   ,-2.3  ,-0.34986  ,4.8
1467  ,8.383e+04   ,-2.3  ,0.80545  ,4.8
1468  ,3.361e+06   ,-0.81337  ,2.3  ,4.8
1469  ,6.870e+07   ,0.67326  ,2.3  ,4.8
1470  ,3.241e+03   ,2.3  ,-2.1824  ,4.8
1471  ,3.323e+04   ,2.3  ,-1.7784  ,4.8
1472  ,9.486e+05   ,2.3  ,-1.2138  ,4.8
1473  ,7.734e+06   ,2.3  ,-0.40752  ,4.8
1474  ,9.473e+07   ,2.3  ,0.70532  ,4.8
1516  ,4.088e+06   ,2.3  ,2.3  ,1.6866
1517  ,6.737e+07   ,2.3  ,2.3  ,3.1733
1518  ,4.342e+01   ,2.3  ,-2.1759  ,0.2
1519  ,9.912e+02   ,2.3  ,-1.7631  ,0.2
1520  ,1.293e+04   ,2.3  ,-1.1827  ,0.2
1521  ,8.519e+04   ,2.3  ,-0.34986  ,0.2
1522  ,4.665e+05   ,2.3  ,0.80545  ,0.2
1564  ,5.705e+04   ,-0.76667  ,2.3  ,0.2
1565  ,5.470e+05   ,0.76667  ,2.3  ,0.2
1566  ,4.672e+04   ,-2.3  ,2.3  ,1.7333
1567  ,3.344e+05   ,-2.3  ,2.3  ,3.2667
1574  ,5.772e-03   ,-2.3  ,-2.1759  ,0.2
1575  ,1.250e-01   ,-2.3  ,-1.7631  ,0.2
1576  ,4.616e+00   ,-2.3  ,-1.1827  ,0.2
1577  ,1.003e+02   ,-2.3  ,-0.34986  ,0.2
1578  ,2.094e+03   ,-2.3  ,0.80545  ,0.2
1777  ,8.362e+06   ,-0.52764  ,2.5  ,4.9
1801  ,5.377e+03   ,-2.3  ,1.5527  ,0.2
1825  ,1.665e+04   ,-1.5333  ,2.3  ,0.2
1841  ,8.245e+06   ,0.063638  ,2.5  ,4.9
1876  ,7.276e+04   ,-0.5  ,2.4  ,0
1894  ,4.620e+05   ,2.3  ,1.5527  ,0.2
1907  ,3.161e+05   ,2.1  ,2.5  ,0.1
1928  ,8.947e+04   ,1.9  ,2.4  ,0
1974  ,7.513e+04   ,2.4  ,1.1  ,0
1981  ,1.937e+05   ,2.4  ,2.5  ,0.59273
1987  ,3.017e+05   ,-2.5  ,2.4  ,4
2004  ,1.483e+05   ,-2.4  ,2.5  ,4.6
2009  ,4.658e+04   ,2.4  ,1.3  ,0
2020  ,4.566e+05   ,2.5  ,1.1  ,0.1
2035  ,3.316e+01   ,-2.3  ,-0.76628  ,0.2
2070  ,3.806e+08   ,1.6404  ,2.4  ,5
2081  ,5.235e+06   ,2.4  ,2.5  ,1.9724
2095  ,2.272e+05   ,2.4  ,2.5  ,0.78982
2138  ,2.888e+01   ,-2.4  ,-0.1  ,0
2146  ,2.645e+06   ,-0.92182  ,2.4  ,5
2174  ,1.035e+06   ,2.4  ,2.5  ,1.184
2190  ,2.828e+05   ,2.5  ,2.4  ,0.98691
2203  ,1.283e+07   ,2.5  ,-0.13345  ,4.9
2232  ,2.714e+07   ,2.3  ,0.1489  ,4.8
2242  ,2.588e+07   ,2.4  ,2.5  ,2.9578
2293  ,4.802e+02   ,-2.5  ,0.5  ,0.1
2311  ,1.857e+07   ,2.3  ,2.3  ,2.4299
2313  ,2.808e+05   ,2.5  ,2.4  ,0.78982
2329  ,5.997e+06   ,2.4  ,2.5  ,2.1695
2355  ,9.439e+04   ,-2.4  ,2.5  ,4.4
2380  ,2.838e-01   ,-2.5  ,-1.5  ,0.1
2383  ,2.539e+07   ,0.45782  ,2.5  ,4.9
2408  ,1.929e+05   ,2.3  ,-1.4961  ,4.8
2445  ,1.004e+05   ,2.5  ,-1.5131  ,4.9
2484  ,9.597e-04   ,-2.5  ,-2.4  ,1.6
2495  ,1.626e+05   ,-2.4  ,1.7  ,5
2508  ,5.364e+04   ,2.4  ,0.3  ,0
2514  ,2.110e+05   ,2.3  ,0.2278  ,0.2
2570  ,1.561e+05   ,-2.4  ,1.5  ,5
2580  ,3.258e+08   ,1.6404  ,2.5  ,4.9
2603  ,9.297e+05   ,-1.1189  ,2.5  ,4.9
2695  ,1.315e+06   ,2.3  ,2.3  ,0.94331
2705  ,1.804e+06   ,2.4  ,2.5  ,1.3811
2714  ,4.084e+07   ,2.5  ,0.45782  ,4.9
2734  ,9.655e+03   ,2.4  ,-0.9  ,0
2775  ,9.955e+04   ,2.5  ,-0.1  ,0.1
2779  ,6.322e+04   ,2.4  ,-0.1  ,0
2801  ,4.915e+08   ,1.4166  ,2.3  ,4.8
2814  ,1.690e+08   ,1.4433  ,2.5  ,4.9
2863  ,7.598e+03   ,-2.4  ,2.5  ,0.6
2884  ,5.564e+03   ,-2.4  ,2.5  ,0.8
2886  ,1.833e+04   ,-2.4  ,2.5  ,1.2
2967  ,1.219e+05   ,2.4  ,1.7  ,0
2973  ,2.708e+05   ,2.5  ,1.5  ,0.1
2987  ,8.291e+04   ,-0.3  ,2.5  ,0.1
3008  ,1.512e+04   ,-2.3  ,2.3  ,0.96667
3012  ,2.765e+04   ,-2.5  ,2.4  ,2.6
3021  ,4.155e+04   ,-2.5  ,2.4  ,2.8
3025  ,6.014e+04   ,-2.5  ,2.4  ,2.4
3030  ,1.043e+05   ,-2.4  ,2.5  ,2.4
3033  ,1.005e+05   ,-2.4  ,2.5  ,2.2
3047  ,5.122e+06   ,2.4  ,2.5  ,2.3665
3052  ,1.018e+07   ,2.5  ,2.4  ,2.5636
3061  ,9.379e+06   ,2.4  ,2.5  ,2.5636
3081  ,1.584e+05   ,-2.4  ,1.3  ,5
3088  ,2.211e+05   ,-1.9073  ,2.4  ,5
3099  ,1.444e+05   ,-2.4  ,1.9  ,5
3107  ,4.857e+05   ,-2.4  ,2.5  ,3.8
3139  ,2.091e+05   ,-1.5131  ,2.4  ,5
3145  ,2.591e+05   ,-1.5131  ,2.5  ,4.9
3148  ,2.799e+05   ,-1.7102  ,2.5  ,4.9
3168  ,8.458e+02   ,-2.4  ,1.5  ,0
3188  ,3.347e-04   ,-2.5  ,-2.4  ,1
3202  ,1.216e+07   ,0.26073  ,2.5  ,4.9
3212  ,3.621e+08   ,2.5  ,1.6404  ,4.9
3247  ,6.841e+08   ,2.5  ,1.8375  ,4.9
3265  ,5.132e+08   ,2.3  ,1.4326  ,4.8
3271  ,2.009e+09   ,2.2299  ,2.2299  ,4.8
3284  ,1.231e+08   ,2.4  ,1.4433  ,5
3291  ,1.552e+08   ,2.5  ,1.4433  ,4.9
3296  ,1.133e+04   ,-2.3  ,-0.76628  ,4.8
3303  ,1.053e+04   ,-2.4  ,-0.9  ,5
3311  ,1.547e+04   ,-2.4  ,-0.7  ,5
3315  ,3.283e+05   ,1.9  ,2.5  ,0.1
3336  ,8.161e+01   ,-2.4  ,0.3  ,0
3340  ,4.063e+01   ,-2.5  ,0.1  ,0.1
3344  ,7.042e+01   ,-2.4  ,0.1  ,0
3356  ,6.569e+04   ,-0.3  ,2.4  ,0
3361  ,7.296e+06   ,-0.33054  ,2.5  ,4.9
3364  ,6.680e+06   ,-0.13345  ,2.5  ,4.9
3383  ,1.717e+08   ,2.4  ,2.5  ,3.5491
3402  ,1.128e+09   ,2.4  ,2.5  ,4.5345
3421  ,4.409e+05   ,-1.316  ,2.5  ,4.9
3439  ,1.439e+08   ,2.5  ,2.4  ,3.9433
3447  ,1.471e+08   ,2.4  ,2.5  ,3.9433
3451  ,1.779e+08   ,2.4  ,2.5  ,3.7462
3468  ,1.420e+08   ,1.4433  ,2.4  ,5
3480  ,1.304e+08   ,1.0491  ,2.4  ,5
3519  ,3.227e+05   ,1.5  ,2.4  ,0
3527  ,2.404e+03   ,2.3  ,-1.4729  ,0.2
3550  ,5.333e+03   ,-1.7  ,2.4  ,0
3554  ,9.412e+03   ,-1.7  ,2.5  ,0.1
3558  ,8.225e+03   ,-1.5  ,2.4  ,0
3562  ,1.585e+04   ,-1.5  ,2.5  ,0.1
3574  ,1.448e+05   ,-2.4  ,2.1  ,5
3581  ,6.573e+02   ,-2.5  ,1.7  ,0.1
3583  ,2.177e+03   ,-2.5  ,1.9  ,0.1
3584  ,2.577e+05   ,-1.9073  ,2.5  ,4.9
3591  ,1.957e+05   ,2.5  ,0.3  ,0.1
3595  ,1.818e+05   ,2.5  ,0.1  ,0.1
3603  ,3.045e+09   ,2.4577  ,2.391  ,4.7576
3663  ,3.200e-04   ,-1.933  ,-2.5  ,0.2
3669  ,4.304e-04   ,-2.1765  ,-2.5  ,0.2
3672  ,4.280e-04   ,-2.3  ,-2.3379  ,0.2
3682  ,1.580e-04   ,-1.9  ,-2.4  ,0
3700  ,1.347e+02   ,2.3  ,-2.5  ,2.7424
3712  ,1.301e+01   ,-2.1  ,-2.5  ,4.9
3715  ,1.737e+01   ,-1.9  ,-2.5  ,4.9
3740  ,2.413e+01   ,-1.3  ,-2.4  ,5
3746  ,6.520e+00   ,-1.2085  ,-2.5  ,4.8
3755  ,1.910e+01   ,-1.5  ,-2.4  ,5
3760  ,1.727e+01   ,-1.7  ,-2.5  ,4.9
3786  ,2.218e+06   ,2.4  ,2.5  ,1.5782
3813  ,1.353e+07   ,0.26073  ,2.4  ,5
3858  ,5.185e+00   ,-0.9  ,-2.4  ,5
3863  ,8.076e+04   ,-2.5  ,0.9  ,4.9
3875  ,2.163e+01   ,-1.9  ,-2.4  ,5
3885  ,2.078e+06   ,2.4  ,-0.72473  ,5
3910  ,1.958e-02   ,-2.4  ,-2.5  ,3.4
3959  ,3.927e+08   ,2.5  ,2.4  ,4.1404
3969  ,1.611e+08   ,2.5  ,1.0491  ,4.9
3992  ,3.462e+09   ,2.391  ,2.2576  ,4.9577
3993  ,3.084e+09   ,2.4577  ,2.2576  ,4.891
4016  ,1.463e+05   ,-2.3015  ,2.5  ,4.9
4018  ,1.436e+05   ,-2.4  ,2.5  ,4.8
4021  ,1.365e+08   ,1.2462  ,2.4  ,5
4042  ,4.597e+03   ,2.4  ,-1.1  ,0
4046  ,7.097e+04   ,-0.9  ,2.4  ,0
4055  ,3.344e+02   ,1.7  ,-2.5  ,4.9
4087  ,2.563e+05   ,1.7  ,2.4  ,0
4114  ,1.064e+07   ,2.5  ,-0.33054  ,4.9
4120  ,1.164e+01   ,2.4  ,-2.5  ,1.8
4125  ,3.419e+05   ,2.4  ,2.5  ,0.98691
4144  ,6.179e+08   ,2.4  ,2.5  ,4.3375
4161  ,3.505e+04   ,-2.4  ,0.3  ,5
4201  ,6.980e+00   ,1.933  ,-2.5  ,0.2
4225  ,3.462e-04   ,-2.3  ,-2.4  ,0
4230  ,4.974e-03   ,-2.3  ,-2.5  ,0.56701
4269  ,2.702e+00   ,-0.9  ,-2.5  ,4.9
4277  ,8.988e+00   ,-1.1  ,-2.4  ,5
4288  ,1.657e+07   ,-0.070055  ,2.3  ,4.8
4328  ,2.866e-01   ,-2.5  ,-2.4  ,4.2
4336  ,3.133e-01   ,-2.5  ,-2.4  ,4.4
4342  ,2.504e+00   ,-2.5  ,-2.4  ,4.6
4348  ,1.390e+00   ,-2.4  ,-2.4707  ,4.9707
4352  ,1.581e+00   ,-2.3  ,-2.5  ,4.9
4354  ,3.725e+00   ,-2.1765  ,-2.5  ,4.8
4355  ,6.551e+00   ,-2.3  ,-2.3379  ,4.8
4362  ,2.825e+05   ,2.5  ,2.4  ,0.59273
4364  ,1.130e+02   ,2.5  ,-2.4  ,2.4
4366  ,6.588e+01   ,2.5  ,-2.4  ,2.2
4372  ,7.229e+01   ,2.4  ,-2.5  ,2.2
4385  ,4.219e-02   ,-2.5  ,-1.9  ,0.1
4399  ,4.065e+03   ,-2.5  ,2.1  ,0.1
4407  ,2.447e-01   ,-0.7  ,-2.4  ,0
4436  ,1.607e+01   ,-2.5  ,-0.1  ,0.1
4462  ,3.190e+05   ,-2.3  ,2.3  ,4.0333
4491  ,4.587e+06   ,2.5  ,-0.52764  ,4.9
4494  ,1.291e+01   ,2.5  ,-2.4  ,1.4
4503  ,5.056e+00   ,2.4  ,-2.5  ,1.4
4508  ,6.724e+00   ,2.4  ,-2.5  ,1.2
4515  ,2.173e+01   ,2.5  ,-2.4  ,1.8
4517  ,3.221e+00   ,2.4  ,-2.5  ,1.6
4522  ,8.157e-02   ,0.7  ,-2.4  ,0
4538  ,7.976e+05   ,-1.1189  ,2.4  ,5
4546  ,3.166e+08   ,2.4  ,2.5  ,4.1404
4559  ,1.423e+00   ,1.7  ,-2.4  ,0
4590  ,1.118e-01   ,0.5  ,-2.4  ,0
4631  ,1.223e+02   ,2.4  ,-2.5  ,2.6
4634  ,1.495e+02   ,2.5  ,-2.4  ,2.8
4657  ,6.834e-04   ,-2.5  ,-2.4  ,2
4660  ,1.887e-03   ,-2.5  ,-2.4  ,1.8
4664  ,3.105e-01   ,-0.3  ,-2.4  ,0
4675  ,2.656e-01   ,-2.4  ,-2.5  ,4.8
4681  ,5.603e+01   ,-2.5  ,-0.3  ,0.1
4684  ,5.975e+02   ,1.7  ,-2.4  ,5
4703  ,8.388e+04   ,-2.4  ,0.7  ,5
4707  ,1.053e+04   ,-2.5  ,0.3  ,4.9
4714  ,1.036e+07   ,2.4  ,-0.33054  ,5
4723  ,1.105e+06   ,-1.5567  ,2.3  ,4.8
4739  ,1.781e+05   ,-2.1044  ,2.5  ,4.9
4763  ,6.746e+03   ,-1.9  ,2.4  ,0
4780  ,3.125e-02   ,-2.3  ,-1.9695  ,0.2
4782  ,2.921e-04   ,-2.4707  ,-2.4  ,0.029289
4784  ,3.757e-02   ,-2.4  ,-1.9  ,0
4791  ,1.675e-03   ,-2.4  ,-2.5  ,1.8
4796  ,2.325e+02   ,2.4707  ,-2.4707  ,4.9
4799  ,3.021e+02   ,2.5  ,-2.4  ,4.8
4806  ,2.837e+02   ,2.3  ,-2.5  ,4.9
4809  ,5.046e+08   ,2.3  ,2.3  ,3.9166
4833  ,1.133e+04   ,-2.4  ,2.5  ,0.4
4841  ,1.203e+05   ,-2.4  ,2.5  ,2.6
4846  ,7.936e+04   ,-2.5  ,2.1  ,4.9
4848  ,9.510e+04   ,-2.5  ,2.3  ,4.9
4849  ,9.213e+04   ,-2.5  ,2.4  ,4.8
4893  ,1.591e+05   ,-2.4  ,2.5  ,4.2
4897  ,1.201e+09   ,2.3333  ,2.1998  ,5
4900  ,2.988e+09   ,2.391  ,2.4577  ,4.7576
4908  ,3.010e+09   ,2.2576  ,2.391  ,4.9577
4911  ,2.986e+09   ,2.2576  ,2.4577  ,4.891
4926  ,6.534e+03   ,-2.5  ,2.4  ,1
4932  ,4.889e+04   ,-2.4  ,2.5  ,1.6
4937  ,7.180e+04   ,-1.1  ,2.5  ,0.1
4939  ,1.927e+09   ,2.3  ,2.2299  ,4.7299
4944  ,2.097e+04   ,2.5  ,-1.9073  ,4.9
4987  ,2.450e+05   ,-2.3  ,1.5527  ,4.8
5010  ,1.717e+09   ,2.4973  ,2.1331  ,4.923
5013  ,1.097e+09   ,2.5  ,2.0345  ,4.9
5017  ,1.193e+09   ,2.4  ,2.0345  ,5
5035  ,1.199e+00   ,1.3  ,-2.4  ,0
5038  ,2.179e-01   ,1.2085  ,-2.5  ,0.2
5092  ,5.949e-04   ,-2.4  ,-2.5  ,1.2
5123  ,1.672e+01   ,2.5  ,-2.4  ,0.6
5151  ,4.260e+01   ,-2.5  ,-0.5  ,0.1
5160  ,5.014e+00   ,-2.5  ,-0.7  ,0.1
5164  ,1.354e+05   ,-2.4  ,0.9  ,5
5168  ,5.648e+04   ,-2.4  ,0.5  ,5
5176  ,3.308e+04   ,2.5  ,-0.7  ,0.1
5179  ,4.789e+04   ,2.4  ,-0.5  ,0
5189  ,9.132e+01   ,2.4  ,-2.5  ,2.4
5194  ,7.889e+01   ,2.3  ,-2.5  ,2.2576
5198  ,2.766e-04   ,-2.3  ,-2.5  ,0.32348
5205  ,8.382e-05   ,-2.4  ,-2.5  ,0.2
5207  ,8.282e-05   ,-2.1  ,-2.5  ,0.1
5246  ,3.094e+05   ,-2.5  ,2.4  ,3.2
5257  ,2.198e+04   ,-2.5  ,1.5  ,4.9
5263  ,5.958e+02   ,-2.3  ,0.2278  ,0.2
5272  ,1.493e+02   ,-2.5  ,0.3  ,0.1
5275  ,2.771e+04   ,-2.5  ,0.5  ,4.9
5281  ,4.866e+08   ,1.8375  ,2.5  ,4.9
5297  ,7.537e+04   ,-0.9  ,2.5  ,0.1
5306  ,7.384e+04   ,-0.7  ,2.4  ,0
5309  ,1.027e+05   ,-0.5  ,2.5  ,0.1
5324  ,1.886e+07   ,2.4  ,2.5  ,2.7607
5332  ,2.119e+01   ,2.5  ,-2.4  ,0.8
5334  ,6.730e+00   ,2.4  ,-2.5  ,1
5360  ,2.921e+04   ,2.4  ,-1.7102  ,5
5362  ,1.643e+05   ,2.4  ,-1.5131  ,5
5368  ,5.634e+08   ,2.4  ,1.8375  ,5
5371  ,5.179e+09   ,2.4325  ,2.4888  ,4.6656
5372  ,1.261e+09   ,2.3333  ,2.5  ,4.6998
5376  ,9.874e+08   ,2.4707  ,2.4707  ,4.6331
5377  ,1.183e+09   ,2.5  ,2.4  ,4.5345
5379  ,7.496e+00   ,-1.5  ,-2.5  ,4.9
5406  ,3.678e-02   ,-2.5  ,-2.4  ,3.4
5420  ,2.150e-02   ,-2.3  ,-2.5  ,3.2226
5423  ,1.463e+00   ,1.5  ,-2.4  ,0
5502  ,7.559e-04   ,-2.5  ,-2.3  ,0.1
5504  ,3.416e-04   ,-2.5  ,-2.4  ,0.2
5506  ,3.807e-04   ,-2.4  ,-2.3  ,0
5511  ,4.838e-03   ,-2.5  ,-2.1  ,0.1
5513  ,2.132e+02   ,-2.4  ,0.5  ,0
5517  ,4.976e-02   ,-0.9  ,-2.5  ,0.1
5532  ,9.210e+04   ,-2.4707  ,2.4707  ,4.9
5534  ,8.911e+03   ,2.4  ,-0.7  ,0
5551  ,5.861e+02   ,2.5  ,-2.4  ,3.8
5566  ,1.582e+06   ,2.5  ,2.4  ,1.3811
5603  ,5.109e+04   ,2.4  ,-0.3  ,0
5617  ,1.398e+04   ,-2.1  ,2.5  ,0.1
5637  ,1.773e+02   ,-2.3  ,-1.9695  ,4.8
5641  ,4.689e+01   ,2.3  ,-2.5  ,3.4636
5645  ,7.974e-04   ,-2.4  ,-2.5  ,2
5649  ,1.532e-03   ,-2.4  ,-2.5  ,2.2
5659  ,1.629e-03   ,-2.3  ,-2.5  ,1.7774
5662  ,4.523e+02   ,2.1765  ,-2.5  ,4.8
5666  ,2.358e+02   ,2.4  ,-2.5  ,4.8
5669  ,5.663e+02   ,2.3  ,-2.3412  ,4.8
5695  ,4.018e+02   ,-2.4  ,0.7  ,0
5701  ,4.080e+04   ,-2.5  ,2.4  ,1.6
5715  ,8.306e+04   ,-2.4  ,2.5  ,1.8
5726  ,1.275e+05   ,-0.7  ,2.5  ,0.1
5727  ,2.031e+04   ,-1.1  ,2.4  ,0
5730  ,7.871e+00   ,2.3  ,-2.5  ,1.7774
5746  ,6.647e+06   ,2.5  ,2.4  ,1.7753
5755  ,5.390e+02   ,2.5  ,-2.4  ,4.4
5763  ,1.530e+03   ,2.4  ,-2.5  ,4.4
5773  ,1.411e+08   ,1.0491  ,2.5  ,4.9
5791  ,5.077e+06   ,-0.72473  ,2.4  ,5
5795  ,5.813e+08   ,1.8375  ,2.4  ,5
5803  ,6.246e+01   ,-0.3  ,-2.4  ,5
5810  ,3.383e+08   ,2.4  ,1.6404  ,5
5836  ,2.707e+04   ,-2.5  ,1.3  ,4.9
5860  ,1.315e+01   ,2.5  ,-2.4  ,1.6
5866  ,5.169e-01   ,1.5  ,-2.5  ,0.1
5884  ,7.108e+04   ,-2.4  ,-0.3  ,5
5888  ,3.607e+04   ,-2.5  ,-0.5  ,4.9
5901  ,4.796e+01   ,2.3  ,-2.5  ,2.5
5908  ,1.053e+01   ,2.5  ,-2.4  ,1.2
5909  ,1.052e+02   ,2.5  ,-2.4  ,2
5934  ,9.536e+02   ,1.9  ,-2.5  ,4.9
5938  ,1.679e+03   ,1.933  ,-2.5  ,4.8
5948  ,7.632e-01   ,-2.4  ,-2.5  ,4.6
5950  ,6.400e-01   ,-2.4707  ,-2.4707  ,4.9
5951  ,2.520e+00   ,-2.5  ,-2.4  ,4.8
5952  ,5.290e+00   ,-2.5  ,-2.3  ,4.9
5986  ,9.306e+01   ,2.3  ,-2.5  ,3.7085
5990  ,2.832e+06   ,-0.92182  ,2.5  ,4.9
6019  ,1.037e+05   ,2.5  ,1.9  ,0.1
6025  ,2.903e+03   ,2.4  ,-1.3  ,0
6035  ,4.251e+04   ,-2.5  ,1.9  ,4.9
6044  ,2.156e+05   ,0.1  ,2.5  ,0.1
6054  ,1.033e+05   ,2.4  ,0.1  ,0
6070  ,5.100e+03   ,-2.4  ,2.3  ,0
6071  ,5.879e+03   ,-2.3  ,2.4  ,0
6076  ,7.149e+03   ,-2.4  ,2.1  ,0
6083  ,2.788e+00   ,2.1  ,-2.4  ,0
6084  ,6.963e+04   ,2.4  ,2.3  ,0
6087  ,9.497e+04   ,2.3  ,2.4  ,0
6092  ,2.792e-04   ,-2.4  ,-2.5  ,0.4
6096  ,7.669e-05   ,-2.3  ,-2.5  ,0.1
6099  ,7.203e-02   ,0.7  ,-2.5  ,0.1
6149  ,2.087e+00   ,-2.4  ,-0.9  ,0
6159  ,2.676e-03   ,-2.5  ,-2.4  ,2.6
6183  ,1.572e+08   ,1.2462  ,2.5  ,4.9
6224  ,2.426e+02   ,2.5  ,-2.4  ,4
6228  ,8.005e+01   ,2.4  ,-2.5  ,3.8
6237  ,5.978e+05   ,2.5  ,0.7  ,0.1
6241  ,1.229e+09   ,2.5  ,2.3333  ,4.6998
6245  ,2.633e+06   ,2.5  ,2.4  ,1.5782
6259  ,1.823e+03   ,2.5  ,-2.1044  ,4.9
6265  ,3.341e+03   ,2.3  ,-1.9804  ,4.8
6267  ,8.940e+02   ,2.5  ,-2.3015  ,4.9
6268  ,4.086e+02   ,2.4707  ,-2.4  ,4.9707
6270  ,3.831e+03   ,2.4  ,-2.1044  ,5
6317  ,8.276e+04   ,-2.3  ,0.2278  ,4.8
6349  ,6.047e+06   ,-0.52764  ,2.4  ,5
6391  ,6.584e+06   ,2.4  ,2.5  ,1.7753
6440  ,3.085e+05   ,-2.5  ,2.4  ,3.8
6471  ,1.016e+06   ,2.5  ,-0.92182  ,4.9
6489  ,1.510e+08   ,2.5  ,1.2462  ,4.9
6523  ,6.559e-02   ,-1.1  ,-2.4  ,0
6528  ,3.958e-02   ,-1.1  ,-2.5  ,0.1
6535  ,1.344e-01   ,-0.9  ,-2.4  ,0
6538  ,1.505e+02   ,1.5  ,-2.4  ,5
6541  ,9.506e+01   ,1.5  ,-2.5  ,4.9
6551  ,2.390e+06   ,2.5  ,-0.72473  ,4.9
6564  ,1.546e+09   ,2.1331  ,2.4973  ,4.923
6565  ,1.082e+09   ,2.0345  ,2.5  ,4.9
6572  ,2.240e+02   ,2.4  ,-1.7  ,0
6581  ,1.050e+05   ,0  ,2.3  ,0.2
6592  ,1.963e+02   ,2.3  ,-1.9695  ,0.2
6594  ,1.079e+05   ,0.3  ,2.4  ,0
6601  ,5.147e+05   ,0.5  ,2.5  ,0.1
6605  ,1.586e+00   ,-2.4  ,-1.3  ,0
6606  ,2.554e+00   ,-2.4  ,-1.1  ,0
6615  ,4.939e+01   ,-2.4  ,-0.3  ,0
6634  ,4.098e+02   ,2.1  ,-2.5  ,4.9
6635  ,1.985e+02   ,2.4  ,-2.4707  ,4.9707
6636  ,4.240e+02   ,2.3  ,-2.4  ,5
6647  ,1.395e-01   ,0.5  ,-2.5  ,0.1
6704  ,5.187e+03   ,-2.4707  ,2.4707  ,0.1
6708  ,6.550e+03   ,-2.5  ,2.4  ,0.2
6712  ,5.792e+05   ,-2.4  ,2.5  ,3.6
6715  ,6.218e+05   ,-2.4  ,2.5  ,3.4
6728  ,6.329e+04   ,-2.5  ,0.7  ,4.9
6753  ,2.053e+05   ,-2.1044  ,2.4  ,5
6788  ,6.895e+08   ,2.5  ,2.4  ,4.3375
6791  ,2.709e+01   ,-1.933  ,-2.5  ,4.8
6795  ,1.068e+09   ,2.1998  ,2.5  ,4.8333
6837  ,6.045e-04   ,-2.3  ,-2.5  ,0.8063
6869  ,3.228e+04   ,2.5  ,-1.7102  ,4.9
6873  ,2.015e+04   ,2.4  ,-1.9073  ,5
6880  ,1.566e+06   ,2.4  ,-0.92182  ,5
6885  ,4.327e+06   ,2.4  ,-0.52764  ,5
6893  ,1.224e+08   ,2.4  ,1.2462  ,5
6914  ,7.328e+05   ,0.7  ,2.5  ,0.1
6920  ,5.077e+05   ,0.9  ,2.4  ,0
6923  ,4.909e+05   ,0.7  ,2.4  ,0
6936  ,8.214e+01   ,2.4  ,-2.5  ,3.4
6939  ,6.321e+01   ,2.3  ,-2.5  ,3.2226
6961  ,3.191e+01   ,-0.1  ,-2.5  ,4.9
6967  ,6.216e+02   ,-2.5  ,-1.5  ,4.9
6975  ,1.750e+05   ,-2.4  ,1.1  ,5
6978  ,1.035e+04   ,-2.4  ,2.5  ,0.2
6987  ,4.335e+05   ,2.4  ,-1.316  ,5
6994  ,7.374e+02   ,2.4  ,-1.5  ,0
7004  ,1.109e+02   ,2.4  ,-2.5  ,3.6
7011  ,8.215e+07   ,2.4  ,0.65491  ,5
7016  ,4.221e+07   ,2.4  ,0.45782  ,5
7019  ,7.118e+06   ,2.5  ,2.4  ,2.1695
7021  ,7.559e+06   ,2.5  ,2.4  ,1.9724
7052  ,3.005e+04   ,-1.3  ,2.5  ,0.1
7054  ,6.242e-04   ,-2.4  ,-2.5  ,0.8
7057  ,2.749e-01   ,0.3  ,-2.5  ,0.1
7065  ,4.433e-01   ,0.24243  ,-2.5  ,0.2
7075  ,5.072e+09   ,2.4888  ,2.4325  ,4.6656
7113  ,4.173e-03   ,-2.4  ,-2.5  ,2.6
7121  ,3.654e-03   ,-2.4  ,-2.5  ,2.8
7126  ,1.594e-02   ,-2.5  ,-2.4  ,2.8
7128  ,6.727e-05   ,-2.4707  ,-2.4707  ,0.1
7129  ,5.697e-05   ,-2.4  ,-2.4707  ,0.029289
7141  ,1.962e+01   ,-1.7  ,-2.4  ,5
7145  ,4.523e+05   ,1.1  ,2.4  ,0
7163  ,2.495e+05   ,-1.7102  ,2.4  ,5
7172  ,8.543e+01   ,2.5  ,-2.4  ,3.2
7174  ,3.159e+05   ,-2.5  ,2.4  ,3.6
7183  ,9.447e+00   ,-1.4531  ,-2.5  ,4.8
7204  ,3.196e+06   ,2.3  ,-0.81068  ,4.8
7220  ,1.033e+07   ,2.5  ,0.063638  ,4.9
7227  ,3.071e+02   ,2.5  ,-1.9  ,0.1
7256  ,4.037e+01   ,-0.1  ,-2.4  ,5
7280  ,6.318e+06   ,-0.33054  ,2.4  ,5
7299  ,9.012e+05   ,2.5  ,-1.1189  ,4.9
7316  ,6.739e-04   ,-2.5  ,-2.4  ,0.8
7323  ,1.909e-04   ,-2.4  ,-2.5  ,1
7396  ,1.744e+02   ,1.1  ,-2.4  ,5
7400  ,4.551e+02   ,-2.5  ,0.7  ,0.1
7409  ,1.304e+02   ,1.3  ,-2.4  ,5
7420  ,2.092e+05   ,2.5  ,2.1  ,0.1
7429  ,1.113e+05   ,2.4  ,1.9  ,0
7436  ,5.919e+02   ,2.5  ,-1.7  ,0.1
7438  ,1.023e+02   ,2.4  ,-2.5  ,2.8
7445  ,4.593e+09   ,2.4325  ,2.1656  ,4.9888
7464  ,1.908e+03   ,2.5  ,-1.5  ,0.1
7480  ,6.708e+00   ,2.5  ,-2.4  ,0.2
7482  ,1.739e+00   ,1.9  ,-2.5  ,0.1
7483  ,1.467e+00   ,1.7  ,-2.5  ,0.1
7486  ,7.169e+02   ,1.9  ,-2.4  ,5
7488  ,7.223e+02   ,1.6937  ,-2.5  ,4.8
7492  ,1.070e+03   ,2.1  ,-2.4  ,5
7495  ,1.695e-01   ,0.1  ,-2.5  ,0.1
7504  ,5.330e-01   ,0.3  ,-2.4  ,0
7507  ,1.200e-01   ,0.9  ,-2.5  ,0.1
7533  ,7.406e+02   ,-2.5  ,0.9  ,0.1
7536  ,2.388e-02   ,-2.4  ,-2.5  ,3.2
7540  ,2.154e-02   ,-2.4  ,-2.5  ,3
7545  ,3.914e-02   ,-2.5  ,-2.4  ,3
7582  ,3.871e+05   ,1.3  ,2.5  ,0.1
7588  ,4.656e+06   ,2.5  ,2.4  ,2.3665
7598  ,1.579e+05   ,-2.5  ,2.4  ,4.2
7607  ,3.048e+05   ,1.5333  ,2.3  ,0.2
7627  ,3.328e+04   ,-2.5  ,1.1  ,4.9
7651  ,1.487e+02   ,2.4  ,-1.9  ,0
7656  ,3.011e+05   ,2.5  ,2.4  ,0.39564
7660  ,2.007e+09   ,2.2299  ,2.3  ,4.7299
7668  ,9.013e+01   ,1.4531  ,-2.5  ,4.8
7676  ,6.247e+01   ,0.1  ,-2.5  ,4.9
7683  ,8.837e+01   ,0.1  ,-2.4  ,5
7686  ,7.387e+03   ,-2.4  ,-1.1  ,5
7702  ,2.150e-01   ,-2.3  ,-2.5  ,4.433
7710  ,2.755e+00   ,-2.3  ,-2.5  ,4.6765
7752  ,1.098e+02   ,0.9  ,-2.4  ,5
7763  ,7.322e+01   ,0.24243  ,-2.5  ,4.8
7767  ,4.787e-02   ,-2.5  ,-2.4  ,3.2
7768  ,3.893e-03   ,-2.4  ,-2.1  ,0
7776  ,7.597e+02   ,-2.4  ,0.9  ,0
7786  ,1.387e+02   ,-0.4838  ,-2.5  ,4.8
7800  ,1.151e+03   ,2.5  ,-2.4  ,4.6
7805  ,3.885e+03   ,-2.5  ,-1.3  ,4.9
7811  ,4.680e+03   ,-2.5  ,-1.1  ,4.9
7820  ,3.041e+01   ,2.5  ,-2.1  ,0.1
7824  ,3.281e+01   ,2.4  ,-2.1  ,0
7828  ,5.371e+02   ,2.4  ,-2.5  ,4.2
7831  ,1.163e+02   ,2.4  ,-2.5  ,4
7838  ,8.520e+02   ,2.5  ,-2.4  ,4.2
7839  ,1.754e+07   ,2.5  ,2.4  ,2.7607
7840  ,3.669e+07   ,2.5  ,2.4  ,2.9578
7863  ,1.911e-01   ,-2.4  ,-1.5  ,0
7890  ,3.180e+05   ,2.4  ,0.9  ,0
7897  ,7.370e+00   ,-2.4  ,-0.7  ,0
7912  ,6.955e-03   ,-1.5  ,-2.4  ,0
7917  ,3.458e-02   ,-1.3  ,-2.5  ,0.1
7931  ,3.963e+05   ,0.5  ,2.4  ,0
7934  ,3.973e-01   ,1.1  ,-2.4  ,0
7937  ,1.936e+01   ,2.4  ,-2.5  ,0.8
7941  ,1.557e-03   ,-2.4  ,-2.5  ,0.6
7969  ,5.426e+03   ,-2.5  ,2.3  ,0.1
7971  ,1.607e+03   ,-2.4  ,1.9  ,0
7972  ,1.221e+04   ,-1.9  ,2.5  ,0.1
7978  ,7.092e+02   ,-2.4  ,1.1  ,0
7996  ,3.955e+04   ,-2.4  ,-0.5  ,5
8000  ,1.676e-03   ,-2.5  ,-2.4  ,0.6
8003  ,4.573e-04   ,-2.5  ,-2.4  ,0.4
8025  ,8.626e+05   ,0.9  ,2.5  ,0.1
8035  ,2.682e+05   ,0.3  ,2.5  ,0.1
8039  ,6.043e+00   ,2.3  ,-2.5  ,0.32348
8041  ,4.344e+00   ,2.3  ,-2.3379  ,0.2
8043  ,3.509e+00   ,2.1765  ,-2.5  ,0.2
8045  ,1.446e-01   ,-0.96359  ,-2.5  ,0.2
8054  ,3.930e+05   ,1.3  ,2.4  ,0
8058  ,3.829e+05   ,1.1  ,2.5  ,0.1
8062  ,1.454e+04   ,-2.5  ,2.4  ,1.4
8067  ,5.619e+03   ,-2.5  ,2.4  ,0.8
8087  ,9.241e+02   ,-2.5  ,1.5  ,0.1
8132  ,6.979e+06   ,-0.13345  ,2.4  ,5
8183  ,2.175e+04   ,2.5  ,-0.9  ,0.1
8184  ,4.205e+00   ,1.6937  ,-2.5  ,0.2
8214  ,3.071e+00   ,-2.4707  ,-2.4  ,4.9707
8217  ,7.084e+00   ,-2.1  ,-2.4  ,5
8219  ,3.865e-01   ,-2.4  ,-2.5  ,4.4
8227  ,5.509e+07   ,2.5  ,2.4  ,3.1549
8242  ,4.903e+01   ,0.7  ,-2.5  ,4.9
8248  ,2.729e+02   ,2.5  ,-2.4  ,3.6
8254  ,1.232e+05   ,2.5  ,-0.3  ,0.1
8256  ,7.657e+04   ,2.5  ,-0.5  ,0.1
8258  ,5.791e+01   ,-0.3  ,-2.5  ,4.9
8263  ,1.450e+02   ,-0.5  ,-2.5  ,4.9
8268  ,5.396e-02   ,-2.3  ,-2.5  ,3.7085
8277  ,1.926e-01   ,-0.1  ,-2.5  ,0.1
8285  ,1.479e+02   ,1.1  ,-2.5  ,4.9
8307  ,3.816e+04   ,0.1  ,2.4  ,0
8308  ,9.385e+04   ,-0.1  ,2.5  ,0.1
8309  ,2.729e+04   ,-0.1  ,2.4  ,0
8313  ,1.341e+01   ,2.5  ,-2.3  ,0.1
8318  ,1.605e+02   ,2.5  ,-2.4  ,3
8338  ,1.421e+08   ,2.5  ,2.4  ,3.352
8339  ,6.256e+07   ,2.4  ,2.5  ,3.1549
8344  ,2.994e+05   ,-2.5  ,2.4  ,3.4
8357  ,4.505e+09   ,2.4888  ,2.1656  ,4.9325
8358  ,1.101e+09   ,2.5  ,2.1998  ,4.8333
8383  ,5.388e-03   ,-1.7  ,-2.4  ,0
8396  ,3.200e-01   ,1.1  ,-2.5  ,0.1
8399  ,1.246e+09   ,2.4526  ,2.1331  ,4.9851
8405  ,1.483e+01   ,2.5  ,-2.4  ,1
8412  ,2.146e+01   ,2.3  ,-2.5  ,0.8063
8417  ,4.811e-03   ,-2.3  ,-2.5  ,2.5
8434  ,1.264e+02   ,0.9636  ,-2.5  ,4.8
8438  ,4.407e-01   ,-0.3  ,-2.5  ,0.1
8452  ,6.249e+04   ,-2.4  ,-0.1  ,5
8468  ,1.219e+08   ,2.5  ,2.4  ,3.7462
8471  ,8.990e+00   ,-1.3  ,-2.5  ,4.9
8493  ,6.731e+00   ,-1.1  ,-2.5  ,4.9
8509  ,5.666e-02   ,-2.5  ,-1.7  ,0.1
8517  ,4.292e+05   ,-2.4  ,2.5  ,3
8531  ,1.166e+03   ,-2.4  ,1.7  ,0
8556  ,1.296e+08   ,2.5  ,2.4  ,3.5491
8573  ,3.132e+05   ,-1.316  ,2.4  ,5
8576  ,9.112e+02   ,-2.4  ,1.3  ,0
8611  ,6.356e+00   ,2.3  ,-2.5  ,1.2915
8618  ,2.433e+05   ,-2.4  ,2.5  ,4
8646  ,9.597e+02   ,-2.5  ,1.1  ,0.1
8656  ,4.790e+03   ,2.5  ,-1.3  ,0.1
8657  ,7.609e+04   ,2.4  ,2.1  ,0
8673  ,8.713e+03   ,-1.3  ,2.4  ,0
8692  ,4.746e+01   ,0.72263  ,-2.5  ,4.8
8696  ,7.243e+00   ,2.3  ,-2.5  ,1.0469
8706  ,6.769e+07   ,2.5  ,0.65491  ,4.9
8721  ,7.316e-04   ,-2.4  ,-2.5  ,1.6
8725  ,5.599e+07   ,0.65491  ,2.4  ,5
8739  ,4.800e+09   ,2.1656  ,2.4325  ,4.9888
8741  ,1.212e+09   ,2.1998  ,2.3333  ,5
8746  ,2.493e-04   ,-2.1  ,-2.4  ,0
8748  ,4.802e-04   ,-2.5  ,-2.4  ,1.2
8752  ,1.234e+09   ,2.1331  ,2.4526  ,4.9851
8759  ,1.614e-04   ,-2.3  ,-2.5  ,1.0469
8787  ,9.356e-01   ,-0.1  ,-2.4  ,0
8793  ,1.047e-03   ,-2.3  ,-2.5  ,2.2576
8795  ,4.275e-03   ,-2.4  ,-2.5  ,2.4
8798  ,9.123e-02   ,-2.3  ,-2.5  ,4.1937
8808  ,2.352e-01   ,-2.3  ,-2.5  ,3.9531
8814  ,1.644e+03   ,-2.4  ,-1.5  ,5
8849  ,1.870e+01   ,0.4838  ,-2.5  ,4.8
8851  ,4.607e-02   ,-2.4  ,-2.5  ,4.2
8868  ,5.589e+01   ,2.4  ,-2.5  ,3
8874  ,1.224e+08   ,0.852  ,2.4  ,5
8883  ,1.442e+02   ,-0.5  ,-2.4  ,5
8886  ,1.781e+01   ,-0.72262  ,-2.5  ,4.8
8893  ,1.570e+01   ,-0.7  ,-2.5  ,4.9
8897  ,7.692e-02   ,-2.5  ,-2.4  ,3.6
8899  ,3.587e-02   ,-2.3  ,-2.5  ,3.4636
8900  ,8.484e-01   ,-2.3  ,-1.4729  ,0.2
8906  ,1.085e+00   ,-2.5  ,-1.3  ,0.1
8910  ,1.195e+08   ,0.852  ,2.5  ,4.9
8925  ,2.852e+04   ,-2.4  ,2.5  ,1.4
8941  ,7.569e+04   ,2.4707  ,2.4  ,0.029289
8942  ,1.190e+05   ,2.5  ,2.3  ,0.1
8945  ,1.465e+04   ,-2.5  ,0.1  ,4.9
8950  ,1.237e+05   ,2.4707  ,2.4707  ,0.1
8951  ,6.327e+04   ,2.4  ,2.4707  ,0.029289
8959  ,2.380e+07   ,2.4  ,0.26073  ,5
8965  ,2.689e+07   ,0.45782  ,2.4  ,5
8978  ,9.981e+07   ,2.4  ,0.852  ,5
8983  ,9.089e+03   ,2.5  ,-1.1  ,0.1
8991  ,2.114e+03   ,-2.5  ,2.4  ,0.6
9008  ,1.369e+08   ,2.5  ,0.852  ,4.9
9011  ,3.310e+01   ,-2.4  ,-0.5  ,0
9025  ,4.946e-03   ,-1.5  ,-2.5  ,0.1
9038  ,1.105e+02   ,2.4  ,-2.5  ,2
9041  ,7.157e+05   ,2.5  ,0.9  ,0.1
9050  ,4.800e+05   ,2.5  ,0.5  ,0.1
9054  ,1.314e-01   ,0.9  ,-2.4  ,0
9060  ,6.748e+00   ,2.4  ,-2.5  ,0.4
9062  ,4.317e+01   ,2.3  ,-2.5  ,0.56701
9064  ,2.031e+01   ,2.5  ,-2.4  ,0.4
9069  ,1.631e+01   ,2.4  ,-2.5  ,0.6
9071  ,4.097e-01   ,1.4531  ,-2.5  ,0.2
9082  ,3.227e-04   ,-2.3  ,-2.5  ,1.2915
9086  ,6.021e-04   ,-2.4  ,-2.5  ,1.4
9091  ,7.935e-04   ,-2.5  ,-2.4  ,1.4
9094  ,1.622e+02   ,1.3  ,-2.5  ,4.9
9097  ,1.397e-01   ,-0.7  ,-2.5  ,0.1
9137  ,3.098e+03   ,-2.5  ,-0.7  ,4.9
9143  ,3.672e+04   ,-2.5  ,-0.1  ,4.9
9146  ,8.125e+03   ,-2.1  ,2.4  ,0
9148  ,3.679e+04   ,-2.5  ,1.7  ,4.9
9173  ,3.144e+05   ,-2.5  ,2.4  ,3
9192  ,2.384e+01   ,-0.7  ,-2.4  ,5
9195  ,8.802e-02   ,0.72263  ,-2.5  ,0.2
9209  ,1.666e+02   ,2.5  ,-2.4  ,3.4
9215  ,2.300e-01   ,0.9636  ,-2.5  ,0.2
9217  ,1.588e+02   ,2.4  ,-2.5  ,3.2
9218  ,2.713e+00   ,-0.96359  ,-2.5  ,4.8
9229  ,1.824e+05   ,-2.4  ,2.5  ,2.8
9248  ,2.166e+03   ,2.3  ,-2.5  ,4.433
9255  ,3.942e+05   ,2.5  ,1.3  ,0.1
9257  ,1.598e+05   ,2.4  ,1.5  ,0
9262  ,1.302e+02   ,0.5  ,-2.4  ,5
9264  ,1.155e+07   ,2.4  ,-0.13345  ,5
9272  ,8.324e+06   ,0.063638  ,2.4  ,5
9277  ,6.367e+03   ,-2.5  ,2.4  ,1.2
9279  ,1.971e+07   ,2.5  ,0.26073  ,4.9
9282  ,2.823e+02   ,1.2085  ,-2.5  ,4.8
9286  ,7.249e+01   ,0.9  ,-2.5  ,4.9
9292  ,1.299e+05   ,-2.4  ,2.4707  ,4.9707
9293  ,1.525e+05   ,-2.3015  ,2.4  ,5
9296  ,1.680e+01   ,-2.4  ,-2.1  ,5
9303  ,1.236e+02   ,-2.4  ,-1.9  ,5
9311  ,1.251e+05   ,-2.4  ,2.3  ,5
9313  ,4.098e+04   ,-2.4  ,0.1  ,5
9319  ,5.153e-01   ,-0.5  ,-2.4  ,0
9328  ,8.969e-04   ,-2.3  ,-2.5  ,1.5364
9334  ,1.030e+04   ,-2.3  ,2.5  ,0.1
9338  ,3.667e-03   ,-2.5  ,-2.4  ,2.4
9339  ,6.163e+02   ,-2.5  ,1.3  ,0.1
9341  ,2.986e-03   ,-2.3  ,-2.5  ,2.7424
9344  ,2.986e-03   ,-2.5  ,-2.4  ,2.2
9358  ,1.150e+05   ,-2.3  ,2.3  ,2.5
9364  ,1.656e+01   ,-2.5  ,-2.1  ,4.9
9367  ,9.780e+00   ,-2.4  ,-2.3  ,5
9374  ,4.865e+03   ,-2.4  ,-1.3  ,5
9378  ,3.780e+04   ,-2.5  ,2.4  ,1.8
9384  ,9.759e+01   ,2.3  ,-2.5  ,2.0162
9385  ,6.902e+04   ,-2.5  ,2.4  ,4.4
9389  ,3.071e+04   ,-2.5  ,2.4  ,2
9395  ,6.300e+02   ,2.4  ,-2.3015  ,5
9396  ,5.715e-02   ,-2.4  ,-1.7  ,0
9407  ,3.099e+03   ,-2.3  ,-1.4729  ,4.8
9411  ,1.723e+02   ,-2.5  ,-1.7  ,4.9
9423  ,3.580e-02   ,-2.4  ,-2.5  ,3.6
9432  ,7.773e+01   ,0.7  ,-2.4  ,5
9438  ,7.275e+03   ,-2.5  ,-0.9  ,4.9
9443  ,4.254e+04   ,-2.5  ,-0.3  ,4.9
9445  ,8.593e+04   ,-2.4707  ,2.4  ,4.9707
9448  ,6.123e+05   ,2.4  ,-1.1189  ,5
9453  ,2.823e+05   ,2.4  ,0.7  ,0
9455  ,2.406e+02   ,2.5  ,-2.4  ,2.6
9457  ,9.583e+01   ,2.3  ,-2.5  ,2.9838
9494  ,9.927e+03   ,-2.4  ,2.5  ,1
9500  ,7.684e+01   ,0.3  ,-2.5  ,4.9
9504  ,1.442e+02   ,0.3  ,-2.4  ,5
9506  ,1.484e+00   ,2.1  ,-2.5  ,0.1
9518  ,1.247e-04   ,-1.9  ,-2.5  ,0.1
9528  ,9.322e-01   ,2.3  ,-2.5  ,0.1
9531  ,2.573e+00   ,2.4707  ,-2.4707  ,0.1
9533  ,2.357e+00   ,2.4707  ,-2.4  ,0.029289
9534  ,8.805e-01   ,2.4  ,-2.4707  ,0.029289
9541  ,3.258e+01   ,0.5  ,-2.5  ,4.9
9544  ,3.496e-01   ,-0.5  ,-2.5  ,0.1
9559  ,3.113e+01   ,-2.5  ,-1.9  ,4.9
9562  ,8.202e+04   ,-2.5  ,2.4  ,4.6
9565  ,7.506e+04   ,-2.4  ,2.5  ,2
9571  ,1.901e-01   ,-2.5  ,-2.4  ,3.8
9574  ,4.419e-02   ,-2.4  ,-2.5  ,3.8
9577  ,2.572e-01   ,1.3  ,-2.5  ,0.1
9582  ,2.639e+00   ,-2.5  ,-0.9  ,0.1
9596  ,6.854e+04   ,2.1  ,2.4  ,0
9598  ,4.820e+05   ,-2.4  ,2.5  ,3.2
9602  ,2.009e+05   ,1.5  ,2.5  ,0.1
9610  ,2.894e+05   ,2.4  ,2.5  ,0.39564
9612  ,5.096e+06   ,-0.72473  ,2.5  ,4.9
9614  ,1.181e+05   ,1.7  ,2.5  ,0.1
9635  ,2.898e+05   ,2.5  ,1.7  ,0.1
9646  ,1.224e+05   ,2.3  ,2.5  ,0.1
9651  ,4.518e+09   ,2.1656  ,2.4888  ,4.9325
9653  ,3.985e+05   ,2.5  ,-1.316  ,4.9
9656  ,3.895e+02   ,-2.4  ,-1.7  ,5
9659  ,3.457e+02   ,2.3  ,-2.5  ,4.6765
9661  ,1.328e+02   ,2.3  ,-2.5  ,3.9531
9664  ,7.676e+00   ,-2.3  ,-2.4  ,5
9666  ,4.556e+00   ,1.9  ,-2.4  ,0
9677  ,8.771e+04   ,2.4  ,0.5  ,0
9678  ,1.965e+00   ,-2.5  ,-1.1  ,0.1
9680  ,7.483e+05   ,2.5  ,2.4  ,1.184
9681  ,8.393e+04   ,2.5  ,2.4  ,0.19855
9696  ,9.941e-04   ,-2.3  ,-2.5  ,2.0162
9698  ,5.876e+00   ,2.4  ,-2.3  ,0
9699  ,4.250e-01   ,-0.24243  ,-2.5  ,0.2
9701  ,2.546e-01   ,0.1  ,-2.4  ,0
9704  ,5.039e-01   ,-0.4838  ,-2.5  ,0.2
9718  ,8.443e-02   ,-0.72262  ,-2.5  ,0.2
9726  ,3.985e+04   ,2.3  ,-0.76628  ,0.2
9727  ,8.398e+03   ,-2.5  ,2.4  ,0.4
9730  ,4.023e+01   ,1.9433E-06  ,-2.5  ,4.8
9731  ,9.583e+01   ,-0.24243  ,-2.5  ,4.8
9732  ,5.814e+04   ,-2.5  ,2.4  ,2.2
9738  ,3.942e-01   ,-2.5  ,-2.4  ,4
9743  ,1.640e+01   ,-1.6937  ,-2.5  ,4.8
9744  ,1.491e-01   ,-2.4  ,-2.5  ,4
9750  ,2.922e-04   ,-1.7  ,-2.5  ,0.1
9752  ,1.275e-03   ,-1.6937  ,-2.5  ,0.2
9754  ,4.144e-02   ,-1.3  ,-2.4  ,0
9759  ,4.267e+03   ,-2.4707  ,2.4  ,0.029289
9760  ,4.639e+03   ,-2.4  ,2.4707  ,0.029289
9768  ,7.042e+02   ,2.3  ,-2.5  ,4.1937
9770  ,2.420e-01   ,1.9433E-06  ,-2.5  ,0.2
9771  ,1.752e-01   ,0.4838  ,-2.5  ,0.2
9772  ,4.740e+00   ,2.4  ,-2.5  ,0.2
9773  ,3.136e+02   ,2.4  ,-2.5  ,4.6
9776  ,1.020e+07   ,2.4  ,0.063638  ,5
9780  ,5.523e+07   ,0.65491  ,2.5  ,4.9
9781  ,9.796e+04   ,2.4  ,2.5  ,0.19855
9782  ,2.169e-02   ,-2.3  ,-2.5  ,2.9838
9786  ,2.687e-02   ,-1.2085  ,-2.5  ,0.2
9787  ,8.395e-03   ,-1.4531  ,-2.5  ,0.2
9790  ,4.052e+00   ,2.3  ,-2.4  ,0
9793  ,1.105e+09   ,2.0345  ,2.4  ,5
9797  ,6.055e+00   ,2.3  ,-2.5  ,1.5364
9798  ,1.220e+08   ,2.4  ,1.0491  ,5
9809  ,1.358e+08   ,2.4  ,2.5  ,3.352
