Date:  11:19, Monday, July 10, 2023
Model name: Hollow_DropBox
Study name: Drop Test_hollow_draft1(-Default-)
Plot type:  Stress1
Plot step: 11   time : 57.7182 Microseconds
Result Type: von Mises 


Node  ,Value (N/m^2)  ,X (in)  ,Y (in)  ,Z (in)
1  ,6.358e+09   ,2.5  ,2.1331  ,4.9
2  ,2.233e+10   ,2.4577  ,2.1908  ,4.9577
3  ,1.311e+10   ,2.4894  ,2.1331  ,4.9447
4  ,6.592e+09   ,2.1331  ,2.5  ,4.9
5  ,1.386e+10   ,2.1331  ,2.4894  ,4.9447
6  ,2.053e+10   ,2.1908  ,2.4577  ,4.9577
7  ,9.620e+07   ,-2.4  ,2.4  ,5
8  ,4.127e+08   ,-2.4  ,-2.4  ,5
9  ,6.346e+08   ,2.4  ,-2.4  ,5
10  ,5.731e+09   ,2.4  ,2.1331  ,5
11  ,6.089e+09   ,2.1331  ,2.4  ,5
12  ,6.721e+08   ,2.5  ,-2.4  ,4.9
13  ,3.847e+08   ,2.5  ,-2.4  ,0.1
14  ,7.631e+07   ,2.5  ,2.4  ,0.1
15  ,6.581e+09   ,2.5  ,2.4  ,4.6331
16  ,1.060e+08   ,2.4  ,2.5  ,0.1
17  ,6.271e+07   ,-2.4  ,2.5  ,0.1
18  ,1.060e+08   ,-2.4  ,2.5  ,4.9
19  ,6.544e+09   ,2.4  ,2.5  ,4.6331
20  ,5.414e+07   ,-2.5  ,2.4  ,0.1
21  ,6.596e+07   ,-2.5  ,-2.4  ,0.1
22  ,2.896e+08   ,-2.5  ,-2.4  ,4.9
23  ,1.142e+08   ,-2.5  ,2.4  ,4.9
24  ,1.970e+08   ,-2.3  ,-2.5  ,0.2
25  ,3.686e+08   ,-2.3  ,-2.5  ,4.8
26  ,7.108e+08   ,2.3  ,-2.5  ,4.8
27  ,3.679e+08   ,2.3  ,-2.5  ,0.2
28  ,3.118e+08   ,-2.4  ,-2.5  ,4.9
29  ,7.035e+08   ,2.4  ,-2.5  ,4.9
30  ,4.537e+07   ,-2.4  ,-2.5  ,0.1
31  ,3.153e+08   ,2.4  ,-2.5  ,0.1
32  ,2.871e+08   ,2.4  ,-2.4  ,0
33  ,9.097e+07   ,2.4  ,2.4  ,0
34  ,8.612e+07   ,-2.4  ,-2.4  ,0
35  ,6.912e+07   ,-2.4  ,2.4  ,0
36  ,2.456e+10   ,2.4577  ,2.4577  ,4.6908
37  ,3.102e+08   ,-2.3  ,2.3  ,4.8
38  ,7.242e+09   ,2.1599  ,2.3  ,4.8
39  ,7.051e+09   ,2.3  ,2.1599  ,4.8
40  ,7.010e+09   ,2.3  ,2.3  ,4.6599
41  ,2.910e+08   ,2.3  ,2.3  ,0.2
42  ,1.919e+08   ,-2.3  ,2.3  ,0.2
43  ,1.353e+08   ,-2.4  ,2.2  ,5
44  ,1.216e+08   ,-2.4  ,2  ,5
45  ,1.388e+08   ,-2.4  ,1.8  ,5
46  ,1.635e+08   ,-2.4  ,1.6  ,5
47  ,1.986e+08   ,-2.4  ,1.4  ,5
48  ,2.783e+08   ,-2.4  ,1.2  ,5
49  ,3.121e+08   ,-2.4  ,1  ,5
50  ,4.047e+08   ,-2.4  ,0.8  ,5
51  ,3.511e+08   ,-2.4  ,0.6  ,5
52  ,3.114e+08   ,-2.4  ,0.4  ,5
53  ,2.879e+08   ,-2.4  ,0.2  ,5
54  ,2.412e+08   ,-2.4  ,5.8879E-16  ,5
55  ,2.933e+08   ,-2.4  ,-0.2  ,5
56  ,3.472e+08   ,-2.4  ,-0.4  ,5
57  ,2.689e+08   ,-2.4  ,-0.6  ,5
58  ,2.328e+08   ,-2.4  ,-0.8  ,5
59  ,2.600e+08   ,-2.4  ,-1  ,5
60  ,2.294e+08   ,-2.4  ,-1.2  ,5
61  ,2.576e+08   ,-2.4  ,-1.4  ,5
62  ,2.111e+08   ,-2.4  ,-1.6  ,5
63  ,1.954e+08   ,-2.4  ,-1.8  ,5
64  ,2.506e+08   ,-2.4  ,-2  ,5
65  ,2.559e+08   ,-2.4  ,-2.2  ,5
66  ,5.387e+08   ,-2.2  ,-2.4  ,5
67  ,3.748e+08   ,-2  ,-2.4  ,5
68  ,1.979e+08   ,-1.8  ,-2.4  ,5
69  ,9.561e+07   ,-1.6  ,-2.4  ,5
70  ,1.831e+08   ,-1.4  ,-2.4  ,5
71  ,2.367e+08   ,-1.2  ,-2.4  ,5
72  ,2.953e+08   ,-1  ,-2.4  ,5
73  ,3.313e+08   ,-0.8  ,-2.4  ,5
74  ,2.333e+08   ,-0.6  ,-2.4  ,5
75  ,2.398e+08   ,-0.4  ,-2.4  ,5
76  ,3.158e+08   ,-0.2  ,-2.4  ,5
77  ,3.174e+08   ,-5.8879E-16  ,-2.4  ,5
78  ,3.065e+08   ,0.2  ,-2.4  ,5
79  ,3.258e+08   ,0.4  ,-2.4  ,5
80  ,2.775e+08   ,0.6  ,-2.4  ,5
81  ,4.191e+08   ,0.8  ,-2.4  ,5
82  ,6.531e+08   ,1  ,-2.4  ,5
83  ,7.960e+08   ,1.2  ,-2.4  ,5
84  ,8.958e+08   ,1.4  ,-2.4  ,5
85  ,7.882e+08   ,1.6  ,-2.4  ,5
86  ,5.496e+08   ,1.8  ,-2.4  ,5
87  ,2.792e+08   ,2  ,-2.4  ,5
88  ,8.929e+08   ,2.2  ,-2.4  ,5
89  ,5.254e+08   ,2.4  ,-2.2029  ,5
90  ,5.431e+08   ,2.4  ,-2.0058  ,5
91  ,4.281e+08   ,2.4  ,-1.8087  ,5
92  ,3.450e+08   ,2.4  ,-1.6116  ,5
93  ,3.555e+08   ,2.4  ,-1.4145  ,5
94  ,3.527e+08   ,2.4  ,-1.2175  ,5
95  ,3.731e+08   ,2.4  ,-1.0204  ,5
96  ,4.264e+08   ,2.4  ,-0.82327  ,5
97  ,4.222e+08   ,2.4  ,-0.62618  ,5
98  ,4.188e+08   ,2.4  ,-0.42909  ,5
99  ,4.410e+08   ,2.4  ,-0.232  ,5
100  ,4.910e+08   ,2.4  ,-0.034907  ,5
101  ,5.881e+08   ,2.4  ,0.16218  ,5
102  ,7.903e+08   ,2.4  ,0.35927  ,5
103  ,9.510e+08   ,2.4  ,0.55637  ,5
104  ,1.116e+09   ,2.4  ,0.75346  ,5
105  ,9.986e+08   ,2.4  ,0.95055  ,5
106  ,1.055e+09   ,2.4  ,1.1476  ,5
107  ,1.557e+09   ,2.4  ,1.3447  ,5
108  ,2.201e+09   ,2.4  ,1.5418  ,5
109  ,2.815e+09   ,2.4  ,1.7389  ,5
110  ,4.541e+09   ,2.4  ,1.936  ,5
111  ,6.144e+09   ,2.2665  ,2.2665  ,5
112  ,4.655e+09   ,1.936  ,2.4  ,5
113  ,2.750e+09   ,1.7389  ,2.4  ,5
114  ,2.175e+09   ,1.5418  ,2.4  ,5
115  ,1.555e+09   ,1.3447  ,2.4  ,5
116  ,1.203e+09   ,1.1476  ,2.4  ,5
117  ,1.154e+09   ,0.95055  ,2.4  ,5
118  ,1.209e+09   ,0.75346  ,2.4  ,5
119  ,1.055e+09   ,0.55637  ,2.4  ,5
120  ,9.118e+08   ,0.35927  ,2.4  ,5
121  ,8.566e+08   ,0.16218  ,2.4  ,5
122  ,7.844e+08   ,-0.034907  ,2.4  ,5
123  ,7.991e+08   ,-0.232  ,2.4  ,5
124  ,6.487e+08   ,-0.42909  ,2.4  ,5
125  ,5.535e+08   ,-0.62618  ,2.4  ,5
126  ,7.102e+08   ,-0.82327  ,2.4  ,5
127  ,6.555e+08   ,-1.0204  ,2.4  ,5
128  ,5.833e+08   ,-1.2175  ,2.4  ,5
129  ,4.971e+08   ,-1.4145  ,2.4  ,5
130  ,3.756e+08   ,-1.6116  ,2.4  ,5
131  ,2.749e+08   ,-1.8087  ,2.4  ,5
132  ,2.169e+08   ,-2.0058  ,2.4  ,5
133  ,1.405e+08   ,-2.2029  ,2.4  ,5
294  ,4.742e+08   ,2.5  ,-2.2029  ,4.9
295  ,5.225e+08   ,2.5  ,-2.0058  ,4.9
296  ,4.213e+08   ,2.5  ,-1.8087  ,4.9
297  ,3.905e+08   ,2.5  ,-1.6116  ,4.9
298  ,3.349e+08   ,2.5  ,-1.4145  ,4.9
299  ,3.728e+08   ,2.5  ,-1.2175  ,4.9
300  ,3.841e+08   ,2.5  ,-1.0204  ,4.9
301  ,3.395e+08   ,2.5  ,-0.82327  ,4.9
302  ,3.819e+08   ,2.5  ,-0.62618  ,4.9
303  ,4.266e+08   ,2.5  ,-0.42909  ,4.9
304  ,5.337e+08   ,2.5  ,-0.232  ,4.9
305  ,6.211e+08   ,2.5  ,-0.034907  ,4.9
306  ,7.264e+08   ,2.5  ,0.16218  ,4.9
307  ,7.534e+08   ,2.5  ,0.35927  ,4.9
308  ,8.699e+08   ,2.5  ,0.55637  ,4.9
309  ,1.017e+09   ,2.5  ,0.75346  ,4.9
310  ,1.064e+09   ,2.5  ,0.95055  ,4.9
311  ,1.258e+09   ,2.5  ,1.1476  ,4.9
312  ,1.534e+09   ,2.5  ,1.3447  ,4.9
313  ,2.210e+09   ,2.5  ,1.5418  ,4.9
314  ,3.355e+09   ,2.5  ,1.7389  ,4.9
315  ,5.001e+09   ,2.5  ,1.936  ,4.9
316  ,8.931e+08   ,2.5  ,-2.4  ,4.7
317  ,2.598e+08   ,2.5  ,-2.4  ,4.5
318  ,5.318e+08   ,2.5  ,-2.4  ,4.3
319  ,8.382e+08   ,2.5  ,-2.4  ,4.1
320  ,8.360e+08   ,2.5  ,-2.4  ,3.9
321  ,8.721e+08   ,2.5  ,-2.4  ,3.7
322  ,6.932e+08   ,2.5  ,-2.4  ,3.5
323  ,4.413e+08   ,2.5  ,-2.4  ,3.3
324  ,3.183e+08   ,2.5  ,-2.4  ,3.1
325  ,3.775e+08   ,2.5  ,-2.4  ,2.9
326  ,3.600e+08   ,2.5  ,-2.4  ,2.7
327  ,3.427e+08   ,2.5  ,-2.4  ,2.5
328  ,3.092e+08   ,2.5  ,-2.4  ,2.3
329  ,2.292e+08   ,2.5  ,-2.4  ,2.1
330  ,2.664e+08   ,2.5  ,-2.4  ,1.9
331  ,3.434e+08   ,2.5  ,-2.4  ,1.7
332  ,3.124e+08   ,2.5  ,-2.4  ,1.5
333  ,2.571e+08   ,2.5  ,-2.4  ,1.3
334  ,1.861e+08   ,2.5  ,-2.4  ,1.1
335  ,6.970e+07   ,2.5  ,-2.4  ,0.9
336  ,2.750e+08   ,2.5  ,-2.4  ,0.7
337  ,4.052e+08   ,2.5  ,-2.4  ,0.5
338  ,5.222e+08   ,2.5  ,-2.4  ,0.3
339  ,2.368e+08   ,2.5  ,-2.2  ,0.1
340  ,2.494e+08   ,2.5  ,-2  ,0.1
341  ,1.762e+08   ,2.5  ,-1.8  ,0.1
342  ,1.537e+08   ,2.5  ,-1.6  ,0.1
343  ,1.703e+08   ,2.5  ,-1.4  ,0.1
344  ,2.225e+08   ,2.5  ,-1.2  ,0.1
345  ,2.310e+08   ,2.5  ,-1  ,0.1
346  ,1.819e+08   ,2.5  ,-0.8  ,0.1
347  ,2.284e+08   ,2.5  ,-0.6  ,0.1
348  ,2.827e+08   ,2.5  ,-0.4  ,0.1
349  ,2.669e+08   ,2.5  ,-0.2  ,0.1
350  ,2.628e+08   ,2.5  ,-1.7664E-15  ,0.1
351  ,2.712e+08   ,2.5  ,0.2  ,0.1
352  ,3.245e+08   ,2.5  ,0.4  ,0.1
353  ,3.837e+08   ,2.5  ,0.6  ,0.1
354  ,4.273e+08   ,2.5  ,0.8  ,0.1
355  ,2.820e+08   ,2.5  ,1  ,0.1
356  ,2.198e+08   ,2.5  ,1.2  ,0.1
357  ,1.792e+08   ,2.5  ,1.4  ,0.1
358  ,1.431e+08   ,2.5  ,1.6  ,0.1
359  ,1.335e+08   ,2.5  ,1.8  ,0.1
360  ,8.779e+07   ,2.5  ,2  ,0.1
361  ,9.125e+07   ,2.5  ,2.2  ,0.1
362  ,4.595e+09   ,2.5  ,2.4  ,4.436
363  ,3.144e+09   ,2.5  ,2.4  ,4.2389
364  ,2.106e+09   ,2.5  ,2.4  ,4.0418
365  ,1.684e+09   ,2.5  ,2.4  ,3.8447
366  ,1.177e+09   ,2.5  ,2.4  ,3.6476
367  ,1.179e+09   ,2.5  ,2.4  ,3.4505
368  ,1.212e+09   ,2.5  ,2.4  ,3.2535
369  ,1.039e+09   ,2.5  ,2.4  ,3.0564
370  ,8.377e+08   ,2.5  ,2.4  ,2.8593
371  ,7.302e+08   ,2.5  ,2.4  ,2.6622
372  ,7.630e+08   ,2.5  ,2.4  ,2.4651
373  ,6.363e+08   ,2.5  ,2.4  ,2.268
374  ,6.356e+08   ,2.5  ,2.4  ,2.0709
375  ,5.928e+08   ,2.5  ,2.4  ,1.8738
376  ,6.256e+08   ,2.5  ,2.4  ,1.6767
377  ,4.457e+08   ,2.5  ,2.4  ,1.4796
378  ,4.584e+08   ,2.5  ,2.4  ,1.2825
379  ,4.012e+08   ,2.5  ,2.4  ,1.0855
380  ,3.968e+08   ,2.5  ,2.4  ,0.88836
381  ,3.197e+08   ,2.5  ,2.4  ,0.69127
382  ,1.984e+08   ,2.5  ,2.4  ,0.49418
383  ,1.202e+08   ,2.5  ,2.4  ,0.29709
384  ,6.273e+09   ,2.5  ,2.2665  ,4.7665
544  ,1.185e+08   ,2.2  ,2.5  ,0.1
545  ,1.455e+08   ,2  ,2.5  ,0.1
546  ,1.944e+08   ,1.8  ,2.5  ,0.1
547  ,2.140e+08   ,1.6  ,2.5  ,0.1
548  ,2.258e+08   ,1.4  ,2.5  ,0.1
549  ,2.785e+08   ,1.2  ,2.5  ,0.1
550  ,3.553e+08   ,1  ,2.5  ,0.1
551  ,5.125e+08   ,0.8  ,2.5  ,0.1
552  ,5.306e+08   ,0.6  ,2.5  ,0.1
553  ,5.244e+08   ,0.4  ,2.5  ,0.1
554  ,5.412e+08   ,0.2  ,2.5  ,0.1
555  ,4.607e+08   ,5.8879E-16  ,2.5  ,0.1
556  ,2.819e+08   ,-0.2  ,2.5  ,0.1
557  ,2.980e+08   ,-0.4  ,2.5  ,0.1
558  ,2.860e+08   ,-0.6  ,2.5  ,0.1
559  ,2.584e+08   ,-0.8  ,2.5  ,0.1
560  ,2.998e+08   ,-1  ,2.5  ,0.1
561  ,2.937e+08   ,-1.2  ,2.5  ,0.1
562  ,2.567e+08   ,-1.4  ,2.5  ,0.1
563  ,2.456e+08   ,-1.6  ,2.5  ,0.1
564  ,2.225e+08   ,-1.8  ,2.5  ,0.1
565  ,1.958e+08   ,-2  ,2.5  ,0.1
566  ,1.977e+08   ,-2.2  ,2.5  ,0.1
567  ,1.322e+08   ,-2.4  ,2.5  ,4.7
568  ,1.209e+08   ,-2.4  ,2.5  ,4.5
569  ,1.582e+08   ,-2.4  ,2.5  ,4.3
570  ,1.898e+08   ,-2.4  ,2.5  ,4.1
571  ,2.280e+08   ,-2.4  ,2.5  ,3.9
572  ,2.782e+08   ,-2.4  ,2.5  ,3.7
573  ,3.491e+08   ,-2.4  ,2.5  ,3.5
574  ,5.164e+08   ,-2.4  ,2.5  ,3.3
575  ,4.532e+08   ,-2.4  ,2.5  ,3.1
576  ,4.336e+08   ,-2.4  ,2.5  ,2.9
577  ,3.659e+08   ,-2.4  ,2.5  ,2.7
578  ,3.740e+08   ,-2.4  ,2.5  ,2.5
579  ,3.359e+08   ,-2.4  ,2.5  ,2.3
580  ,3.564e+08   ,-2.4  ,2.5  ,2.1
581  ,3.386e+08   ,-2.4  ,2.5  ,1.9
582  ,3.296e+08   ,-2.4  ,2.5  ,1.7
583  ,3.310e+08   ,-2.4  ,2.5  ,1.5
584  ,2.751e+08   ,-2.4  ,2.5  ,1.3
585  ,2.583e+08   ,-2.4  ,2.5  ,1.1
586  ,2.326e+08   ,-2.4  ,2.5  ,0.9
587  ,2.149e+08   ,-2.4  ,2.5  ,0.7
588  ,2.011e+08   ,-2.4  ,2.5  ,0.5
589  ,2.023e+08   ,-2.4  ,2.5  ,0.3
590  ,5.098e+09   ,1.936  ,2.5  ,4.9
591  ,2.617e+09   ,1.7389  ,2.5  ,4.9
592  ,1.958e+09   ,1.5418  ,2.5  ,4.9
593  ,1.544e+09   ,1.3447  ,2.5  ,4.9
594  ,1.199e+09   ,1.1476  ,2.5  ,4.9
595  ,1.142e+09   ,0.95055  ,2.5  ,4.9
596  ,1.266e+09   ,0.75346  ,2.5  ,4.9
597  ,1.089e+09   ,0.55637  ,2.5  ,4.9
598  ,9.528e+08   ,0.35927  ,2.5  ,4.9
599  ,7.935e+08   ,0.16218  ,2.5  ,4.9
600  ,6.797e+08   ,-0.034907  ,2.5  ,4.9
601  ,5.888e+08   ,-0.232  ,2.5  ,4.9
602  ,7.099e+08   ,-0.42909  ,2.5  ,4.9
603  ,7.292e+08   ,-0.62618  ,2.5  ,4.9
604  ,6.971e+08   ,-0.82327  ,2.5  ,4.9
605  ,7.253e+08   ,-1.0204  ,2.5  ,4.9
606  ,6.695e+08   ,-1.2175  ,2.5  ,4.9
607  ,5.291e+08   ,-1.4145  ,2.5  ,4.9
608  ,4.056e+08   ,-1.6116  ,2.5  ,4.9
609  ,2.927e+08   ,-1.8087  ,2.5  ,4.9
610  ,2.100e+08   ,-2.0058  ,2.5  ,4.9
611  ,1.677e+08   ,-2.2029  ,2.5  ,4.9
612  ,6.510e+09   ,2.2665  ,2.5  ,4.7665
613  ,4.395e+09   ,2.4  ,2.5  ,4.436
614  ,2.778e+09   ,2.4  ,2.5  ,4.2389
615  ,2.037e+09   ,2.4  ,2.5  ,4.0418
616  ,1.582e+09   ,2.4  ,2.5  ,3.8447
617  ,1.241e+09   ,2.4  ,2.5  ,3.6476
618  ,1.145e+09   ,2.4  ,2.5  ,3.4505
619  ,1.239e+09   ,2.4  ,2.5  ,3.2535
620  ,1.075e+09   ,2.4  ,2.5  ,3.0564
621  ,8.500e+08   ,2.4  ,2.5  ,2.8593
622  ,7.388e+08   ,2.4  ,2.5  ,2.6622
623  ,6.559e+08   ,2.4  ,2.5  ,2.4651
624  ,5.876e+08   ,2.4  ,2.5  ,2.268
625  ,5.366e+08   ,2.4  ,2.5  ,2.0709
626  ,5.717e+08   ,2.4  ,2.5  ,1.8738
627  ,6.250e+08   ,2.4  ,2.5  ,1.6767
628  ,6.647e+08   ,2.4  ,2.5  ,1.4796
629  ,6.241e+08   ,2.4  ,2.5  ,1.2825
630  ,4.263e+08   ,2.4  ,2.5  ,1.0855
631  ,3.267e+08   ,2.4  ,2.5  ,0.88836
632  ,2.490e+08   ,2.4  ,2.5  ,0.69127
633  ,2.026e+08   ,2.4  ,2.5  ,0.49418
634  ,9.965e+07   ,2.4  ,2.5  ,0.29709
796  ,9.968e+07   ,-2.5  ,2.2  ,0.1
797  ,1.741e+08   ,-2.5  ,2  ,0.1
798  ,2.347e+08   ,-2.5  ,1.8  ,0.1
799  ,2.919e+08   ,-2.5  ,1.6  ,0.1
800  ,3.322e+08   ,-2.5  ,1.4  ,0.1
801  ,3.753e+08   ,-2.5  ,1.2  ,0.1
802  ,4.416e+08   ,-2.5  ,1  ,0.1
803  ,4.937e+08   ,-2.5  ,0.8  ,0.1
804  ,4.432e+08   ,-2.5  ,0.6  ,0.1
805  ,4.033e+08   ,-2.5  ,0.4  ,0.1
806  ,3.282e+08   ,-2.5  ,0.2  ,0.1
807  ,2.792e+08   ,-2.5  ,5.8879E-16  ,0.1
808  ,2.189e+08   ,-2.5  ,-0.2  ,0.1
809  ,1.767e+08   ,-2.5  ,-0.4  ,0.1
810  ,1.620e+08   ,-2.5  ,-0.6  ,0.1
811  ,1.477e+08   ,-2.5  ,-0.8  ,0.1
812  ,1.410e+08   ,-2.5  ,-1  ,0.1
813  ,1.347e+08   ,-2.5  ,-1.2  ,0.1
814  ,9.993e+07   ,-2.5  ,-1.4  ,0.1
815  ,6.459e+07   ,-2.5  ,-1.6  ,0.1
816  ,2.965e+07   ,-2.5  ,-1.8  ,0.1
817  ,5.478e+07   ,-2.5  ,-2  ,0.1
818  ,5.210e+07   ,-2.5  ,-2.2  ,0.1
819  ,2.585e+08   ,-2.5  ,-2.4  ,4.7
820  ,2.483e+08   ,-2.5  ,-2.4  ,4.5
821  ,5.073e+08   ,-2.5  ,-2.4  ,4.3
822  ,7.206e+08   ,-2.5  ,-2.4  ,4.1
823  ,6.693e+08   ,-2.5  ,-2.4  ,3.9
824  ,5.718e+08   ,-2.5  ,-2.4  ,3.7
825  ,5.203e+08   ,-2.5  ,-2.4  ,3.5
826  ,3.835e+08   ,-2.5  ,-2.4  ,3.3
827  ,2.641e+08   ,-2.5  ,-2.4  ,3.1
828  ,1.380e+08   ,-2.5  ,-2.4  ,2.9
829  ,6.425e+07   ,-2.5  ,-2.4  ,2.7
830  ,1.742e+07   ,-2.5  ,-2.4  ,2.5
831  ,1.267e+08   ,-2.5  ,-2.4  ,2.3
832  ,2.656e+08   ,-2.5  ,-2.4  ,2.1
833  ,2.729e+08   ,-2.5  ,-2.4  ,1.9
834  ,2.092e+08   ,-2.5  ,-2.4  ,1.7
835  ,1.090e+08   ,-2.5  ,-2.4  ,1.5
836  ,1.635e+08   ,-2.5  ,-2.4  ,1.3
837  ,2.310e+08   ,-2.5  ,-2.4  ,1.1
838  ,2.396e+08   ,-2.5  ,-2.4  ,0.9
839  ,1.914e+08   ,-2.5  ,-2.4  ,0.7
840  ,1.527e+08   ,-2.5  ,-2.4  ,0.5
841  ,1.379e+08   ,-2.5  ,-2.4  ,0.3
842  ,7.097e+07   ,-2.5  ,2.2  ,4.9
843  ,1.258e+08   ,-2.5  ,2  ,4.9
844  ,1.511e+08   ,-2.5  ,1.8  ,4.9
845  ,2.005e+08   ,-2.5  ,1.6  ,4.9
846  ,2.379e+08   ,-2.5  ,1.4  ,4.9
847  ,2.806e+08   ,-2.5  ,1.2  ,4.9
848  ,3.046e+08   ,-2.5  ,1  ,4.9
849  ,3.431e+08   ,-2.5  ,0.8  ,4.9
850  ,2.583e+08   ,-2.5  ,0.6  ,4.9
851  ,2.422e+08   ,-2.5  ,0.4  ,4.9
852  ,2.436e+08   ,-2.5  ,0.2  ,4.9
853  ,2.790e+08   ,-2.5  ,5.8879E-16  ,4.9
854  ,2.887e+08   ,-2.5  ,-0.2  ,4.9
855  ,2.707e+08   ,-2.5  ,-0.4  ,4.9
856  ,2.099e+08   ,-2.5  ,-0.6  ,4.9
857  ,2.039e+08   ,-2.5  ,-0.8  ,4.9
858  ,1.967e+08   ,-2.5  ,-1  ,4.9
859  ,1.847e+08   ,-2.5  ,-1.2  ,4.9
860  ,1.490e+08   ,-2.5  ,-1.4  ,4.9
861  ,1.303e+08   ,-2.5  ,-1.6  ,4.9
862  ,1.430e+08   ,-2.5  ,-1.8  ,4.9
863  ,1.968e+08   ,-2.5  ,-2  ,4.9
864  ,2.602e+08   ,-2.5  ,-2.2  ,4.9
865  ,6.129e+07   ,-2.5  ,2.4  ,4.7
866  ,1.460e+08   ,-2.5  ,2.4  ,4.5
867  ,2.002e+08   ,-2.5  ,2.4  ,4.3
868  ,2.168e+08   ,-2.5  ,2.4  ,4.1
869  ,2.802e+08   ,-2.5  ,2.4  ,3.9
870  ,3.376e+08   ,-2.5  ,2.4  ,3.7
871  ,4.006e+08   ,-2.5  ,2.4  ,3.5
872  ,4.690e+08   ,-2.5  ,2.4  ,3.3
873  ,4.188e+08   ,-2.5  ,2.4  ,3.1
874  ,3.989e+08   ,-2.5  ,2.4  ,2.9
875  ,3.648e+08   ,-2.5  ,2.4  ,2.7
876  ,3.563e+08   ,-2.5  ,2.4  ,2.5
877  ,3.155e+08   ,-2.5  ,2.4  ,2.3
878  ,3.081e+08   ,-2.5  ,2.4  ,2.1
879  ,2.946e+08   ,-2.5  ,2.4  ,1.9
880  ,2.855e+08   ,-2.5  ,2.4  ,1.7
881  ,2.508e+08   ,-2.5  ,2.4  ,1.5
882  ,2.410e+08   ,-2.5  ,2.4  ,1.3
883  ,2.311e+08   ,-2.5  ,2.4  ,1.1
884  ,2.300e+08   ,-2.5  ,2.4  ,0.9
885  ,1.981e+08   ,-2.5  ,2.4  ,0.7
886  ,1.871e+08   ,-2.5  ,2.4  ,0.5
887  ,1.372e+08   ,-2.5  ,2.4  ,0.3
1044  ,1.224e+08   ,-2.3  ,-2.5  ,0.44697
1045  ,5.513e+07   ,-2.3  ,-2.5  ,0.68705
1046  ,1.159e+08   ,-2.3  ,-2.5  ,0.92554
1047  ,2.291e+08   ,-2.3  ,-2.5  ,1.1682
1048  ,2.839e+08   ,-2.3  ,-2.5  ,1.4148
1049  ,2.406e+08   ,-2.3  ,-2.5  ,1.6581
1050  ,1.068e+08   ,-2.3  ,-2.5  ,1.8967
1051  ,1.131e+08   ,-2.3  ,-2.5  ,2.1357
1052  ,2.696e+08   ,-2.3  ,-2.5  ,2.3794
1053  ,3.416e+08   ,-2.3  ,-2.5  ,2.6206
1054  ,3.199e+08   ,-2.3  ,-2.5  ,2.8643
1055  ,2.203e+08   ,-2.3  ,-2.5  ,3.1033
1056  ,1.103e+08   ,-2.3  ,-2.5  ,3.342
1057  ,2.233e+07   ,-2.3  ,-2.5  ,3.5852
1058  ,1.483e+08   ,-2.3  ,-2.5  ,3.8318
1059  ,2.930e+08   ,-2.3  ,-2.5  ,4.0745
1060  ,2.282e+08   ,-2.3  ,-2.5  ,4.3129
1061  ,2.088e+08   ,-2.3  ,-2.5  ,4.553
1062  ,4.783e+08   ,-2.053  ,-2.5  ,4.8
1063  ,1.871e+08   ,-1.8129  ,-2.5  ,4.8
1064  ,1.155e+08   ,-1.5745  ,-2.5  ,4.8
1065  ,1.882e+08   ,-1.3318  ,-2.5  ,4.8
1066  ,2.219e+08   ,-1.0852  ,-2.5  ,4.8
1067  ,2.863e+08   ,-0.84195  ,-2.5  ,4.8
1068  ,2.358e+08   ,-0.60329  ,-2.5  ,4.8
1069  ,1.694e+08   ,-0.3643  ,-2.5  ,4.8
1070  ,3.567e+08   ,-0.12055  ,-2.5  ,4.8
1071  ,4.184e+08   ,0.12056  ,-2.5  ,4.8
1072  ,3.857e+08   ,0.3643  ,-2.5  ,4.8
1073  ,4.498e+08   ,0.6033  ,-2.5  ,4.8
1074  ,4.078e+08   ,0.84195  ,-2.5  ,4.8
1075  ,2.428e+08   ,1.0852  ,-2.5  ,4.8
1076  ,5.616e+07   ,1.3318  ,-2.5  ,4.8
1077  ,6.272e+07   ,1.5745  ,-2.5  ,4.8
1078  ,1.398e+08   ,1.8129  ,-2.5  ,4.8
1079  ,7.333e+08   ,2.053  ,-2.5  ,4.8
1080  ,7.292e+08   ,2.3  ,-2.5  ,4.553
1081  ,1.830e+08   ,2.3  ,-2.5  ,4.3129
1082  ,1.040e+08   ,2.3  ,-2.5  ,4.0745
1083  ,2.374e+07   ,2.3  ,-2.5  ,3.8318
1084  ,2.200e+08   ,2.3  ,-2.5  ,3.5852
1085  ,4.466e+08   ,2.3  ,-2.5  ,3.3419
1086  ,5.188e+08   ,2.3  ,-2.5  ,3.1033
1087  ,4.517e+08   ,2.3  ,-2.5  ,2.8643
1088  ,4.581e+08   ,2.3  ,-2.5  ,2.6206
1089  ,3.689e+08   ,2.3  ,-2.5  ,2.3794
1090  ,1.767e+08   ,2.3  ,-2.5  ,2.1357
1091  ,1.883e+08   ,2.3  ,-2.5  ,1.8967
1092  ,2.870e+08   ,2.3  ,-2.5  ,1.658
1093  ,2.335e+08   ,2.3  ,-2.5  ,1.4148
1094  ,1.829e+08   ,2.3  ,-2.5  ,1.1682
1095  ,7.376e+07   ,2.3  ,-2.5  ,0.92554
1096  ,2.499e+08   ,2.3  ,-2.5  ,0.68705
1097  ,5.039e+08   ,2.3  ,-2.5  ,0.44697
1098  ,7.697e+07   ,-2.053  ,-2.5  ,0.2
1099  ,5.671e+07   ,-1.8129  ,-2.5  ,0.2
1100  ,1.355e+08   ,-1.5745  ,-2.5  ,0.2
1101  ,1.965e+08   ,-1.3318  ,-2.5  ,0.2
1102  ,2.484e+08   ,-1.0852  ,-2.5  ,0.2
1103  ,2.442e+08   ,-0.84195  ,-2.5  ,0.2
1104  ,1.176e+08   ,-0.60329  ,-2.5  ,0.2
1105  ,1.019e+08   ,-0.3643  ,-2.5  ,0.2
1106  ,2.590e+08   ,-0.12055  ,-2.5  ,0.2
1107  ,3.289e+08   ,0.12056  ,-2.5  ,0.2
1108  ,3.151e+08   ,0.3643  ,-2.5  ,0.2
1109  ,2.256e+08   ,0.6033  ,-2.5  ,0.2
1110  ,7.469e+07   ,0.84195  ,-2.5  ,0.2
1111  ,2.022e+07   ,1.0852  ,-2.5  ,0.2
1112  ,1.096e+08   ,1.3318  ,-2.5  ,0.2
1113  ,2.919e+08   ,1.5745  ,-2.5  ,0.2
1114  ,2.387e+08   ,1.8129  ,-2.5  ,0.2
1115  ,2.493e+08   ,2.053  ,-2.5  ,0.2
1116  ,2.850e+08   ,-2.2  ,-2.5  ,4.9
1117  ,1.688e+08   ,-2  ,-2.5  ,4.9
1118  ,1.291e+08   ,-1.8  ,-2.5  ,4.9
1119  ,7.300e+07   ,-1.6  ,-2.5  ,4.9
1120  ,1.688e+08   ,-1.4  ,-2.5  ,4.9
1121  ,2.176e+08   ,-1.2  ,-2.5  ,4.9
1122  ,2.575e+08   ,-1  ,-2.5  ,4.9
1123  ,2.836e+08   ,-0.8  ,-2.5  ,4.9
1124  ,2.402e+08   ,-0.6  ,-2.5  ,4.9
1125  ,2.238e+08   ,-0.4  ,-2.5  ,4.9
1126  ,3.395e+08   ,-0.2  ,-2.5  ,4.9
1127  ,3.844e+08   ,-1.7664E-15  ,-2.5  ,4.9
1128  ,3.556e+08   ,0.2  ,-2.5  ,4.9
1129  ,3.413e+08   ,0.4  ,-2.5  ,4.9
1130  ,3.487e+08   ,0.6  ,-2.5  ,4.9
1131  ,4.017e+08   ,0.8  ,-2.5  ,4.9
1132  ,5.005e+08   ,1  ,-2.5  ,4.9
1133  ,5.970e+08   ,1.2  ,-2.5  ,4.9
1134  ,4.491e+08   ,1.4  ,-2.5  ,4.9
1135  ,4.455e+08   ,1.6  ,-2.5  ,4.9
1136  ,4.341e+08   ,1.8  ,-2.5  ,4.9
1137  ,4.555e+08   ,2  ,-2.5  ,4.9
1138  ,4.143e+08   ,2.2  ,-2.5  ,4.9
1139  ,2.219e+08   ,-2.4  ,-2.5  ,4.7
1140  ,3.264e+08   ,-2.4  ,-2.5  ,4.5
1141  ,3.095e+08   ,-2.4  ,-2.5  ,4.3
1142  ,2.237e+08   ,-2.4  ,-2.5  ,4.1
1143  ,2.936e+08   ,-2.4  ,-2.5  ,3.9
1144  ,3.429e+08   ,-2.4  ,-2.5  ,3.7
1145  ,2.888e+08   ,-2.4  ,-2.5  ,3.5
1146  ,2.923e+08   ,-2.4  ,-2.5  ,3.3
1147  ,2.563e+08   ,-2.4  ,-2.5  ,3.1
1148  ,2.396e+08   ,-2.4  ,-2.5  ,2.9
1149  ,1.805e+08   ,-2.4  ,-2.5  ,2.7
1150  ,1.570e+08   ,-2.4  ,-2.5  ,2.5
1151  ,1.861e+08   ,-2.4  ,-2.5  ,2.3
1152  ,1.999e+08   ,-2.4  ,-2.5  ,2.1
1153  ,2.366e+08   ,-2.4  ,-2.5  ,1.9
1154  ,2.362e+08   ,-2.4  ,-2.5  ,1.7
1155  ,2.066e+08   ,-2.4  ,-2.5  ,1.5
1156  ,1.870e+08   ,-2.4  ,-2.5  ,1.3
1157  ,2.207e+08   ,-2.4  ,-2.5  ,1.1
1158  ,1.604e+08   ,-2.4  ,-2.5  ,0.9
1159  ,9.956e+07   ,-2.4  ,-2.5  ,0.7
1160  ,1.250e+08   ,-2.4  ,-2.5  ,0.5
1161  ,1.739e+08   ,-2.4  ,-2.5  ,0.3
1162  ,1.695e+08   ,-2.2  ,-2.5  ,0.1
1163  ,9.701e+07   ,-2  ,-2.5  ,0.1
1164  ,1.184e+08   ,-1.8  ,-2.5  ,0.1
1165  ,1.715e+08   ,-1.6  ,-2.5  ,0.1
1166  ,1.803e+08   ,-1.4  ,-2.5  ,0.1
1167  ,1.565e+08   ,-1.2  ,-2.5  ,0.1
1168  ,1.883e+08   ,-1  ,-2.5  ,0.1
1169  ,2.394e+08   ,-0.8  ,-2.5  ,0.1
1170  ,2.400e+08   ,-0.6  ,-2.5  ,0.1
1171  ,2.147e+08   ,-0.4  ,-2.5  ,0.1
1172  ,1.972e+08   ,-0.2  ,-2.5  ,0.1
1173  ,1.565e+08   ,-1.7664E-15  ,-2.5  ,0.1
1174  ,1.870e+08   ,0.2  ,-2.5  ,0.1
1175  ,2.201e+08   ,0.4  ,-2.5  ,0.1
1176  ,2.469e+08   ,0.6  ,-2.5  ,0.1
1177  ,2.531e+08   ,0.8  ,-2.5  ,0.1
1178  ,2.826e+08   ,1  ,-2.5  ,0.1
1179  ,2.932e+08   ,1.2  ,-2.5  ,0.1
1180  ,2.789e+08   ,1.4  ,-2.5  ,0.1
1181  ,2.457e+08   ,1.6  ,-2.5  ,0.1
1182  ,3.249e+08   ,1.8  ,-2.5  ,0.1
1183  ,3.212e+08   ,2  ,-2.5  ,0.1
1184  ,2.064e+08   ,2.2  ,-2.5  ,0.1
1185  ,3.876e+08   ,2.4  ,-2.5  ,4.7
1186  ,4.530e+08   ,2.4  ,-2.5  ,4.5
1187  ,4.517e+08   ,2.4  ,-2.5  ,4.3
1188  ,4.250e+08   ,2.4  ,-2.5  ,4.1
1189  ,5.155e+08   ,2.4  ,-2.5  ,3.9
1190  ,5.694e+08   ,2.4  ,-2.5  ,3.7
1191  ,5.270e+08   ,2.4  ,-2.5  ,3.5
1192  ,4.635e+08   ,2.4  ,-2.5  ,3.3
1193  ,3.729e+08   ,2.4  ,-2.5  ,3.1
1194  ,3.956e+08   ,2.4  ,-2.5  ,2.9
1195  ,4.302e+08   ,2.4  ,-2.5  ,2.7
1196  ,4.261e+08   ,2.4  ,-2.5  ,2.5
1197  ,3.443e+08   ,2.4  ,-2.5  ,2.3
1198  ,2.145e+08   ,2.4  ,-2.5  ,2.1
1199  ,2.199e+08   ,2.4  ,-2.5  ,1.9
1200  ,2.857e+08   ,2.4  ,-2.5  ,1.7
1201  ,2.707e+08   ,2.4  ,-2.5  ,1.5
1202  ,2.351e+08   ,2.4  ,-2.5  ,1.3
1203  ,1.622e+08   ,2.4  ,-2.5  ,1.1
1204  ,7.731e+07   ,2.4  ,-2.5  ,0.9
1205  ,2.011e+08   ,2.4  ,-2.5  ,0.7
1206  ,2.281e+08   ,2.4  ,-2.5  ,0.5
1207  ,2.784e+08   ,2.4  ,-2.5  ,0.3
1208  ,2.342e+08   ,2.4  ,-2.2  ,0
1209  ,2.036e+08   ,2.4  ,-2  ,0
1210  ,1.567e+08   ,2.4  ,-1.8  ,0
1211  ,1.265e+08   ,2.4  ,-1.6  ,0
1212  ,1.532e+08   ,2.4  ,-1.4  ,0
1213  ,1.827e+08   ,2.4  ,-1.2  ,0
1214  ,1.944e+08   ,2.4  ,-1  ,0
1215  ,2.086e+08   ,2.4  ,-0.8  ,0
1216  ,1.822e+08   ,2.4  ,-0.6  ,0
1217  ,2.251e+08   ,2.4  ,-0.4  ,0
1218  ,2.637e+08   ,2.4  ,-0.2  ,0
1219  ,2.492e+08   ,2.4  ,-1.7664E-15  ,0
1220  ,2.814e+08   ,2.4  ,0.2  ,0
1221  ,2.687e+08   ,2.4  ,0.4  ,0
1222  ,2.994e+08   ,2.4  ,0.6  ,0
1223  ,3.205e+08   ,2.4  ,0.8  ,0
1224  ,2.983e+08   ,2.4  ,1  ,0
1225  ,2.791e+08   ,2.4  ,1.2  ,0
1226  ,2.463e+08   ,2.4  ,1.4  ,0
1227  ,1.886e+08   ,2.4  ,1.6  ,0
1228  ,1.668e+08   ,2.4  ,1.8  ,0
1229  ,1.241e+08   ,2.4  ,2  ,0
1230  ,4.760e+07   ,2.4  ,2.2  ,0
1231  ,1.343e+08   ,-2.2  ,-2.4  ,0
1232  ,1.151e+08   ,-2  ,-2.4  ,0
1233  ,1.789e+08   ,-1.8  ,-2.4  ,0
1234  ,2.231e+08   ,-1.6  ,-2.4  ,0
1235  ,1.849e+08   ,-1.4  ,-2.4  ,0
1236  ,1.115e+08   ,-1.2  ,-2.4  ,0
1237  ,1.122e+08   ,-1  ,-2.4  ,0
1238  ,2.119e+08   ,-0.8  ,-2.4  ,0
1239  ,3.070e+08   ,-0.6  ,-2.4  ,0
1240  ,2.738e+08   ,-0.4  ,-2.4  ,0
1241  ,1.386e+08   ,-0.2  ,-2.4  ,0
1242  ,5.581e+07   ,5.8879E-16  ,-2.4  ,0
1243  ,5.315e+07   ,0.2  ,-2.4  ,0
1244  ,1.257e+08   ,0.4  ,-2.4  ,0
1245  ,2.303e+08   ,0.6  ,-2.4  ,0
1246  ,3.860e+08   ,0.8  ,-2.4  ,0
1247  ,5.022e+08   ,1  ,-2.4  ,0
1248  ,5.641e+08   ,1.2  ,-2.4  ,0
1249  ,6.409e+08   ,1.4  ,-2.4  ,0
1250  ,6.883e+08   ,1.6  ,-2.4  ,0
1251  ,5.215e+08   ,1.8  ,-2.4  ,0
1252  ,3.451e+08   ,2  ,-2.4  ,0
1253  ,3.285e+08   ,2.2  ,-2.4  ,0
1254  ,8.716e+07   ,-2.4  ,2.2  ,0
1255  ,1.660e+08   ,-2.4  ,2  ,0
1256  ,2.435e+08   ,-2.4  ,1.8  ,0
1257  ,2.807e+08   ,-2.4  ,1.6  ,0
1258  ,3.370e+08   ,-2.4  ,1.4  ,0
1259  ,3.867e+08   ,-2.4  ,1.2  ,0
1260  ,4.394e+08   ,-2.4  ,1  ,0
1261  ,4.954e+08   ,-2.4  ,0.8  ,0
1262  ,4.458e+08   ,-2.4  ,0.6  ,0
1263  ,3.591e+08   ,-2.4  ,0.4  ,0
1264  ,3.090e+08   ,-2.4  ,0.2  ,0
1265  ,2.823e+08   ,-2.4  ,5.8879E-16  ,0
1266  ,2.263e+08   ,-2.4  ,-0.2  ,0
1267  ,1.914e+08   ,-2.4  ,-0.4  ,0
1268  ,1.766e+08   ,-2.4  ,-0.6  ,0
1269  ,1.638e+08   ,-2.4  ,-0.8  ,0
1270  ,1.535e+08   ,-2.4  ,-1  ,0
1271  ,1.346e+08   ,-2.4  ,-1.2  ,0
1272  ,1.049e+08   ,-2.4  ,-1.4  ,0
1273  ,7.200e+07   ,-2.4  ,-1.6  ,0
1274  ,4.011e+07   ,-2.4  ,-1.8  ,0
1275  ,6.207e+07   ,-2.4  ,-2  ,0
1276  ,7.936e+07   ,-2.4  ,-2.2  ,0
1277  ,6.665e+07   ,2.2  ,2.4  ,0
1278  ,1.789e+08   ,2  ,2.4  ,0
1279  ,2.358e+08   ,1.8  ,2.4  ,0
1280  ,2.406e+08   ,1.6  ,2.4  ,0
1281  ,2.738e+08   ,1.4  ,2.4  ,0
1282  ,3.355e+08   ,1.2  ,2.4  ,0
1283  ,4.024e+08   ,1  ,2.4  ,0
1284  ,4.460e+08   ,0.8  ,2.4  ,0
1285  ,4.483e+08   ,0.6  ,2.4  ,0
1286  ,4.180e+08   ,0.4  ,2.4  ,0
1287  ,4.138e+08   ,0.2  ,2.4  ,0
1288  ,4.094e+08   ,5.8879E-16  ,2.4  ,0
1289  ,4.428e+08   ,-0.2  ,2.4  ,0
1290  ,3.623e+08   ,-0.4  ,2.4  ,0
1291  ,2.896e+08   ,-0.6  ,2.4  ,0
1292  ,2.520e+08   ,-0.8  ,2.4  ,0
1293  ,2.153e+08   ,-1  ,2.4  ,0
1294  ,2.207e+08   ,-1.2  ,2.4  ,0
1295  ,2.093e+08   ,-1.4  ,2.4  ,0
1296  ,2.151e+08   ,-1.6  ,2.4  ,0
1297  ,2.196e+08   ,-1.8  ,2.4  ,0
1298  ,1.914e+08   ,-2  ,2.4  ,0
1299  ,1.367e+08   ,-2.2  ,2.4  ,0
1460  ,8.809e+09   ,2.3243  ,2.3243  ,4.9577
1461  ,8.597e+09   ,2.4577  ,2.3243  ,4.8243
1462  ,6.971e+09   ,2.3243  ,2.4577  ,4.8243
1463  ,2.787e+08   ,-2.3  ,-2.1759  ,4.8
1464  ,4.580e+08   ,-2.3  ,-1.7631  ,4.8
1465  ,5.769e+08   ,-2.3  ,-1.1827  ,4.8
1466  ,5.643e+08   ,-2.3  ,-0.34986  ,4.8
1467  ,6.877e+08   ,-2.3  ,0.80545  ,4.8
1468  ,6.780e+08   ,-0.81337  ,2.3  ,4.8
1469  ,1.593e+09   ,0.67326  ,2.3  ,4.8
1470  ,5.601e+08   ,2.3  ,-2.1824  ,4.8
1471  ,4.551e+08   ,2.3  ,-1.7784  ,4.8
1472  ,3.365e+08   ,2.3  ,-1.2138  ,4.8
1473  ,6.017e+08   ,2.3  ,-0.40752  ,4.8
1474  ,1.545e+09   ,2.3  ,0.70532  ,4.8
1516  ,6.492e+08   ,2.3  ,2.3  ,1.6866
1517  ,1.552e+09   ,2.3  ,2.3  ,3.1733
1518  ,2.827e+08   ,2.3  ,-2.1759  ,0.2
1519  ,4.745e+08   ,2.3  ,-1.7631  ,0.2
1520  ,5.599e+08   ,2.3  ,-1.1827  ,0.2
1521  ,5.455e+08   ,2.3  ,-0.34986  ,0.2
1522  ,7.185e+08   ,2.3  ,0.80545  ,0.2
1564  ,5.433e+08   ,-0.76667  ,2.3  ,0.2
1565  ,7.273e+08   ,0.76667  ,2.3  ,0.2
1566  ,5.688e+08   ,-2.3  ,2.3  ,1.7333
1567  ,7.580e+08   ,-2.3  ,2.3  ,3.2667
1574  ,7.220e+07   ,-2.3  ,-2.1759  ,0.2
1575  ,2.074e+07   ,-2.3  ,-1.7631  ,0.2
1576  ,6.968e+07   ,-2.3  ,-1.1827  ,0.2
1577  ,1.520e+08   ,-2.3  ,-0.34986  ,0.2
1578  ,1.963e+08   ,-2.3  ,0.80545  ,0.2
1777  ,7.274e+08   ,-0.52764  ,2.5  ,4.9
1801  ,1.799e+08   ,-2.3  ,1.5527  ,0.2
1825  ,6.054e+08   ,-1.5333  ,2.3  ,0.2
1841  ,7.562e+08   ,0.063638  ,2.5  ,4.9
1876  ,3.162e+08   ,-0.5  ,2.4  ,0
1894  ,7.080e+08   ,2.3  ,1.5527  ,0.2
1907  ,1.095e+08   ,2.1  ,2.5  ,0.1
1928  ,2.021e+08   ,1.9  ,2.4  ,0
1974  ,2.999e+08   ,2.4  ,1.1  ,0
1981  ,2.325e+08   ,2.4  ,2.5  ,0.59273
1987  ,2.604e+08   ,-2.5  ,2.4  ,4
2004  ,1.010e+08   ,-2.4  ,2.5  ,4.6
2009  ,2.539e+08   ,2.4  ,1.3  ,0
2020  ,2.507e+08   ,2.5  ,1.1  ,0.1
2035  ,1.130e+08   ,-2.3  ,-0.76628  ,0.2
2070  ,2.452e+09   ,1.6404  ,2.4  ,5
2081  ,5.247e+08   ,2.4  ,2.5  ,1.9724
2095  ,3.066e+08   ,2.4  ,2.5  ,0.78982
2138  ,2.523e+08   ,-2.4  ,-0.1  ,0
2146  ,6.734e+08   ,-0.92182  ,2.4  ,5
2174  ,4.974e+08   ,2.4  ,2.5  ,1.184
2190  ,3.980e+08   ,2.5  ,2.4  ,0.98691
2203  ,6.129e+08   ,2.5  ,-0.13345  ,4.9
2232  ,1.336e+09   ,2.3  ,0.1489  ,4.8
2242  ,9.812e+08   ,2.4  ,2.5  ,2.9578
2293  ,4.281e+08   ,-2.5  ,0.5  ,0.1
2311  ,1.496e+09   ,2.3  ,2.3  ,2.4299
2313  ,3.759e+08   ,2.5  ,2.4  ,0.78982
2329  ,5.445e+08   ,2.4  ,2.5  ,2.1695
2355  ,1.410e+08   ,-2.4  ,2.5  ,4.4
2380  ,8.205e+07   ,-2.5  ,-1.5  ,0.1
2383  ,9.632e+08   ,0.45782  ,2.5  ,4.9
2408  ,6.040e+08   ,2.3  ,-1.4961  ,4.8
2445  ,3.385e+08   ,2.5  ,-1.5131  ,4.9
2484  ,1.446e+08   ,-2.5  ,-2.4  ,1.6
2495  ,1.465e+08   ,-2.4  ,1.7  ,5
2508  ,2.731e+08   ,2.4  ,0.3  ,0
2514  ,7.160e+08   ,2.3  ,0.2278  ,0.2
2570  ,1.875e+08   ,-2.4  ,1.5  ,5
2580  ,2.380e+09   ,1.6404  ,2.5  ,4.9
2603  ,7.313e+08   ,-1.1189  ,2.5  ,4.9
2695  ,4.520e+08   ,2.3  ,2.3  ,0.94331
2705  ,6.626e+08   ,2.4  ,2.5  ,1.3811
2714  ,8.057e+08   ,2.5  ,0.45782  ,4.9
2734  ,1.904e+08   ,2.4  ,-0.9  ,0
2775  ,2.613e+08   ,2.5  ,-0.1  ,0.1
2779  ,2.514e+08   ,2.4  ,-0.1  ,0
2801  ,3.171e+09   ,1.4166  ,2.3  ,4.8
2814  ,1.760e+09   ,1.4433  ,2.5  ,4.9
2863  ,2.039e+08   ,-2.4  ,2.5  ,0.6
2884  ,2.228e+08   ,-2.4  ,2.5  ,0.8
2886  ,2.647e+08   ,-2.4  ,2.5  ,1.2
2967  ,1.643e+08   ,2.4  ,1.7  ,0
2973  ,1.603e+08   ,2.5  ,1.5  ,0.1
2987  ,2.830e+08   ,-0.3  ,2.5  ,0.1
3008  ,6.221e+08   ,-2.3  ,2.3  ,0.96667
3012  ,3.571e+08   ,-2.5  ,2.4  ,2.6
3021  ,3.697e+08   ,-2.5  ,2.4  ,2.8
3025  ,3.311e+08   ,-2.5  ,2.4  ,2.4
3030  ,3.528e+08   ,-2.4  ,2.5  ,2.4
3033  ,3.336e+08   ,-2.4  ,2.5  ,2.2
3047  ,6.140e+08   ,2.4  ,2.5  ,2.3665
3052  ,7.424e+08   ,2.5  ,2.4  ,2.5636
3061  ,6.953e+08   ,2.4  ,2.5  ,2.5636
3081  ,2.295e+08   ,-2.4  ,1.3  ,5
3088  ,2.365e+08   ,-1.9073  ,2.4  ,5
3099  ,1.182e+08   ,-2.4  ,1.9  ,5
3107  ,2.518e+08   ,-2.4  ,2.5  ,3.8
3139  ,4.317e+08   ,-1.5131  ,2.4  ,5
3145  ,4.693e+08   ,-1.5131  ,2.5  ,4.9
3148  ,3.571e+08   ,-1.7102  ,2.5  ,4.9
3168  ,3.060e+08   ,-2.4  ,1.5  ,0
3188  ,2.408e+08   ,-2.5  ,-2.4  ,1
3202  ,8.140e+08   ,0.26073  ,2.5  ,4.9
3212  ,2.568e+09   ,2.5  ,1.6404  ,4.9
3247  ,3.946e+09   ,2.5  ,1.8375  ,4.9
3265  ,3.231e+09   ,2.3  ,1.4326  ,4.8
3271  ,7.015e+09   ,2.2299  ,2.2299  ,4.8
3284  ,1.858e+09   ,2.4  ,1.4433  ,5
3291  ,1.765e+09   ,2.5  ,1.4433  ,4.9
3296  ,6.272e+08   ,-2.3  ,-0.76628  ,4.8
3303  ,2.561e+08   ,-2.4  ,-0.9  ,5
3311  ,2.338e+08   ,-2.4  ,-0.7  ,5
3315  ,1.709e+08   ,1.9  ,2.5  ,0.1
3336  ,3.295e+08   ,-2.4  ,0.3  ,0
3340  ,3.001e+08   ,-2.5  ,0.1  ,0.1
3344  ,2.923e+08   ,-2.4  ,0.1  ,0
3356  ,3.911e+08   ,-0.3  ,2.4  ,0
3361  ,5.872e+08   ,-0.33054  ,2.5  ,4.9
3364  ,6.271e+08   ,-0.13345  ,2.5  ,4.9
3383  ,1.166e+09   ,2.4  ,2.5  ,3.5491
3402  ,5.306e+09   ,2.4  ,2.5  ,4.5345
3421  ,5.790e+08   ,-1.316  ,2.5  ,4.9
3439  ,1.755e+09   ,2.5  ,2.4  ,3.9433
3447  ,1.798e+09   ,2.4  ,2.5  ,3.9433
3451  ,1.380e+09   ,2.4  ,2.5  ,3.7462
3468  ,1.783e+09   ,1.4433  ,2.4  ,5
3480  ,1.186e+09   ,1.0491  ,2.4  ,5
3519  ,2.542e+08   ,1.5  ,2.4  ,0
3527  ,6.651e+08   ,2.3  ,-1.4729  ,0.2
3550  ,2.158e+08   ,-1.7  ,2.4  ,0
3554  ,2.317e+08   ,-1.7  ,2.5  ,0.1
3558  ,2.060e+08   ,-1.5  ,2.4  ,0
3562  ,2.440e+08   ,-1.5  ,2.5  ,0.1
3574  ,1.103e+08   ,-2.4  ,2.1  ,5
3581  ,2.569e+08   ,-2.5  ,1.7  ,0.1
3583  ,2.078e+08   ,-2.5  ,1.9  ,0.1
3584  ,2.368e+08   ,-1.9073  ,2.5  ,4.9
3591  ,2.705e+08   ,2.5  ,0.3  ,0.1
3595  ,2.651e+08   ,2.5  ,0.1  ,0.1
3603  ,1.310e+10   ,2.4577  ,2.391  ,4.7576
3663  ,3.687e+07   ,-1.933  ,-2.5  ,0.2
3669  ,1.628e+08   ,-2.1765  ,-2.5  ,0.2
3672  ,1.020e+08   ,-2.3  ,-2.3379  ,0.2
3682  ,1.466e+08   ,-1.9  ,-2.4  ,0
3700  ,4.538e+08   ,2.3  ,-2.5  ,2.7424
3712  ,2.158e+08   ,-2.1  ,-2.5  ,4.9
3715  ,1.605e+08   ,-1.9  ,-2.5  ,4.9
3740  ,1.934e+08   ,-1.3  ,-2.4  ,5
3746  ,1.959e+08   ,-1.2085  ,-2.5  ,4.8
3755  ,1.356e+08   ,-1.5  ,-2.4  ,5
3760  ,8.384e+07   ,-1.7  ,-2.5  ,4.9
3786  ,6.318e+08   ,2.4  ,2.5  ,1.5782
3813  ,9.000e+08   ,0.26073  ,2.4  ,5
3858  ,3.024e+08   ,-0.9  ,-2.4  ,5
3863  ,3.238e+08   ,-2.5  ,0.9  ,4.9
3875  ,2.480e+08   ,-1.9  ,-2.4  ,5
3885  ,4.094e+08   ,2.4  ,-0.72473  ,5
3910  ,2.908e+08   ,-2.4  ,-2.5  ,3.4
3959  ,2.569e+09   ,2.5  ,2.4  ,4.1404
3969  ,1.159e+09   ,2.5  ,1.0491  ,4.9
3992  ,1.464e+10   ,2.391  ,2.2576  ,4.9577
3993  ,1.297e+10   ,2.4577  ,2.2576  ,4.891
4016  ,1.216e+08   ,-2.3015  ,2.5  ,4.9
4018  ,1.187e+08   ,-2.4  ,2.5  ,4.8
4021  ,1.318e+09   ,1.2462  ,2.4  ,5
4042  ,1.928e+08   ,2.4  ,-1.1  ,0
4046  ,2.206e+08   ,-0.9  ,2.4  ,0
4055  ,4.191e+08   ,1.7  ,-2.5  ,4.9
4087  ,2.307e+08   ,1.7  ,2.4  ,0
4114  ,4.582e+08   ,2.5  ,-0.33054  ,4.9
4120  ,2.727e+08   ,2.4  ,-2.5  ,1.8
4125  ,2.963e+08   ,2.4  ,2.5  ,0.98691
4144  ,3.619e+09   ,2.4  ,2.5  ,4.3375
4161  ,3.029e+08   ,-2.4  ,0.3  ,5
4201  ,1.746e+08   ,1.933  ,-2.5  ,0.2
4225  ,1.006e+08   ,-2.3  ,-2.4  ,0
4230  ,6.913e+07   ,-2.3  ,-2.5  ,0.56701
4269  ,2.938e+08   ,-0.9  ,-2.5  ,4.9
4277  ,2.320e+08   ,-1.1  ,-2.4  ,5
4288  ,1.395e+09   ,-0.070055  ,2.3  ,4.8
4328  ,6.149e+08   ,-2.5  ,-2.4  ,4.2
4336  ,3.860e+08   ,-2.5  ,-2.4  ,4.4
4342  ,1.027e+08   ,-2.5  ,-2.4  ,4.6
4348  ,3.653e+08   ,-2.4  ,-2.4707  ,4.9707
4352  ,1.079e+08   ,-2.3  ,-2.5  ,4.9
4354  ,5.999e+08   ,-2.1765  ,-2.5  ,4.8
4355  ,3.593e+08   ,-2.3  ,-2.3379  ,4.8
4362  ,2.284e+08   ,2.5  ,2.4  ,0.59273
4364  ,3.422e+08   ,2.5  ,-2.4  ,2.4
4366  ,2.810e+08   ,2.5  ,-2.4  ,2.2
4372  ,2.864e+08   ,2.4  ,-2.5  ,2.2
4385  ,3.922e+07   ,-2.5  ,-1.9  ,0.1
4399  ,1.239e+08   ,-2.5  ,2.1  ,0.1
4407  ,2.614e+08   ,-0.7  ,-2.4  ,0
4436  ,2.457e+08   ,-2.5  ,-0.1  ,0.1
4462  ,6.331e+08   ,-2.3  ,2.3  ,4.0333
4491  ,3.722e+08   ,2.5  ,-0.52764  ,4.9
4494  ,2.729e+08   ,2.5  ,-2.4  ,1.4
4503  ,2.399e+08   ,2.4  ,-2.5  ,1.4
4508  ,2.077e+08   ,2.4  ,-2.5  ,1.2
4515  ,3.011e+08   ,2.5  ,-2.4  ,1.8
4517  ,2.929e+08   ,2.4  ,-2.5  ,1.6
4522  ,2.882e+08   ,0.7  ,-2.4  ,0
4538  ,6.026e+08   ,-1.1189  ,2.4  ,5
4546  ,2.292e+09   ,2.4  ,2.5  ,4.1404
4559  ,6.211e+08   ,1.7  ,-2.4  ,0
4590  ,1.754e+08   ,0.5  ,-2.4  ,0
4631  ,4.320e+08   ,2.4  ,-2.5  ,2.6
4634  ,3.613e+08   ,2.5  ,-2.4  ,2.8
4657  ,2.933e+08   ,-2.5  ,-2.4  ,2
4660  ,2.504e+08   ,-2.5  ,-2.4  ,1.8
4664  ,2.202e+08   ,-0.3  ,-2.4  ,0
4675  ,1.448e+08   ,-2.4  ,-2.5  ,4.8
4681  ,1.940e+08   ,-2.5  ,-0.3  ,0.1
4684  ,6.752e+08   ,1.7  ,-2.4  ,5
4703  ,3.675e+08   ,-2.4  ,0.7  ,5
4707  ,2.420e+08   ,-2.5  ,0.3  ,4.9
4714  ,4.172e+08   ,2.4  ,-0.33054  ,5
4723  ,6.566e+08   ,-1.5567  ,2.3  ,4.8
4739  ,1.710e+08   ,-2.1044  ,2.5  ,4.9
4763  ,1.810e+08   ,-1.9  ,2.4  ,0
4780  ,5.818e+07   ,-2.3  ,-1.9695  ,0.2
4782  ,5.922e+07   ,-2.4707  ,-2.4  ,0.029289
4784  ,4.049e+07   ,-2.4  ,-1.9  ,0
4791  ,2.372e+08   ,-2.4  ,-2.5  ,1.8
4796  ,6.337e+08   ,2.4707  ,-2.4707  ,4.9
4799  ,6.554e+08   ,2.5  ,-2.4  ,4.8
4806  ,4.012e+08   ,2.3  ,-2.5  ,4.9
4809  ,3.287e+09   ,2.3  ,2.3  ,3.9166
4833  ,1.977e+08   ,-2.4  ,2.5  ,0.4
4841  ,3.595e+08   ,-2.4  ,2.5  ,2.6
4846  ,9.214e+07   ,-2.5  ,2.1  ,4.9
4848  ,8.841e+07   ,-2.5  ,2.3  ,4.9
4849  ,7.484e+07   ,-2.5  ,2.4  ,4.8
4893  ,1.819e+08   ,-2.4  ,2.5  ,4.2
4897  ,5.534e+09   ,2.3333  ,2.1998  ,5
4900  ,1.280e+10   ,2.391  ,2.4577  ,4.7576
4908  ,1.240e+10   ,2.2576  ,2.391  ,4.9577
4911  ,1.282e+10   ,2.2576  ,2.4577  ,4.891
4926  ,2.260e+08   ,-2.5  ,2.4  ,1
4932  ,3.392e+08   ,-2.4  ,2.5  ,1.6
4937  ,2.949e+08   ,-1.1  ,2.5  ,0.1
4939  ,6.879e+09   ,2.3  ,2.2299  ,4.7299
4944  ,4.625e+08   ,2.5  ,-1.9073  ,4.9
4987  ,6.631e+08   ,-2.3  ,1.5527  ,4.8
5010  ,1.035e+10   ,2.4973  ,2.1331  ,4.923
5013  ,5.398e+09   ,2.5  ,2.0345  ,4.9
5017  ,5.529e+09   ,2.4  ,2.0345  ,5
5035  ,5.701e+08   ,1.3  ,-2.4  ,0
5038  ,4.549e+07   ,1.2085  ,-2.5  ,0.2
5092  ,2.009e+08   ,-2.4  ,-2.5  ,1.2
5123  ,3.456e+08   ,2.5  ,-2.4  ,0.6
5151  ,1.690e+08   ,-2.5  ,-0.5  ,0.1
5160  ,1.531e+08   ,-2.5  ,-0.7  ,0.1
5164  ,3.541e+08   ,-2.4  ,0.9  ,5
5168  ,3.097e+08   ,-2.4  ,0.5  ,5
5176  ,1.937e+08   ,2.5  ,-0.7  ,0.1
5179  ,1.862e+08   ,2.4  ,-0.5  ,0
5189  ,4.039e+08   ,2.4  ,-2.5  ,2.4
5194  ,2.522e+08   ,2.3  ,-2.5  ,2.2576
5198  ,2.252e+08   ,-2.3  ,-2.5  ,0.32348
5205  ,7.274e+07   ,-2.4  ,-2.5  ,0.2
5207  ,1.436e+08   ,-2.1  ,-2.5  ,0.1
5246  ,4.445e+08   ,-2.5  ,2.4  ,3.2
5257  ,2.147e+08   ,-2.5  ,1.5  ,4.9
5263  ,2.203e+08   ,-2.3  ,0.2278  ,0.2
5272  ,3.521e+08   ,-2.5  ,0.3  ,0.1
5275  ,2.465e+08   ,-2.5  ,0.5  ,4.9
5281  ,3.121e+09   ,1.8375  ,2.5  ,4.9
5297  ,2.789e+08   ,-0.9  ,2.5  ,0.1
5306  ,2.606e+08   ,-0.7  ,2.4  ,0
5309  ,2.864e+08   ,-0.5  ,2.5  ,0.1
5324  ,7.818e+08   ,2.4  ,2.5  ,2.7607
5332  ,1.075e+08   ,2.5  ,-2.4  ,0.8
5334  ,1.168e+08   ,2.4  ,-2.5  ,1
5360  ,3.839e+08   ,2.4  ,-1.7102  ,5
5362  ,3.367e+08   ,2.4  ,-1.5131  ,5
5368  ,3.444e+09   ,2.4  ,1.8375  ,5
5371  ,2.220e+10   ,2.4325  ,2.4888  ,4.6656
5372  ,6.008e+09   ,2.3333  ,2.5  ,4.6998
5376  ,4.553e+09   ,2.4707  ,2.4707  ,4.6331
5377  ,5.679e+09   ,2.5  ,2.4  ,4.5345
5379  ,1.387e+08   ,-1.5  ,-2.5  ,4.9
5406  ,4.282e+08   ,-2.5  ,-2.4  ,3.4
5420  ,1.634e+08   ,-2.3  ,-2.5  ,3.2226
5423  ,6.623e+08   ,1.5  ,-2.4  ,0
5502  ,5.674e+07   ,-2.5  ,-2.3  ,0.1
5504  ,7.850e+07   ,-2.5  ,-2.4  ,0.2
5506  ,8.637e+07   ,-2.4  ,-2.3  ,0
5511  ,5.609e+07   ,-2.5  ,-2.1  ,0.1
5513  ,3.959e+08   ,-2.4  ,0.5  ,0
5517  ,2.174e+08   ,-0.9  ,-2.5  ,0.1
5532  ,9.255e+07   ,-2.4707  ,2.4707  ,4.9
5534  ,1.837e+08   ,2.4  ,-0.7  ,0
5551  ,8.616e+08   ,2.5  ,-2.4  ,3.8
5566  ,4.917e+08   ,2.5  ,2.4  ,1.3811
5603  ,2.512e+08   ,2.4  ,-0.3  ,0
5617  ,1.922e+08   ,-2.1  ,2.5  ,0.1
5637  ,3.331e+08   ,-2.3  ,-1.9695  ,4.8
5641  ,3.465e+08   ,2.3  ,-2.5  ,3.4636
5645  ,2.113e+08   ,-2.4  ,-2.5  ,2
5649  ,2.051e+08   ,-2.4  ,-2.5  ,2.2
5659  ,1.730e+08   ,-2.3  ,-2.5  ,1.7774
5662  ,1.044e+09   ,2.1765  ,-2.5  ,4.8
5666  ,3.829e+08   ,2.4  ,-2.5  ,4.8
5669  ,6.889e+08   ,2.3  ,-2.3412  ,4.8
5695  ,4.742e+08   ,-2.4  ,0.7  ,0
5701  ,2.585e+08   ,-2.5  ,2.4  ,1.6
5715  ,3.198e+08   ,-2.4  ,2.5  ,1.8
5726  ,2.703e+08   ,-0.7  ,2.5  ,0.1
5727  ,2.307e+08   ,-1.1  ,2.4  ,0
5730  ,2.460e+08   ,2.3  ,-2.5  ,1.7774
5746  ,6.080e+08   ,2.5  ,2.4  ,1.7753
5755  ,3.664e+08   ,2.5  ,-2.4  ,4.4
5763  ,4.099e+08   ,2.4  ,-2.5  ,4.4
5773  ,1.188e+09   ,1.0491  ,2.5  ,4.9
5791  ,6.274e+08   ,-0.72473  ,2.4  ,5
5795  ,3.329e+09   ,1.8375  ,2.4  ,5
5803  ,2.977e+08   ,-0.3  ,-2.4  ,5
5810  ,2.429e+09   ,2.4  ,1.6404  ,5
5836  ,2.541e+08   ,-2.5  ,1.3  ,4.9
5860  ,3.356e+08   ,2.5  ,-2.4  ,1.6
5866  ,2.454e+08   ,1.5  ,-2.5  ,0.1
5884  ,3.183e+08   ,-2.4  ,-0.3  ,5
5888  ,2.169e+08   ,-2.5  ,-0.5  ,4.9
5901  ,4.479e+08   ,2.3  ,-2.5  ,2.5
5908  ,2.000e+08   ,2.5  ,-2.4  ,1.2
5909  ,2.153e+08   ,2.5  ,-2.4  ,2
5934  ,4.060e+08   ,1.9  ,-2.5  ,4.9
5938  ,3.164e+08   ,1.933  ,-2.5  ,4.8
5948  ,2.757e+08   ,-2.4  ,-2.5  ,4.6
5950  ,2.795e+08   ,-2.4707  ,-2.4707  ,4.9
5951  ,2.686e+08   ,-2.5  ,-2.4  ,4.8
5952  ,2.529e+08   ,-2.5  ,-2.3  ,4.9
5986  ,1.193e+08   ,2.3  ,-2.5  ,3.7085
5990  ,6.510e+08   ,-0.92182  ,2.5  ,4.9
6019  ,1.055e+08   ,2.5  ,1.9  ,0.1
6025  ,1.644e+08   ,2.4  ,-1.3  ,0
6035  ,1.314e+08   ,-2.5  ,1.9  ,4.9
6044  ,5.735e+08   ,0.1  ,2.5  ,0.1
6054  ,2.623e+08   ,2.4  ,0.1  ,0
6070  ,8.309e+07   ,-2.4  ,2.3  ,0
6071  ,8.625e+07   ,-2.3  ,2.4  ,0
6076  ,1.232e+08   ,-2.4  ,2.1  ,0
6083  ,1.884e+08   ,2.1  ,-2.4  ,0
6084  ,5.762e+07   ,2.4  ,2.3  ,0
6087  ,6.816e+07   ,2.3  ,2.4  ,0
6092  ,1.675e+08   ,-2.4  ,-2.5  ,0.4
6096  ,1.062e+08   ,-2.3  ,-2.5  ,0.1
6099  ,2.569e+08   ,0.7  ,-2.5  ,0.1
6149  ,1.591e+08   ,-2.4  ,-0.9  ,0
6159  ,4.001e+07   ,-2.5  ,-2.4  ,2.6
6183  ,1.334e+09   ,1.2462  ,2.5  ,4.9
6224  ,8.489e+08   ,2.5  ,-2.4  ,4
6228  ,5.181e+08   ,2.4  ,-2.5  ,3.8
6237  ,4.026e+08   ,2.5  ,0.7  ,0.1
6241  ,5.851e+09   ,2.5  ,2.3333  ,4.6998
6245  ,5.210e+08   ,2.5  ,2.4  ,1.5782
6259  ,5.005e+08   ,2.5  ,-2.1044  ,4.9
6265  ,5.492e+08   ,2.3  ,-1.9804  ,4.8
6267  ,5.652e+08   ,2.5  ,-2.3015  ,4.9
6268  ,5.071e+08   ,2.4707  ,-2.4  ,4.9707
6270  ,5.072e+08   ,2.4  ,-2.1044  ,5
6317  ,6.671e+08   ,-2.3  ,0.2278  ,4.8
6349  ,6.777e+08   ,-0.52764  ,2.4  ,5
6391  ,6.062e+08   ,2.4  ,2.5  ,1.7753
6440  ,3.113e+08   ,-2.5  ,2.4  ,3.8
6471  ,3.515e+08   ,2.5  ,-0.92182  ,4.9
6489  ,1.375e+09   ,2.5  ,1.2462  ,4.9
6523  ,9.353e+07   ,-1.1  ,-2.4  ,0
6528  ,1.619e+08   ,-1.1  ,-2.5  ,0.1
6535  ,1.480e+08   ,-0.9  ,-2.4  ,0
6538  ,8.310e+08   ,1.5  ,-2.4  ,5
6541  ,4.530e+08   ,1.5  ,-2.5  ,4.9
6551  ,3.766e+08   ,2.5  ,-0.72473  ,4.9
6564  ,1.079e+10   ,2.1331  ,2.4973  ,4.923
6565  ,5.629e+09   ,2.0345  ,2.5  ,4.9
6572  ,1.285e+08   ,2.4  ,-1.7  ,0
6581  ,6.889e+08   ,0  ,2.3  ,0.2
6592  ,3.274e+08   ,2.3  ,-1.9695  ,0.2
6594  ,4.112e+08   ,0.3  ,2.4  ,0
6601  ,5.106e+08   ,0.5  ,2.5  ,0.1
6605  ,1.184e+08   ,-2.4  ,-1.3  ,0
6606  ,1.424e+08   ,-2.4  ,-1.1  ,0
6615  ,2.081e+08   ,-2.4  ,-0.3  ,0
6634  ,5.124e+08   ,2.1  ,-2.5  ,4.9
6635  ,6.512e+08   ,2.4  ,-2.4707  ,4.9707
6636  ,6.545e+08   ,2.3  ,-2.4  ,5
6647  ,2.350e+08   ,0.5  ,-2.5  ,0.1
6704  ,3.093e+07   ,-2.4707  ,2.4707  ,0.1
6708  ,7.799e+07   ,-2.5  ,2.4  ,0.2
6712  ,3.164e+08   ,-2.4  ,2.5  ,3.6
6715  ,4.278e+08   ,-2.4  ,2.5  ,3.4
6728  ,2.895e+08   ,-2.5  ,0.7  ,4.9
6753  ,1.977e+08   ,-2.1044  ,2.4  ,5
6788  ,3.673e+09   ,2.5  ,2.4  ,4.3375
6791  ,2.746e+08   ,-1.933  ,-2.5  ,4.8
6795  ,5.468e+09   ,2.1998  ,2.5  ,4.8333
6837  ,6.799e+07   ,-2.3  ,-2.5  ,0.8063
6869  ,3.959e+08   ,2.5  ,-1.7102  ,4.9
6873  ,4.906e+08   ,2.4  ,-1.9073  ,5
6880  ,3.796e+08   ,2.4  ,-0.92182  ,5
6885  ,4.051e+08   ,2.4  ,-0.52764  ,5
6893  ,1.344e+09   ,2.4  ,1.2462  ,5
6914  ,5.081e+08   ,0.7  ,2.5  ,0.1
6920  ,4.303e+08   ,0.9  ,2.4  ,0
6923  ,4.467e+08   ,0.7  ,2.4  ,0
6936  ,4.996e+08   ,2.4  ,-2.5  ,3.4
6939  ,5.055e+08   ,2.3  ,-2.5  ,3.2226
6961  ,3.795e+08   ,-0.1  ,-2.5  ,4.9
6967  ,1.481e+08   ,-2.5  ,-1.5  ,4.9
6975  ,2.895e+08   ,-2.4  ,1.1  ,5
6978  ,1.301e+08   ,-2.4  ,2.5  ,0.2
6987  ,3.410e+08   ,2.4  ,-1.316  ,5
6994  ,1.573e+08   ,2.4  ,-1.5  ,0
7004  ,5.518e+08   ,2.4  ,-2.5  ,3.6
7011  ,1.032e+09   ,2.4  ,0.65491  ,5
7016  ,8.674e+08   ,2.4  ,0.45782  ,5
7019  ,6.142e+08   ,2.5  ,2.4  ,2.1695
7021  ,5.849e+08   ,2.5  ,2.4  ,1.9724
7052  ,2.313e+08   ,-1.3  ,2.5  ,0.1
7054  ,1.160e+08   ,-2.4  ,-2.5  ,0.8
7057  ,2.096e+08   ,0.3  ,-2.5  ,0.1
7065  ,3.287e+08   ,0.24243  ,-2.5  ,0.2
7075  ,2.211e+10   ,2.4888  ,2.4325  ,4.6656
7113  ,1.649e+08   ,-2.4  ,-2.5  ,2.6
7121  ,2.156e+08   ,-2.4  ,-2.5  ,2.8
7126  ,9.611e+07   ,-2.5  ,-2.4  ,2.8
7128  ,3.916e+07   ,-2.4707  ,-2.4707  ,0.1
7129  ,5.796e+07   ,-2.4  ,-2.4707  ,0.029289
7141  ,8.684e+07   ,-1.7  ,-2.4  ,5
7145  ,3.612e+08   ,1.1  ,2.4  ,0
7163  ,2.903e+08   ,-1.7102  ,2.4  ,5
7172  ,3.322e+08   ,2.5  ,-2.4  ,3.2
7174  ,3.656e+08   ,-2.5  ,2.4  ,3.6
7183  ,1.499e+08   ,-1.4531  ,-2.5  ,4.8
7204  ,8.955e+08   ,2.3  ,-0.81068  ,4.8
7220  ,6.208e+08   ,2.5  ,0.063638  ,4.9
7227  ,2.184e+08   ,2.5  ,-1.9  ,0.1
7256  ,3.354e+08   ,-0.1  ,-2.4  ,5
7280  ,6.909e+08   ,-0.33054  ,2.4  ,5
7299  ,3.738e+08   ,2.5  ,-1.1189  ,4.9
7316  ,2.093e+08   ,-2.5  ,-2.4  ,0.8
7323  ,2.127e+08   ,-2.4  ,-2.5  ,1
7396  ,7.205e+08   ,1.1  ,-2.4  ,5
7400  ,4.690e+08   ,-2.5  ,0.7  ,0.1
7409  ,8.481e+08   ,1.3  ,-2.4  ,5
7420  ,6.182e+07   ,2.5  ,2.1  ,0.1
7429  ,1.371e+08   ,2.4  ,1.9  ,0
7436  ,1.503e+08   ,2.5  ,-1.7  ,0.1
7438  ,4.177e+08   ,2.4  ,-2.5  ,2.8
7445  ,1.805e+10   ,2.4325  ,2.1656  ,4.9888
7464  ,1.222e+08   ,2.5  ,-1.5  ,0.1
7480  ,4.143e+08   ,2.5  ,-2.4  ,0.2
7482  ,2.591e+08   ,1.9  ,-2.5  ,0.1
7483  ,2.578e+08   ,1.7  ,-2.5  ,0.1
7486  ,3.885e+08   ,1.9  ,-2.4  ,5
7488  ,1.022e+08   ,1.6937  ,-2.5  ,4.8
7492  ,4.376e+08   ,2.1  ,-2.4  ,5
7495  ,1.701e+08   ,0.1  ,-2.5  ,0.1
7504  ,8.767e+07   ,0.3  ,-2.4  ,0
7507  ,2.622e+08   ,0.9  ,-2.5  ,0.1
7533  ,4.660e+08   ,-2.5  ,0.9  ,0.1
7536  ,2.673e+08   ,-2.4  ,-2.5  ,3.2
7540  ,2.498e+08   ,-2.4  ,-2.5  ,3
7545  ,1.946e+08   ,-2.5  ,-2.4  ,3
7582  ,2.431e+08   ,1.3  ,2.5  ,0.1
7588  ,7.175e+08   ,2.5  ,2.4  ,2.3665
7598  ,2.020e+08   ,-2.5  ,2.4  ,4.2
7607  ,6.256e+08   ,1.5333  ,2.3  ,0.2
7627  ,2.828e+08   ,-2.5  ,1.1  ,4.9
7651  ,1.807e+08   ,2.4  ,-1.9  ,0
7656  ,1.589e+08   ,2.5  ,2.4  ,0.39564
7660  ,6.898e+09   ,2.2299  ,2.3  ,4.7299
7668  ,3.915e+07   ,1.4531  ,-2.5  ,4.8
7676  ,3.667e+08   ,0.1  ,-2.5  ,4.9
7683  ,2.892e+08   ,0.1  ,-2.4  ,5
7686  ,2.352e+08   ,-2.4  ,-1.1  ,5
7702  ,1.740e+08   ,-2.3  ,-2.5  ,4.433
7710  ,4.253e+08   ,-2.3  ,-2.5  ,4.6765
7752  ,4.998e+08   ,0.9  ,-2.4  ,5
7763  ,3.984e+08   ,0.24243  ,-2.5  ,4.8
7767  ,3.265e+08   ,-2.5  ,-2.4  ,3.2
7768  ,7.038e+07   ,-2.4  ,-2.1  ,0
7776  ,4.654e+08   ,-2.4  ,0.9  ,0
7786  ,1.819e+08   ,-0.4838  ,-2.5  ,4.8
7800  ,4.520e+08   ,2.5  ,-2.4  ,4.6
7805  ,1.702e+08   ,-2.5  ,-1.3  ,4.9
7811  ,1.974e+08   ,-2.5  ,-1.1  ,4.9
7820  ,2.278e+08   ,2.5  ,-2.1  ,0.1
7824  ,2.222e+08   ,2.4  ,-2.1  ,0
7828  ,4.404e+08   ,2.4  ,-2.5  ,4.2
7831  ,4.479e+08   ,2.4  ,-2.5  ,4
7838  ,6.693e+08   ,2.5  ,-2.4  ,4.2
7839  ,7.618e+08   ,2.5  ,2.4  ,2.7607
7840  ,9.326e+08   ,2.5  ,2.4  ,2.9578
7863  ,8.910e+07   ,-2.4  ,-1.5  ,0
7890  ,2.971e+08   ,2.4  ,0.9  ,0
7897  ,1.688e+08   ,-2.4  ,-0.7  ,0
7912  ,2.080e+08   ,-1.5  ,-2.4  ,0
7917  ,1.561e+08   ,-1.3  ,-2.5  ,0.1
7931  ,4.255e+08   ,0.5  ,2.4  ,0
7934  ,5.197e+08   ,1.1  ,-2.4  ,0
7937  ,1.355e+08   ,2.4  ,-2.5  ,0.8
7941  ,8.395e+07   ,-2.4  ,-2.5  ,0.6
7969  ,6.529e+07   ,-2.5  ,2.3  ,0.1
7971  ,2.033e+08   ,-2.4  ,1.9  ,0
7972  ,2.084e+08   ,-1.9  ,2.5  ,0.1
7978  ,4.028e+08   ,-2.4  ,1.1  ,0
7996  ,3.042e+08   ,-2.4  ,-0.5  ,5
8000  ,1.537e+08   ,-2.5  ,-2.4  ,0.6
8003  ,1.508e+08   ,-2.5  ,-2.4  ,0.4
8025  ,4.222e+08   ,0.9  ,2.5  ,0.1
8035  ,5.266e+08   ,0.3  ,2.5  ,0.1
8039  ,6.172e+08   ,2.3  ,-2.5  ,0.32348
8041  ,3.657e+08   ,2.3  ,-2.3379  ,0.2
8043  ,4.479e+08   ,2.1765  ,-2.5  ,0.2
8045  ,2.598e+08   ,-0.96359  ,-2.5  ,0.2
8054  ,3.112e+08   ,1.3  ,2.4  ,0
8058  ,3.100e+08   ,1.1  ,2.5  ,0.1
8062  ,2.547e+08   ,-2.5  ,2.4  ,1.4
8067  ,2.085e+08   ,-2.5  ,2.4  ,0.8
8087  ,3.061e+08   ,-2.5  ,1.5  ,0.1
8132  ,8.007e+08   ,-0.13345  ,2.4  ,5
8183  ,2.212e+08   ,2.5  ,-0.9  ,0.1
8184  ,3.059e+08   ,1.6937  ,-2.5  ,0.2
8214  ,2.530e+08   ,-2.4707  ,-2.4  ,4.9707
8217  ,4.408e+08   ,-2.1  ,-2.4  ,5
8219  ,2.985e+08   ,-2.4  ,-2.5  ,4.4
8227  ,1.169e+09   ,2.5  ,2.4  ,3.1549
8242  ,3.525e+08   ,0.7  ,-2.5  ,4.9
8248  ,7.680e+08   ,2.5  ,-2.4  ,3.6
8254  ,2.761e+08   ,2.5  ,-0.3  ,0.1
8256  ,2.454e+08   ,2.5  ,-0.5  ,0.1
8258  ,2.890e+08   ,-0.3  ,-2.5  ,4.9
8263  ,2.388e+08   ,-0.5  ,-2.5  ,4.9
8268  ,6.307e+07   ,-2.3  ,-2.5  ,3.7085
8277  ,1.731e+08   ,-0.1  ,-2.5  ,0.1
8285  ,5.308e+08   ,1.1  ,-2.5  ,4.9
8307  ,3.962e+08   ,0.1  ,2.4  ,0
8308  ,2.703e+08   ,-0.1  ,2.5  ,0.1
8309  ,4.050e+08   ,-0.1  ,2.4  ,0
8313  ,2.568e+08   ,2.5  ,-2.3  ,0.1
8318  ,3.342e+08   ,2.5  ,-2.4  ,3
8338  ,1.126e+09   ,2.5  ,2.4  ,3.352
8339  ,1.151e+09   ,2.4  ,2.5  ,3.1549
8344  ,4.347e+08   ,-2.5  ,2.4  ,3.4
8357  ,1.729e+10   ,2.4888  ,2.1656  ,4.9325
8358  ,5.328e+09   ,2.5  ,2.1998  ,4.8333
8383  ,2.014e+08   ,-1.7  ,-2.4  ,0
8396  ,2.749e+08   ,1.1  ,-2.5  ,0.1
8399  ,6.814e+09   ,2.4526  ,2.1331  ,4.9851
8405  ,1.075e+08   ,2.5  ,-2.4  ,1
8412  ,1.166e+08   ,2.3  ,-2.5  ,0.8063
8417  ,3.092e+08   ,-2.3  ,-2.5  ,2.5
8434  ,3.354e+08   ,0.9636  ,-2.5  ,4.8
8438  ,2.098e+08   ,-0.3  ,-2.5  ,0.1
8452  ,2.601e+08   ,-2.4  ,-0.1  ,5
8468  ,1.416e+09   ,2.5  ,2.4  ,3.7462
8471  ,2.042e+08   ,-1.3  ,-2.5  ,4.9
8493  ,2.303e+08   ,-1.1  ,-2.5  ,4.9
8509  ,4.835e+07   ,-2.5  ,-1.7  ,0.1
8517  ,4.375e+08   ,-2.4  ,2.5  ,3
8531  ,2.572e+08   ,-2.4  ,1.7  ,0
8556  ,1.209e+09   ,2.5  ,2.4  ,3.5491
8573  ,5.139e+08   ,-1.316  ,2.4  ,5
8576  ,3.577e+08   ,-2.4  ,1.3  ,0
8611  ,2.065e+08   ,2.3  ,-2.5  ,1.2915
8618  ,1.975e+08   ,-2.4  ,2.5  ,4
8646  ,4.039e+08   ,-2.5  ,1.1  ,0.1
8656  ,2.313e+08   ,2.5  ,-1.3  ,0.1
8657  ,7.568e+07   ,2.4  ,2.1  ,0
8673  ,2.016e+08   ,-1.3  ,2.4  ,0
8692  ,4.493e+08   ,0.72263  ,-2.5  ,4.8
8696  ,1.247e+08   ,2.3  ,-2.5  ,1.0469
8706  ,9.593e+08   ,2.5  ,0.65491  ,4.9
8721  ,2.186e+08   ,-2.4  ,-2.5  ,1.6
8725  ,1.155e+09   ,0.65491  ,2.4  ,5
8739  ,1.852e+10   ,2.1656  ,2.4325  ,4.9888
8741  ,5.732e+09   ,2.1998  ,2.3333  ,5
8746  ,9.732e+07   ,-2.1  ,-2.4  ,0
8748  ,2.002e+08   ,-2.5  ,-2.4  ,1.2
8752  ,8.266e+09   ,2.1331  ,2.4526  ,4.9851
8759  ,1.734e+08   ,-2.3  ,-2.5  ,1.0469
8787  ,8.723e+07   ,-0.1  ,-2.4  ,0
8793  ,1.906e+08   ,-2.3  ,-2.5  ,2.2576
8795  ,1.671e+08   ,-2.4  ,-2.5  ,2.4
8798  ,2.889e+08   ,-2.3  ,-2.5  ,4.1937
8808  ,2.328e+08   ,-2.3  ,-2.5  ,3.9531
8814  ,2.421e+08   ,-2.4  ,-1.5  ,5
8849  ,4.106e+08   ,0.4838  ,-2.5  ,4.8
8851  ,2.802e+08   ,-2.4  ,-2.5  ,4.2
8868  ,3.729e+08   ,2.4  ,-2.5  ,3
8874  ,1.203e+09   ,0.852  ,2.4  ,5
8883  ,2.170e+08   ,-0.5  ,-2.4  ,5
8886  ,2.749e+08   ,-0.72262  ,-2.5  ,4.8
8893  ,2.821e+08   ,-0.7  ,-2.5  ,4.9
8897  ,5.383e+08   ,-2.5  ,-2.4  ,3.6
8899  ,6.478e+07   ,-2.3  ,-2.5  ,3.4636
8900  ,6.861e+07   ,-2.3  ,-1.4729  ,0.2
8906  ,1.153e+08   ,-2.5  ,-1.3  ,0.1
8910  ,1.143e+09   ,0.852  ,2.5  ,4.9
8925  ,2.561e+08   ,-2.4  ,2.5  ,1.4
8941  ,6.928e+07   ,2.4707  ,2.4  ,0.029289
8942  ,7.776e+07   ,2.5  ,2.3  ,0.1
8945  ,2.420e+08   ,-2.5  ,0.1  ,4.9
8950  ,6.451e+07   ,2.4707  ,2.4707  ,0.1
8951  ,9.075e+07   ,2.4  ,2.4707  ,0.029289
8959  ,6.739e+08   ,2.4  ,0.26073  ,5
8965  ,9.560e+08   ,0.45782  ,2.4  ,5
8978  ,1.059e+09   ,2.4  ,0.852  ,5
8983  ,2.189e+08   ,2.5  ,-1.1  ,0.1
8991  ,1.813e+08   ,-2.5  ,2.4  ,0.6
9008  ,1.020e+09   ,2.5  ,0.852  ,4.9
9011  ,1.838e+08   ,-2.4  ,-0.5  ,0
9025  ,1.833e+08   ,-1.5  ,-2.5  ,0.1
9038  ,2.177e+08   ,2.4  ,-2.5  ,2
9041  ,3.541e+08   ,2.5  ,0.9  ,0.1
9050  ,3.361e+08   ,2.5  ,0.5  ,0.1
9054  ,4.302e+08   ,0.9  ,-2.4  ,0
9060  ,2.569e+08   ,2.4  ,-2.5  ,0.4
9062  ,3.723e+08   ,2.3  ,-2.5  ,0.56701
9064  ,4.480e+08   ,2.5  ,-2.4  ,0.4
9069  ,2.175e+08   ,2.4  ,-2.5  ,0.6
9071  ,2.080e+08   ,1.4531  ,-2.5  ,0.2
9082  ,2.681e+08   ,-2.3  ,-2.5  ,1.2915
9086  ,1.895e+08   ,-2.4  ,-2.5  ,1.4
9091  ,1.261e+08   ,-2.5  ,-2.4  ,1.4
9094  ,5.150e+08   ,1.3  ,-2.5  ,4.9
9097  ,2.525e+08   ,-0.7  ,-2.5  ,0.1
9137  ,2.027e+08   ,-2.5  ,-0.7  ,4.9
9143  ,2.823e+08   ,-2.5  ,-0.1  ,4.9
9146  ,1.606e+08   ,-2.1  ,2.4  ,0
9148  ,1.747e+08   ,-2.5  ,1.7  ,4.9
9173  ,3.773e+08   ,-2.5  ,2.4  ,3
9192  ,3.058e+08   ,-0.7  ,-2.4  ,5
9195  ,1.494e+08   ,0.72263  ,-2.5  ,0.2
9209  ,5.230e+08   ,2.5  ,-2.4  ,3.4
9215  ,2.838e+07   ,0.9636  ,-2.5  ,0.2
9217  ,3.857e+08   ,2.4  ,-2.5  ,3.2
9218  ,2.681e+08   ,-0.96359  ,-2.5  ,4.8
9229  ,3.873e+08   ,-2.4  ,2.5  ,2.8
9248  ,3.581e+08   ,2.3  ,-2.5  ,4.433
9255  ,2.046e+08   ,2.5  ,1.3  ,0.1
9257  ,2.125e+08   ,2.4  ,1.5  ,0
9262  ,2.996e+08   ,0.5  ,-2.4  ,5
9264  ,4.626e+08   ,2.4  ,-0.13345  ,5
9272  ,7.709e+08   ,0.063638  ,2.4  ,5
9277  ,2.154e+08   ,-2.5  ,2.4  ,1.2
9279  ,7.157e+08   ,2.5  ,0.26073  ,4.9
9282  ,1.557e+08   ,1.2085  ,-2.5  ,4.8
9286  ,4.488e+08   ,0.9  ,-2.5  ,4.9
9292  ,7.891e+07   ,-2.4  ,2.4707  ,4.9707
9293  ,9.526e+07   ,-2.3015  ,2.4  ,5
9296  ,2.297e+08   ,-2.4  ,-2.1  ,5
9303  ,2.229e+08   ,-2.4  ,-1.9  ,5
9311  ,1.078e+08   ,-2.4  ,2.3  ,5
9313  ,2.378e+08   ,-2.4  ,0.1  ,5
9319  ,3.148e+08   ,-0.5  ,-2.4  ,0
9328  ,2.755e+08   ,-2.3  ,-2.5  ,1.5364
9334  ,1.296e+08   ,-2.3  ,2.5  ,0.1
9338  ,6.992e+07   ,-2.5  ,-2.4  ,2.4
9339  ,3.457e+08   ,-2.5  ,1.3  ,0.1
9341  ,3.387e+08   ,-2.3  ,-2.5  ,2.7424
9344  ,2.004e+08   ,-2.5  ,-2.4  ,2.2
9358  ,1.020e+09   ,-2.3  ,2.3  ,2.5
9364  ,2.307e+08   ,-2.5  ,-2.1  ,4.9
9367  ,2.879e+08   ,-2.4  ,-2.3  ,5
9374  ,2.248e+08   ,-2.4  ,-1.3  ,5
9378  ,2.939e+08   ,-2.5  ,2.4  ,1.8
9384  ,1.486e+08   ,2.3  ,-2.5  ,2.0162
9385  ,1.661e+08   ,-2.5  ,2.4  ,4.4
9389  ,2.920e+08   ,-2.5  ,2.4  ,2
9395  ,5.218e+08   ,2.4  ,-2.3015  ,5
9396  ,5.189e+07   ,-2.4  ,-1.7  ,0
9407  ,6.235e+08   ,-2.3  ,-1.4729  ,4.8
9411  ,1.421e+08   ,-2.5  ,-1.7  ,4.9
9423  ,2.969e+08   ,-2.4  ,-2.5  ,3.6
9432  ,2.979e+08   ,0.7  ,-2.4  ,5
9438  ,1.889e+08   ,-2.5  ,-0.9  ,4.9
9443  ,2.763e+08   ,-2.5  ,-0.3  ,4.9
9445  ,9.080e+07   ,-2.4707  ,2.4  ,4.9707
9448  ,3.414e+08   ,2.4  ,-1.1189  ,5
9453  ,3.064e+08   ,2.4  ,0.7  ,0
9455  ,3.353e+08   ,2.5  ,-2.4  ,2.6
9457  ,4.804e+08   ,2.3  ,-2.5  ,2.9838
9494  ,2.403e+08   ,-2.4  ,2.5  ,1
9500  ,3.420e+08   ,0.3  ,-2.5  ,4.9
9504  ,3.032e+08   ,0.3  ,-2.4  ,5
9506  ,2.566e+08   ,2.1  ,-2.5  ,0.1
9518  ,6.909e+07   ,-1.9  ,-2.5  ,0.1
9528  ,1.529e+08   ,2.3  ,-2.5  ,0.1
9531  ,3.689e+08   ,2.4707  ,-2.4707  ,0.1
9533  ,2.404e+08   ,2.4707  ,-2.4  ,0.029289
9534  ,2.816e+08   ,2.4  ,-2.4707  ,0.029289
9541  ,3.350e+08   ,0.5  ,-2.5  ,4.9
9544  ,2.249e+08   ,-0.5  ,-2.5  ,0.1
9559  ,1.555e+08   ,-2.5  ,-1.9  ,4.9
9562  ,9.695e+07   ,-2.5  ,2.4  ,4.6
9565  ,3.338e+08   ,-2.4  ,2.5  ,2
9571  ,6.256e+08   ,-2.5  ,-2.4  ,3.8
9574  ,3.013e+08   ,-2.4  ,-2.5  ,3.8
9577  ,2.710e+08   ,1.3  ,-2.5  ,0.1
9582  ,1.456e+08   ,-2.5  ,-0.9  ,0.1
9596  ,1.217e+08   ,2.1  ,2.4  ,0
9598  ,4.760e+08   ,-2.4  ,2.5  ,3.2
9602  ,2.121e+08   ,1.5  ,2.5  ,0.1
9610  ,1.451e+08   ,2.4  ,2.5  ,0.39564
9612  ,7.413e+08   ,-0.72473  ,2.5  ,4.9
9614  ,2.042e+08   ,1.7  ,2.5  ,0.1
9635  ,1.326e+08   ,2.5  ,1.7  ,0.1
9646  ,1.151e+08   ,2.3  ,2.5  ,0.1
9651  ,1.750e+10   ,2.1656  ,2.4888  ,4.9325
9653  ,3.495e+08   ,2.5  ,-1.316  ,4.9
9656  ,1.978e+08   ,-2.4  ,-1.7  ,5
9659  ,1.022e+09   ,2.3  ,-2.5  ,4.6765
9661  ,7.947e+07   ,2.3  ,-2.5  ,3.9531
9664  ,4.164e+08   ,-2.3  ,-2.4  ,5
9666  ,4.059e+08   ,1.9  ,-2.4  ,0
9677  ,2.887e+08   ,2.4  ,0.5  ,0
9678  ,1.381e+08   ,-2.5  ,-1.1  ,0.1
9680  ,4.229e+08   ,2.5  ,2.4  ,1.184
9681  ,9.022e+07   ,2.5  ,2.4  ,0.19855
9696  ,8.031e+07   ,-2.3  ,-2.5  ,2.0162
9698  ,2.620e+08   ,2.4  ,-2.3  ,0
9699  ,1.785e+08   ,-0.24243  ,-2.5  ,0.2
9701  ,4.266e+07   ,0.1  ,-2.4  ,0
9704  ,7.401e+07   ,-0.4838  ,-2.5  ,0.2
9718  ,1.884e+08   ,-0.72262  ,-2.5  ,0.2
9726  ,7.267e+08   ,2.3  ,-0.76628  ,0.2
9727  ,1.685e+08   ,-2.5  ,2.4  ,0.4
9730  ,4.172e+08   ,1.9433E-06  ,-2.5  ,4.8
9731  ,2.412e+08   ,-0.24243  ,-2.5  ,4.8
9732  ,3.039e+08   ,-2.5  ,2.4  ,2.2
9738  ,6.911e+08   ,-2.5  ,-2.4  ,4
9743  ,1.119e+08   ,-1.6937  ,-2.5  ,4.8
9744  ,2.545e+08   ,-2.4  ,-2.5  ,4
9750  ,1.437e+08   ,-1.7  ,-2.5  ,0.1
9752  ,9.992e+07   ,-1.6937  ,-2.5  ,0.2
9754  ,1.496e+08   ,-1.3  ,-2.4  ,0
9759  ,5.546e+07   ,-2.4707  ,2.4  ,0.029289
9760  ,3.583e+07   ,-2.4  ,2.4707  ,0.029289
9768  ,1.460e+08   ,2.3  ,-2.5  ,4.1937
9770  ,2.980e+08   ,1.9433E-06  ,-2.5  ,0.2
9771  ,2.798e+08   ,0.4838  ,-2.5  ,0.2
9772  ,1.059e+08   ,2.4  ,-2.5  ,0.2
9773  ,4.814e+08   ,2.4  ,-2.5  ,4.6
9776  ,5.358e+08   ,2.4  ,0.063638  ,5
9780  ,1.216e+09   ,0.65491  ,2.5  ,4.9
9781  ,8.985e+07   ,2.4  ,2.5  ,0.19855
9782  ,2.728e+08   ,-2.3  ,-2.5  ,2.9838
9786  ,2.272e+08   ,-1.2085  ,-2.5  ,0.2
9787  ,1.674e+08   ,-1.4531  ,-2.5  ,0.2
9790  ,2.590e+08   ,2.3  ,-2.4  ,0
9793  ,5.584e+09   ,2.0345  ,2.4  ,5
9797  ,2.797e+08   ,2.3  ,-2.5  ,1.5364
9798  ,1.105e+09   ,2.4  ,1.0491  ,5
9809  ,1.159e+09   ,2.4  ,2.5  ,3.352
