Date:  11:11, Monday, July 10, 2023
Model name: Hollow_DropBox
Study name: Drop Test_hollow_draft1(-Default-)
Plot type:  Stress1
Plot step: 2   time : 10.4795 Microseconds
Result Type: von Mises 


Node  ,Value (N/m^2)  ,X (in)  ,Y (in)  ,Z (in)
1  ,1.847e+09   ,2.5  ,2.1331  ,4.9
2  ,9.041e+09   ,2.4577  ,2.1908  ,4.9577
3  ,2.747e+09   ,2.4894  ,2.1331  ,4.9447
4  ,1.927e+09   ,2.1331  ,2.5  ,4.9
5  ,2.864e+09   ,2.1331  ,2.4894  ,4.9447
6  ,7.990e+09   ,2.1908  ,2.4577  ,4.9577
7  ,7.131e+05   ,-2.4  ,2.4  ,5
8  ,1.821e+03   ,-2.4  ,-2.4  ,5
9  ,4.415e+04   ,2.4  ,-2.4  ,5
10  ,1.844e+09   ,2.4  ,2.1331  ,5
11  ,2.056e+09   ,2.1331  ,2.4  ,5
12  ,4.283e+04   ,2.5  ,-2.4  ,4.9
13  ,1.330e+03   ,2.5  ,-2.4  ,0.1
14  ,1.894e+06   ,2.5  ,2.4  ,0.1
15  ,2.244e+09   ,2.5  ,2.4  ,4.6331
16  ,1.532e+06   ,2.4  ,2.5  ,0.1
17  ,2.062e+05   ,-2.4  ,2.5  ,0.1
18  ,8.103e+05   ,-2.4  ,2.5  ,4.9
19  ,2.297e+09   ,2.4  ,2.5  ,4.6331
20  ,2.080e+05   ,-2.5  ,2.4  ,0.1
21  ,1.543e+00   ,-2.5  ,-2.4  ,0.1
22  ,8.648e+02   ,-2.5  ,-2.4  ,4.9
23  ,6.309e+05   ,-2.5  ,2.4  ,4.9
24  ,1.264e+00   ,-2.3  ,-2.5  ,0.2
25  ,6.417e+02   ,-2.3  ,-2.5  ,4.8
26  ,2.967e+04   ,2.3  ,-2.5  ,4.8
27  ,7.406e+02   ,2.3  ,-2.5  ,0.2
28  ,4.485e+02   ,-2.4  ,-2.5  ,4.9
29  ,3.169e+04   ,2.4  ,-2.5  ,4.9
30  ,1.211e+00   ,-2.4  ,-2.5  ,0.1
31  ,2.793e+02   ,2.4  ,-2.5  ,0.1
32  ,7.614e+02   ,2.4  ,-2.4  ,0
33  ,1.770e+06   ,2.4  ,2.4  ,0
34  ,1.099e+00   ,-2.4  ,-2.4  ,0
35  ,1.810e+05   ,-2.4  ,2.4  ,0
36  ,7.328e+09   ,2.4577  ,2.4577  ,4.6908
37  ,2.759e+06   ,-2.3  ,2.3  ,4.8
38  ,2.316e+09   ,2.1599  ,2.3  ,4.8
39  ,2.313e+09   ,2.3  ,2.1599  ,4.8
40  ,2.291e+09   ,2.3  ,2.3  ,4.6599
41  ,2.332e+06   ,2.3  ,2.3  ,0.2
42  ,1.431e+05   ,-2.3  ,2.3  ,0.2
43  ,3.892e+05   ,-2.4  ,2.2  ,5
44  ,1.049e+06   ,-2.4  ,2  ,5
45  ,9.074e+05   ,-2.4  ,1.8  ,5
46  ,1.357e+06   ,-2.4  ,1.6  ,5
47  ,1.442e+06   ,-2.4  ,1.4  ,5
48  ,1.609e+06   ,-2.4  ,1.2  ,5
49  ,1.178e+06   ,-2.4  ,1  ,5
50  ,1.640e+06   ,-2.4  ,0.8  ,5
51  ,1.648e+06   ,-2.4  ,0.6  ,5
52  ,1.102e+06   ,-2.4  ,0.4  ,5
53  ,1.331e+06   ,-2.4  ,0.2  ,5
54  ,1.122e+06   ,-2.4  ,5.8879E-16  ,5
55  ,5.719e+05   ,-2.4  ,-0.2  ,5
56  ,1.239e+06   ,-2.4  ,-0.4  ,5
57  ,1.047e+06   ,-2.4  ,-0.6  ,5
58  ,3.259e+05   ,-2.4  ,-0.8  ,5
59  ,3.071e+05   ,-2.4  ,-1  ,5
60  ,3.762e+05   ,-2.4  ,-1.2  ,5
61  ,1.944e+05   ,-2.4  ,-1.4  ,5
62  ,1.197e+05   ,-2.4  ,-1.6  ,5
63  ,7.140e+04   ,-2.4  ,-1.8  ,5
64  ,1.196e+04   ,-2.4  ,-2  ,5
65  ,5.992e+03   ,-2.4  ,-2.2  ,5
66  ,2.631e+03   ,-2.2  ,-2.4  ,5
67  ,1.086e+03   ,-2  ,-2.4  ,5
68  ,1.816e+03   ,-1.8  ,-2.4  ,5
69  ,3.358e+03   ,-1.6  ,-2.4  ,5
70  ,6.371e+03   ,-1.4  ,-2.4  ,5
71  ,5.296e+03   ,-1.2  ,-2.4  ,5
72  ,5.998e+03   ,-1  ,-2.4  ,5
73  ,1.782e+04   ,-0.8  ,-2.4  ,5
74  ,3.206e+04   ,-0.6  ,-2.4  ,5
75  ,3.079e+04   ,-0.4  ,-2.4  ,5
76  ,4.956e+04   ,-0.2  ,-2.4  ,5
77  ,5.297e+04   ,-5.8879E-16  ,-2.4  ,5
78  ,3.035e+04   ,0.2  ,-2.4  ,5
79  ,9.336e+03   ,0.4  ,-2.4  ,5
80  ,2.171e+04   ,0.6  ,-2.4  ,5
81  ,3.332e+04   ,0.8  ,-2.4  ,5
82  ,6.760e+04   ,1  ,-2.4  ,5
83  ,8.615e+04   ,1.2  ,-2.4  ,5
84  ,1.454e+05   ,1.4  ,-2.4  ,5
85  ,1.821e+05   ,1.6  ,-2.4  ,5
86  ,2.198e+05   ,1.8  ,-2.4  ,5
87  ,2.121e+05   ,2  ,-2.4  ,5
88  ,5.136e+04   ,2.2  ,-2.4  ,5
89  ,5.436e+04   ,2.4  ,-2.2029  ,5
90  ,5.136e+05   ,2.4  ,-2.0058  ,5
91  ,3.734e+05   ,2.4  ,-1.8087  ,5
92  ,3.326e+06   ,2.4  ,-1.6116  ,5
93  ,2.803e+06   ,2.4  ,-1.4145  ,5
94  ,8.504e+06   ,2.4  ,-1.2175  ,5
95  ,2.032e+07   ,2.4  ,-1.0204  ,5
96  ,8.701e+06   ,2.4  ,-0.82327  ,5
97  ,3.913e+07   ,2.4  ,-0.62618  ,5
98  ,9.257e+07   ,2.4  ,-0.42909  ,5
99  ,2.090e+07   ,2.4  ,-0.232  ,5
100  ,1.556e+08   ,2.4  ,-0.034907  ,5
101  ,2.128e+08   ,2.4  ,0.16218  ,5
102  ,1.908e+08   ,2.4  ,0.35927  ,5
103  ,2.224e+08   ,2.4  ,0.55637  ,5
104  ,2.117e+08   ,2.4  ,0.75346  ,5
105  ,1.114e+08   ,2.4  ,0.95055  ,5
106  ,1.803e+08   ,2.4  ,1.1476  ,5
107  ,4.534e+08   ,2.4  ,1.3447  ,5
108  ,6.115e+08   ,2.4  ,1.5418  ,5
109  ,8.839e+08   ,2.4  ,1.7389  ,5
110  ,1.484e+09   ,2.4  ,1.936  ,5
111  ,2.066e+09   ,2.2665  ,2.2665  ,5
112  ,1.479e+09   ,1.936  ,2.4  ,5
113  ,8.021e+08   ,1.7389  ,2.4  ,5
114  ,5.806e+08   ,1.5418  ,2.4  ,5
115  ,4.041e+08   ,1.3447  ,2.4  ,5
116  ,1.753e+08   ,1.1476  ,2.4  ,5
117  ,1.090e+08   ,0.95055  ,2.4  ,5
118  ,3.052e+08   ,0.75346  ,2.4  ,5
119  ,2.517e+08   ,0.55637  ,2.4  ,5
120  ,1.492e+08   ,0.35927  ,2.4  ,5
121  ,1.478e+08   ,0.16218  ,2.4  ,5
122  ,1.187e+08   ,-0.034907  ,2.4  ,5
123  ,5.306e+07   ,-0.232  ,2.4  ,5
124  ,1.518e+07   ,-0.42909  ,2.4  ,5
125  ,4.587e+07   ,-0.62618  ,2.4  ,5
126  ,4.763e+07   ,-0.82327  ,2.4  ,5
127  ,1.517e+07   ,-1.0204  ,2.4  ,5
128  ,6.455e+06   ,-1.2175  ,2.4  ,5
129  ,1.016e+07   ,-1.4145  ,2.4  ,5
130  ,7.732e+06   ,-1.6116  ,2.4  ,5
131  ,3.645e+06   ,-1.8087  ,2.4  ,5
132  ,1.947e+06   ,-2.0058  ,2.4  ,5
133  ,1.250e+06   ,-2.2029  ,2.4  ,5
294  ,7.335e+04   ,2.5  ,-2.2029  ,4.9
295  ,5.678e+05   ,2.5  ,-2.0058  ,4.9
296  ,5.658e+05   ,2.5  ,-1.8087  ,4.9
297  ,2.965e+06   ,2.5  ,-1.6116  ,4.9
298  ,2.587e+06   ,2.5  ,-1.4145  ,4.9
299  ,9.088e+06   ,2.5  ,-1.2175  ,4.9
300  ,1.928e+07   ,2.5  ,-1.0204  ,4.9
301  ,9.498e+06   ,2.5  ,-0.82327  ,4.9
302  ,4.209e+07   ,2.5  ,-0.62618  ,4.9
303  ,8.561e+07   ,2.5  ,-0.42909  ,4.9
304  ,3.006e+07   ,2.5  ,-0.232  ,4.9
305  ,1.368e+08   ,2.5  ,-0.034907  ,4.9
306  ,1.964e+08   ,2.5  ,0.16218  ,4.9
307  ,1.908e+08   ,2.5  ,0.35927  ,4.9
308  ,2.370e+08   ,2.5  ,0.55637  ,4.9
309  ,2.163e+08   ,2.5  ,0.75346  ,4.9
310  ,5.111e+07   ,2.5  ,0.95055  ,4.9
311  ,2.419e+08   ,2.5  ,1.1476  ,4.9
312  ,4.412e+08   ,2.5  ,1.3447  ,4.9
313  ,5.580e+08   ,2.5  ,1.5418  ,4.9
314  ,1.057e+09   ,2.5  ,1.7389  ,4.9
315  ,1.519e+09   ,2.5  ,1.936  ,4.9
316  ,3.770e+04   ,2.5  ,-2.4  ,4.7
317  ,1.959e+05   ,2.5  ,-2.4  ,4.5
318  ,1.356e+05   ,2.5  ,-2.4  ,4.3
319  ,5.872e+04   ,2.5  ,-2.4  ,4.1
320  ,8.937e+04   ,2.5  ,-2.4  ,3.9
321  ,9.743e+04   ,2.5  ,-2.4  ,3.7
322  ,3.188e+04   ,2.5  ,-2.4  ,3.5
323  ,6.476e+04   ,2.5  ,-2.4  ,3.3
324  ,2.934e+04   ,2.5  ,-2.4  ,3.1
325  ,2.231e+04   ,2.5  ,-2.4  ,2.9
326  ,4.537e+04   ,2.5  ,-2.4  ,2.7
327  ,5.864e+04   ,2.5  ,-2.4  ,2.5
328  ,3.282e+04   ,2.5  ,-2.4  ,2.3
329  ,1.557e+04   ,2.5  ,-2.4  ,2.1
330  ,2.367e+04   ,2.5  ,-2.4  ,1.9
331  ,1.529e+04   ,2.5  ,-2.4  ,1.7
332  ,6.663e+03   ,2.5  ,-2.4  ,1.5
333  ,1.309e+04   ,2.5  ,-2.4  ,1.3
334  ,9.996e+03   ,2.5  ,-2.4  ,1.1
335  ,6.887e+03   ,2.5  ,-2.4  ,0.9
336  ,4.584e+03   ,2.5  ,-2.4  ,0.7
337  ,3.621e+03   ,2.5  ,-2.4  ,0.5
338  ,2.535e+03   ,2.5  ,-2.4  ,0.3
339  ,3.111e+03   ,2.5  ,-2.2  ,0.1
340  ,9.619e+03   ,2.5  ,-2  ,0.1
341  ,6.398e+04   ,2.5  ,-1.8  ,0.1
342  ,1.114e+05   ,2.5  ,-1.6  ,0.1
343  ,1.700e+05   ,2.5  ,-1.4  ,0.1
344  ,5.215e+05   ,2.5  ,-1.2  ,0.1
345  ,4.665e+05   ,2.5  ,-1  ,0.1
346  ,9.299e+05   ,2.5  ,-0.8  ,0.1
347  ,1.319e+06   ,2.5  ,-0.6  ,0.1
348  ,2.016e+06   ,2.5  ,-0.4  ,0.1
349  ,2.088e+06   ,2.5  ,-0.2  ,0.1
350  ,3.090e+06   ,2.5  ,-1.7664E-15  ,0.1
351  ,3.534e+06   ,2.5  ,0.2  ,0.1
352  ,2.868e+06   ,2.5  ,0.4  ,0.1
353  ,6.210e+06   ,2.5  ,0.6  ,0.1
354  ,7.944e+06   ,2.5  ,0.8  ,0.1
355  ,3.023e+06   ,2.5  ,1  ,0.1
356  ,4.480e+06   ,2.5  ,1.2  ,0.1
357  ,4.350e+06   ,2.5  ,1.4  ,0.1
358  ,4.699e+06   ,2.5  ,1.6  ,0.1
359  ,2.706e+06   ,2.5  ,1.8  ,0.1
360  ,2.156e+06   ,2.5  ,2  ,0.1
361  ,2.679e+06   ,2.5  ,2.2  ,0.1
362  ,1.439e+09   ,2.5  ,2.4  ,4.436
363  ,9.507e+08   ,2.5  ,2.4  ,4.2389
364  ,6.070e+08   ,2.5  ,2.4  ,4.0418
365  ,3.634e+08   ,2.5  ,2.4  ,3.8447
366  ,2.627e+08   ,2.5  ,2.4  ,3.6476
367  ,1.470e+08   ,2.5  ,2.4  ,3.4505
368  ,2.879e+08   ,2.5  ,2.4  ,3.2535
369  ,2.676e+08   ,2.5  ,2.4  ,3.0564
370  ,1.460e+08   ,2.5  ,2.4  ,2.8593
371  ,1.469e+08   ,2.5  ,2.4  ,2.6622
372  ,1.134e+08   ,2.5  ,2.4  ,2.4651
373  ,5.222e+07   ,2.5  ,2.4  ,2.268
374  ,1.038e+07   ,2.5  ,2.4  ,2.0709
375  ,4.389e+07   ,2.5  ,2.4  ,1.8738
376  ,5.328e+07   ,2.5  ,2.4  ,1.6767
377  ,1.856e+07   ,2.5  ,2.4  ,1.4796
378  ,4.388e+06   ,2.5  ,2.4  ,1.2825
379  ,9.668e+06   ,2.5  ,2.4  ,1.0855
380  ,9.471e+06   ,2.5  ,2.4  ,0.88836
381  ,5.261e+06   ,2.5  ,2.4  ,0.69127
382  ,2.148e+06   ,2.5  ,2.4  ,0.49418
383  ,2.626e+06   ,2.5  ,2.4  ,0.29709
384  ,2.051e+09   ,2.5  ,2.2665  ,4.7665
544  ,1.485e+06   ,2.2  ,2.5  ,0.1
545  ,1.590e+06   ,2  ,2.5  ,0.1
546  ,2.267e+06   ,1.8  ,2.5  ,0.1
547  ,3.003e+06   ,1.6  ,2.5  ,0.1
548  ,2.537e+06   ,1.4  ,2.5  ,0.1
549  ,2.845e+06   ,1.2  ,2.5  ,0.1
550  ,2.186e+06   ,1  ,2.5  ,0.1
551  ,5.323e+06   ,0.8  ,2.5  ,0.1
552  ,6.179e+06   ,0.6  ,2.5  ,0.1
553  ,2.539e+06   ,0.4  ,2.5  ,0.1
554  ,2.602e+06   ,0.2  ,2.5  ,0.1
555  ,1.908e+06   ,5.8879E-16  ,2.5  ,0.1
556  ,1.276e+06   ,-0.2  ,2.5  ,0.1
557  ,1.473e+06   ,-0.4  ,2.5  ,0.1
558  ,1.719e+06   ,-0.6  ,2.5  ,0.1
559  ,1.982e+06   ,-0.8  ,2.5  ,0.1
560  ,1.039e+06   ,-1  ,2.5  ,0.1
561  ,9.506e+05   ,-1.2  ,2.5  ,0.1
562  ,8.680e+05   ,-1.4  ,2.5  ,0.1
563  ,5.516e+05   ,-1.6  ,2.5  ,0.1
564  ,2.955e+05   ,-1.8  ,2.5  ,0.1
565  ,3.811e+05   ,-2  ,2.5  ,0.1
566  ,5.363e+05   ,-2.2  ,2.5  ,0.1
567  ,1.372e+06   ,-2.4  ,2.5  ,4.7
568  ,2.052e+06   ,-2.4  ,2.5  ,4.5
569  ,2.295e+06   ,-2.4  ,2.5  ,4.3
570  ,2.807e+06   ,-2.4  ,2.5  ,4.1
571  ,3.581e+06   ,-2.4  ,2.5  ,3.9
572  ,2.937e+06   ,-2.4  ,2.5  ,3.7
573  ,1.751e+06   ,-2.4  ,2.5  ,3.5
574  ,4.252e+06   ,-2.4  ,2.5  ,3.3
575  ,3.845e+06   ,-2.4  ,2.5  ,3.1
576  ,2.145e+06   ,-2.4  ,2.5  ,2.9
577  ,1.360e+06   ,-2.4  ,2.5  ,2.7
578  ,1.623e+06   ,-2.4  ,2.5  ,2.5
579  ,1.879e+06   ,-2.4  ,2.5  ,2.3
580  ,1.325e+06   ,-2.4  ,2.5  ,2.1
581  ,1.096e+06   ,-2.4  ,2.5  ,1.9
582  ,1.498e+06   ,-2.4  ,2.5  ,1.7
583  ,8.819e+05   ,-2.4  ,2.5  ,1.5
584  ,7.354e+05   ,-2.4  ,2.5  ,1.3
585  ,3.530e+05   ,-2.4  ,2.5  ,1.1
586  ,2.053e+05   ,-2.4  ,2.5  ,0.9
587  ,3.935e+05   ,-2.4  ,2.5  ,0.7
588  ,6.331e+05   ,-2.4  ,2.5  ,0.5
589  ,6.048e+05   ,-2.4  ,2.5  ,0.3
590  ,1.553e+09   ,1.936  ,2.5  ,4.9
591  ,7.043e+08   ,1.7389  ,2.5  ,4.9
592  ,5.577e+08   ,1.5418  ,2.5  ,4.9
593  ,4.441e+08   ,1.3447  ,2.5  ,4.9
594  ,1.630e+08   ,1.1476  ,2.5  ,4.9
595  ,1.601e+08   ,0.95055  ,2.5  ,4.9
596  ,2.925e+08   ,0.75346  ,2.5  ,4.9
597  ,2.612e+08   ,0.55637  ,2.5  ,4.9
598  ,1.446e+08   ,0.35927  ,2.5  ,4.9
599  ,1.481e+08   ,0.16218  ,2.5  ,4.9
600  ,1.256e+08   ,-0.034907  ,2.5  ,4.9
601  ,5.365e+07   ,-0.232  ,2.5  ,4.9
602  ,2.216e+07   ,-0.42909  ,2.5  ,4.9
603  ,4.675e+07   ,-0.62618  ,2.5  ,4.9
604  ,4.756e+07   ,-0.82327  ,2.5  ,4.9
605  ,1.679e+07   ,-1.0204  ,2.5  ,4.9
606  ,6.656e+06   ,-1.2175  ,2.5  ,4.9
607  ,9.354e+06   ,-1.4145  ,2.5  ,4.9
608  ,6.963e+06   ,-1.6116  ,2.5  ,4.9
609  ,3.200e+06   ,-1.8087  ,2.5  ,4.9
610  ,8.355e+05   ,-2.0058  ,2.5  ,4.9
611  ,7.800e+05   ,-2.2029  ,2.5  ,4.9
612  ,2.079e+09   ,2.2665  ,2.5  ,4.7665
613  ,1.447e+09   ,2.4  ,2.5  ,4.436
614  ,7.960e+08   ,2.4  ,2.5  ,4.2389
615  ,5.637e+08   ,2.4  ,2.5  ,4.0418
616  ,3.820e+08   ,2.4  ,2.5  ,3.8447
617  ,2.626e+08   ,2.4  ,2.5  ,3.6476
618  ,1.700e+08   ,2.4  ,2.5  ,3.4505
619  ,3.071e+08   ,2.4  ,2.5  ,3.2535
620  ,2.341e+08   ,2.4  ,2.5  ,3.0564
621  ,1.382e+08   ,2.4  ,2.5  ,2.8593
622  ,1.605e+08   ,2.4  ,2.5  ,2.6622
623  ,1.209e+08   ,2.4  ,2.5  ,2.4651
624  ,5.845e+07   ,2.4  ,2.5  ,2.268
625  ,9.754e+06   ,2.4  ,2.5  ,2.0709
626  ,4.528e+07   ,2.4  ,2.5  ,1.8738
627  ,5.546e+07   ,2.4  ,2.5  ,1.6767
628  ,1.740e+07   ,2.4  ,2.5  ,1.4796
629  ,5.076e+06   ,2.4  ,2.5  ,1.2825
630  ,1.022e+07   ,2.4  ,2.5  ,1.0855
631  ,1.037e+07   ,2.4  ,2.5  ,0.88836
632  ,6.618e+06   ,2.4  ,2.5  ,0.69127
633  ,2.134e+06   ,2.4  ,2.5  ,0.49418
634  ,1.712e+06   ,2.4  ,2.5  ,0.29709
796  ,4.551e+05   ,-2.5  ,2.2  ,0.1
797  ,1.931e+05   ,-2.5  ,2  ,0.1
798  ,9.328e+04   ,-2.5  ,1.8  ,0.1
799  ,6.314e+04   ,-2.5  ,1.6  ,0.1
800  ,5.697e+04   ,-2.5  ,1.4  ,0.1
801  ,5.012e+04   ,-2.5  ,1.2  ,0.1
802  ,2.630e+04   ,-2.5  ,1  ,0.1
803  ,9.431e+04   ,-2.5  ,0.8  ,0.1
804  ,3.831e+04   ,-2.5  ,0.6  ,0.1
805  ,3.050e+04   ,-2.5  ,0.4  ,0.1
806  ,2.837e+04   ,-2.5  ,0.2  ,0.1
807  ,1.686e+04   ,-2.5  ,5.8879E-16  ,0.1
808  ,8.114e+03   ,-2.5  ,-0.2  ,0.1
809  ,1.360e+04   ,-2.5  ,-0.4  ,0.1
810  ,4.713e+03   ,-2.5  ,-0.6  ,0.1
811  ,3.871e+03   ,-2.5  ,-0.8  ,0.1
812  ,2.794e+03   ,-2.5  ,-1  ,0.1
813  ,1.835e+03   ,-2.5  ,-1.2  ,0.1
814  ,8.181e+02   ,-2.5  ,-1.4  ,0.1
815  ,2.735e+02   ,-2.5  ,-1.6  ,0.1
816  ,9.451e+01   ,-2.5  ,-1.8  ,0.1
817  ,5.360e+01   ,-2.5  ,-2  ,0.1
818  ,7.519e+00   ,-2.5  ,-2.2  ,0.1
819  ,1.266e+03   ,-2.5  ,-2.4  ,4.7
820  ,7.244e+02   ,-2.5  ,-2.4  ,4.5
821  ,6.509e+02   ,-2.5  ,-2.4  ,4.3
822  ,3.675e+02   ,-2.5  ,-2.4  ,4.1
823  ,2.768e+02   ,-2.5  ,-2.4  ,3.9
824  ,2.883e+02   ,-2.5  ,-2.4  ,3.7
825  ,1.364e+02   ,-2.5  ,-2.4  ,3.5
826  ,8.543e+01   ,-2.5  ,-2.4  ,3.3
827  ,3.229e+01   ,-2.5  ,-2.4  ,3.1
828  ,3.797e+01   ,-2.5  ,-2.4  ,2.9
829  ,3.247e+01   ,-2.5  ,-2.4  ,2.7
830  ,1.279e+01   ,-2.5  ,-2.4  ,2.5
831  ,1.347e+01   ,-2.5  ,-2.4  ,2.3
832  ,1.808e+01   ,-2.5  ,-2.4  ,2.1
833  ,1.414e+01   ,-2.5  ,-2.4  ,1.9
834  ,8.892e+00   ,-2.5  ,-2.4  ,1.7
835  ,1.421e+01   ,-2.5  ,-2.4  ,1.5
836  ,1.226e+01   ,-2.5  ,-2.4  ,1.3
837  ,7.155e+00   ,-2.5  ,-2.4  ,1.1
838  ,9.079e+00   ,-2.5  ,-2.4  ,0.9
839  ,7.416e+00   ,-2.5  ,-2.4  ,0.7
840  ,1.822e+01   ,-2.5  ,-2.4  ,0.5
841  ,5.741e+00   ,-2.5  ,-2.4  ,0.3
842  ,1.227e+06   ,-2.5  ,2.2  ,4.9
843  ,1.407e+06   ,-2.5  ,2  ,4.9
844  ,1.359e+06   ,-2.5  ,1.8  ,4.9
845  ,1.140e+06   ,-2.5  ,1.6  ,4.9
846  ,1.062e+06   ,-2.5  ,1.4  ,4.9
847  ,1.081e+06   ,-2.5  ,1.2  ,4.9
848  ,9.439e+05   ,-2.5  ,1  ,4.9
849  ,1.015e+06   ,-2.5  ,0.8  ,4.9
850  ,9.792e+05   ,-2.5  ,0.6  ,4.9
851  ,6.728e+05   ,-2.5  ,0.4  ,4.9
852  ,5.294e+05   ,-2.5  ,0.2  ,4.9
853  ,8.545e+05   ,-2.5  ,5.8879E-16  ,4.9
854  ,4.511e+05   ,-2.5  ,-0.2  ,4.9
855  ,9.231e+05   ,-2.5  ,-0.4  ,4.9
856  ,8.437e+05   ,-2.5  ,-0.6  ,4.9
857  ,3.223e+05   ,-2.5  ,-0.8  ,4.9
858  ,2.167e+05   ,-2.5  ,-1  ,4.9
859  ,2.276e+05   ,-2.5  ,-1.2  ,4.9
860  ,1.297e+05   ,-2.5  ,-1.4  ,4.9
861  ,1.026e+05   ,-2.5  ,-1.6  ,4.9
862  ,3.800e+04   ,-2.5  ,-1.8  ,4.9
863  ,1.914e+04   ,-2.5  ,-2  ,4.9
864  ,5.227e+03   ,-2.5  ,-2.2  ,4.9
865  ,1.765e+06   ,-2.5  ,2.4  ,4.7
866  ,1.343e+06   ,-2.5  ,2.4  ,4.5
867  ,1.999e+06   ,-2.5  ,2.4  ,4.3
868  ,2.540e+06   ,-2.5  ,2.4  ,4.1
869  ,3.828e+06   ,-2.5  ,2.4  ,3.9
870  ,4.346e+06   ,-2.5  ,2.4  ,3.7
871  ,3.929e+06   ,-2.5  ,2.4  ,3.5
872  ,5.299e+06   ,-2.5  ,2.4  ,3.3
873  ,4.422e+06   ,-2.5  ,2.4  ,3.1
874  ,3.120e+06   ,-2.5  ,2.4  ,2.9
875  ,1.639e+06   ,-2.5  ,2.4  ,2.7
876  ,1.048e+06   ,-2.5  ,2.4  ,2.5
877  ,1.210e+06   ,-2.5  ,2.4  ,2.3
878  ,1.627e+06   ,-2.5  ,2.4  ,2.1
879  ,1.301e+06   ,-2.5  ,2.4  ,1.9
880  ,9.758e+05   ,-2.5  ,2.4  ,1.7
881  ,9.168e+05   ,-2.5  ,2.4  ,1.5
882  ,6.152e+05   ,-2.5  ,2.4  ,1.3
883  ,3.230e+05   ,-2.5  ,2.4  ,1.1
884  ,1.479e+05   ,-2.5  ,2.4  ,0.9
885  ,2.326e+05   ,-2.5  ,2.4  ,0.7
886  ,2.116e+05   ,-2.5  ,2.4  ,0.5
887  ,9.307e+04   ,-2.5  ,2.4  ,0.3
1044  ,9.655e+00   ,-2.3  ,-2.5  ,0.44697
1045  ,1.216e+01   ,-2.3  ,-2.5  ,0.68705
1046  ,3.188e+00   ,-2.3  ,-2.5  ,0.92554
1047  ,8.512e+00   ,-2.3  ,-2.5  ,1.1682
1048  ,1.381e+01   ,-2.3  ,-2.5  ,1.4148
1049  ,6.500e+00   ,-2.3  ,-2.5  ,1.6581
1050  ,4.362e+00   ,-2.3  ,-2.5  ,1.8967
1051  ,7.522e+00   ,-2.3  ,-2.5  ,2.1357
1052  ,6.784e+00   ,-2.3  ,-2.5  ,2.3794
1053  ,1.912e+01   ,-2.3  ,-2.5  ,2.6206
1054  ,1.987e+01   ,-2.3  ,-2.5  ,2.8643
1055  ,2.043e+01   ,-2.3  ,-2.5  ,3.1033
1056  ,1.972e+01   ,-2.3  ,-2.5  ,3.342
1057  ,1.417e+02   ,-2.3  ,-2.5  ,3.5852
1058  ,1.521e+02   ,-2.3  ,-2.5  ,3.8318
1059  ,1.191e+02   ,-2.3  ,-2.5  ,4.0745
1060  ,3.564e+02   ,-2.3  ,-2.5  ,4.3129
1061  ,5.728e+02   ,-2.3  ,-2.5  ,4.553
1062  ,2.537e+03   ,-2.053  ,-2.5  ,4.8
1063  ,5.478e+03   ,-1.8129  ,-2.5  ,4.8
1064  ,4.725e+03   ,-1.5745  ,-2.5  ,4.8
1065  ,7.736e+03   ,-1.3318  ,-2.5  ,4.8
1066  ,6.079e+03   ,-1.0852  ,-2.5  ,4.8
1067  ,7.910e+03   ,-0.84195  ,-2.5  ,4.8
1068  ,3.339e+04   ,-0.60329  ,-2.5  ,4.8
1069  ,2.933e+04   ,-0.3643  ,-2.5  ,4.8
1070  ,1.675e+04   ,-0.12055  ,-2.5  ,4.8
1071  ,2.256e+04   ,0.12056  ,-2.5  ,4.8
1072  ,1.555e+04   ,0.3643  ,-2.5  ,4.8
1073  ,1.839e+04   ,0.6033  ,-2.5  ,4.8
1074  ,2.364e+04   ,0.84195  ,-2.5  ,4.8
1075  ,7.282e+04   ,1.0852  ,-2.5  ,4.8
1076  ,4.602e+04   ,1.3318  ,-2.5  ,4.8
1077  ,2.578e+04   ,1.5745  ,-2.5  ,4.8
1078  ,2.984e+05   ,1.8129  ,-2.5  ,4.8
1079  ,1.399e+05   ,2.053  ,-2.5  ,4.8
1080  ,1.366e+05   ,2.3  ,-2.5  ,4.553
1081  ,1.462e+05   ,2.3  ,-2.5  ,4.3129
1082  ,6.864e+04   ,2.3  ,-2.5  ,4.0745
1083  ,7.690e+04   ,2.3  ,-2.5  ,3.8318
1084  ,5.981e+04   ,2.3  ,-2.5  ,3.5852
1085  ,3.620e+04   ,2.3  ,-2.5  ,3.3419
1086  ,2.535e+04   ,2.3  ,-2.5  ,3.1033
1087  ,1.165e+04   ,2.3  ,-2.5  ,2.8643
1088  ,1.909e+04   ,2.3  ,-2.5  ,2.6206
1089  ,1.328e+04   ,2.3  ,-2.5  ,2.3794
1090  ,1.079e+04   ,2.3  ,-2.5  ,2.1357
1091  ,1.903e+04   ,2.3  ,-2.5  ,1.8967
1092  ,4.275e+03   ,2.3  ,-2.5  ,1.658
1093  ,1.023e+04   ,2.3  ,-2.5  ,1.4148
1094  ,7.715e+03   ,2.3  ,-2.5  ,1.1682
1095  ,6.180e+03   ,2.3  ,-2.5  ,0.92554
1096  ,2.547e+03   ,2.3  ,-2.5  ,0.68705
1097  ,1.638e+03   ,2.3  ,-2.5  ,0.44697
1098  ,2.418e+00   ,-2.053  ,-2.5  ,0.2
1099  ,2.396e+00   ,-1.8129  ,-2.5  ,0.2
1100  ,3.036e+00   ,-1.5745  ,-2.5  ,0.2
1101  ,3.544e+01   ,-1.3318  ,-2.5  ,0.2
1102  ,3.331e+01   ,-1.0852  ,-2.5  ,0.2
1103  ,1.482e+02   ,-0.84195  ,-2.5  ,0.2
1104  ,6.449e+02   ,-0.60329  ,-2.5  ,0.2
1105  ,4.243e+02   ,-0.3643  ,-2.5  ,0.2
1106  ,2.502e+02   ,-0.12055  ,-2.5  ,0.2
1107  ,2.480e+02   ,0.12056  ,-2.5  ,0.2
1108  ,2.554e+02   ,0.3643  ,-2.5  ,0.2
1109  ,2.509e+02   ,0.6033  ,-2.5  ,0.2
1110  ,5.117e+01   ,0.84195  ,-2.5  ,0.2
1111  ,1.583e+02   ,1.0852  ,-2.5  ,0.2
1112  ,4.668e+02   ,1.3318  ,-2.5  ,0.2
1113  ,5.281e+02   ,1.5745  ,-2.5  ,0.2
1114  ,2.029e+03   ,1.8129  ,-2.5  ,0.2
1115  ,1.267e+03   ,2.053  ,-2.5  ,0.2
1116  ,1.671e+03   ,-2.2  ,-2.5  ,4.9
1117  ,3.478e+03   ,-2  ,-2.5  ,4.9
1118  ,2.071e+03   ,-1.8  ,-2.5  ,4.9
1119  ,2.716e+03   ,-1.6  ,-2.5  ,4.9
1120  ,4.541e+03   ,-1.4  ,-2.5  ,4.9
1121  ,4.672e+03   ,-1.2  ,-2.5  ,4.9
1122  ,4.411e+03   ,-1  ,-2.5  ,4.9
1123  ,1.273e+04   ,-0.8  ,-2.5  ,4.9
1124  ,1.886e+04   ,-0.6  ,-2.5  ,4.9
1125  ,2.109e+04   ,-0.4  ,-2.5  ,4.9
1126  ,3.822e+04   ,-0.2  ,-2.5  ,4.9
1127  ,3.799e+04   ,-1.7664E-15  ,-2.5  ,4.9
1128  ,2.406e+04   ,0.2  ,-2.5  ,4.9
1129  ,1.501e+04   ,0.4  ,-2.5  ,4.9
1130  ,1.808e+04   ,0.6  ,-2.5  ,4.9
1131  ,2.212e+04   ,0.8  ,-2.5  ,4.9
1132  ,5.773e+04   ,1  ,-2.5  ,4.9
1133  ,4.243e+04   ,1.2  ,-2.5  ,4.9
1134  ,9.542e+04   ,1.4  ,-2.5  ,4.9
1135  ,1.203e+05   ,1.6  ,-2.5  ,4.9
1136  ,1.912e+05   ,1.8  ,-2.5  ,4.9
1137  ,1.671e+05   ,2  ,-2.5  ,4.9
1138  ,4.951e+04   ,2.2  ,-2.5  ,4.9
1139  ,8.191e+02   ,-2.4  ,-2.5  ,4.7
1140  ,3.413e+02   ,-2.4  ,-2.5  ,4.5
1141  ,4.320e+02   ,-2.4  ,-2.5  ,4.3
1142  ,2.232e+02   ,-2.4  ,-2.5  ,4.1
1143  ,1.481e+02   ,-2.4  ,-2.5  ,3.9
1144  ,1.523e+02   ,-2.4  ,-2.5  ,3.7
1145  ,8.245e+01   ,-2.4  ,-2.5  ,3.5
1146  ,4.535e+01   ,-2.4  ,-2.5  ,3.3
1147  ,1.784e+01   ,-2.4  ,-2.5  ,3.1
1148  ,1.937e+01   ,-2.4  ,-2.5  ,2.9
1149  ,1.076e+01   ,-2.4  ,-2.5  ,2.7
1150  ,6.915e+00   ,-2.4  ,-2.5  ,2.5
1151  ,6.013e+00   ,-2.4  ,-2.5  ,2.3
1152  ,8.227e+00   ,-2.4  ,-2.5  ,2.1
1153  ,3.954e+00   ,-2.4  ,-2.5  ,1.9
1154  ,3.938e+00   ,-2.4  ,-2.5  ,1.7
1155  ,1.007e+01   ,-2.4  ,-2.5  ,1.5
1156  ,5.649e+00   ,-2.4  ,-2.5  ,1.3
1157  ,7.106e+00   ,-2.4  ,-2.5  ,1.1
1158  ,4.085e+00   ,-2.4  ,-2.5  ,0.9
1159  ,6.223e+00   ,-2.4  ,-2.5  ,0.7
1160  ,1.420e+01   ,-2.4  ,-2.5  ,0.5
1161  ,2.782e+00   ,-2.4  ,-2.5  ,0.3
1162  ,2.752e+00   ,-2.2  ,-2.5  ,0.1
1163  ,9.178e-01   ,-2  ,-2.5  ,0.1
1164  ,9.938e-01   ,-1.8  ,-2.5  ,0.1
1165  ,3.959e+00   ,-1.6  ,-2.5  ,0.1
1166  ,1.483e+01   ,-1.4  ,-2.5  ,0.1
1167  ,2.443e+01   ,-1.2  ,-2.5  ,0.1
1168  ,7.000e+01   ,-1  ,-2.5  ,0.1
1169  ,2.041e+02   ,-0.8  ,-2.5  ,0.1
1170  ,3.368e+02   ,-0.6  ,-2.5  ,0.1
1171  ,2.674e+02   ,-0.4  ,-2.5  ,0.1
1172  ,4.731e+02   ,-0.2  ,-2.5  ,0.1
1173  ,3.650e+02   ,-1.7664E-15  ,-2.5  ,0.1
1174  ,2.593e+02   ,0.2  ,-2.5  ,0.1
1175  ,2.697e+02   ,0.4  ,-2.5  ,0.1
1176  ,1.459e+02   ,0.6  ,-2.5  ,0.1
1177  ,1.042e+02   ,0.8  ,-2.5  ,0.1
1178  ,8.792e+01   ,1  ,-2.5  ,0.1
1179  ,2.697e+02   ,1.2  ,-2.5  ,0.1
1180  ,4.114e+02   ,1.4  ,-2.5  ,0.1
1181  ,3.771e+02   ,1.6  ,-2.5  ,0.1
1182  ,1.057e+03   ,1.8  ,-2.5  ,0.1
1183  ,7.520e+02   ,2  ,-2.5  ,0.1
1184  ,1.022e+03   ,2.2  ,-2.5  ,0.1
1185  ,6.345e+04   ,2.4  ,-2.5  ,4.7
1186  ,1.667e+05   ,2.4  ,-2.5  ,4.5
1187  ,1.351e+05   ,2.4  ,-2.5  ,4.3
1188  ,7.452e+04   ,2.4  ,-2.5  ,4.1
1189  ,5.700e+04   ,2.4  ,-2.5  ,3.9
1190  ,3.971e+04   ,2.4  ,-2.5  ,3.7
1191  ,4.184e+04   ,2.4  ,-2.5  ,3.5
1192  ,3.887e+04   ,2.4  ,-2.5  ,3.3
1193  ,2.302e+04   ,2.4  ,-2.5  ,3.1
1194  ,1.405e+04   ,2.4  ,-2.5  ,2.9
1195  ,2.480e+04   ,2.4  ,-2.5  ,2.7
1196  ,3.033e+04   ,2.4  ,-2.5  ,2.5
1197  ,2.637e+04   ,2.4  ,-2.5  ,2.3
1198  ,1.447e+04   ,2.4  ,-2.5  ,2.1
1199  ,1.766e+04   ,2.4  ,-2.5  ,1.9
1200  ,1.100e+04   ,2.4  ,-2.5  ,1.7
1201  ,4.290e+03   ,2.4  ,-2.5  ,1.5
1202  ,4.874e+03   ,2.4  ,-2.5  ,1.3
1203  ,7.670e+03   ,2.4  ,-2.5  ,1.1
1204  ,4.126e+03   ,2.4  ,-2.5  ,0.9
1205  ,2.892e+03   ,2.4  ,-2.5  ,0.7
1206  ,1.568e+03   ,2.4  ,-2.5  ,0.5
1207  ,9.862e+02   ,2.4  ,-2.5  ,0.3
1208  ,3.616e+03   ,2.4  ,-2.2  ,0
1209  ,1.349e+04   ,2.4  ,-2  ,0
1210  ,2.311e+04   ,2.4  ,-1.8  ,0
1211  ,8.727e+04   ,2.4  ,-1.6  ,0
1212  ,1.170e+05   ,2.4  ,-1.4  ,0
1213  ,3.956e+05   ,2.4  ,-1.2  ,0
1214  ,3.201e+05   ,2.4  ,-1  ,0
1215  ,8.618e+05   ,2.4  ,-0.8  ,0
1216  ,1.565e+06   ,2.4  ,-0.6  ,0
1217  ,1.528e+06   ,2.4  ,-0.4  ,0
1218  ,2.691e+06   ,2.4  ,-0.2  ,0
1219  ,2.801e+06   ,2.4  ,-1.7664E-15  ,0
1220  ,2.506e+06   ,2.4  ,0.2  ,0
1221  ,3.048e+06   ,2.4  ,0.4  ,0
1222  ,5.922e+06   ,2.4  ,0.6  ,0
1223  ,8.415e+06   ,2.4  ,0.8  ,0
1224  ,7.127e+06   ,2.4  ,1  ,0
1225  ,5.955e+06   ,2.4  ,1.2  ,0
1226  ,4.204e+06   ,2.4  ,1.4  ,0
1227  ,2.363e+06   ,2.4  ,1.6  ,0
1228  ,1.945e+06   ,2.4  ,1.8  ,0
1229  ,1.572e+06   ,2.4  ,2  ,0
1230  ,2.605e+06   ,2.4  ,2.2  ,0
1231  ,1.469e+00   ,-2.2  ,-2.4  ,0
1232  ,1.426e+00   ,-2  ,-2.4  ,0
1233  ,2.606e+00   ,-1.8  ,-2.4  ,0
1234  ,8.092e+00   ,-1.6  ,-2.4  ,0
1235  ,1.753e+01   ,-1.4  ,-2.4  ,0
1236  ,9.978e+01   ,-1.2  ,-2.4  ,0
1237  ,1.463e+02   ,-1  ,-2.4  ,0
1238  ,3.320e+02   ,-0.8  ,-2.4  ,0
1239  ,4.264e+02   ,-0.6  ,-2.4  ,0
1240  ,5.094e+02   ,-0.4  ,-2.4  ,0
1241  ,5.906e+02   ,-0.2  ,-2.4  ,0
1242  ,7.467e+02   ,5.8879E-16  ,-2.4  ,0
1243  ,4.571e+02   ,0.2  ,-2.4  ,0
1244  ,2.731e+02   ,0.4  ,-2.4  ,0
1245  ,2.807e+02   ,0.6  ,-2.4  ,0
1246  ,1.363e+02   ,0.8  ,-2.4  ,0
1247  ,1.863e+02   ,1  ,-2.4  ,0
1248  ,5.015e+02   ,1.2  ,-2.4  ,0
1249  ,4.634e+02   ,1.4  ,-2.4  ,0
1250  ,6.614e+02   ,1.6  ,-2.4  ,0
1251  ,1.621e+03   ,1.8  ,-2.4  ,0
1252  ,8.567e+02   ,2  ,-2.4  ,0
1253  ,9.019e+02   ,2.2  ,-2.4  ,0
1254  ,4.089e+05   ,-2.4  ,2.2  ,0
1255  ,2.421e+05   ,-2.4  ,2  ,0
1256  ,7.964e+04   ,-2.4  ,1.8  ,0
1257  ,1.093e+05   ,-2.4  ,1.6  ,0
1258  ,6.666e+04   ,-2.4  ,1.4  ,0
1259  ,6.386e+04   ,-2.4  ,1.2  ,0
1260  ,3.994e+04   ,-2.4  ,1  ,0
1261  ,9.578e+04   ,-2.4  ,0.8  ,0
1262  ,5.003e+04   ,-2.4  ,0.6  ,0
1263  ,2.268e+04   ,-2.4  ,0.4  ,0
1264  ,2.475e+04   ,-2.4  ,0.2  ,0
1265  ,1.637e+04   ,-2.4  ,5.8879E-16  ,0
1266  ,2.884e+03   ,-2.4  ,-0.2  ,0
1267  ,1.612e+04   ,-2.4  ,-0.4  ,0
1268  ,3.430e+03   ,-2.4  ,-0.6  ,0
1269  ,4.493e+03   ,-2.4  ,-0.8  ,0
1270  ,2.122e+03   ,-2.4  ,-1  ,0
1271  ,1.750e+03   ,-2.4  ,-1.2  ,0
1272  ,5.364e+02   ,-2.4  ,-1.4  ,0
1273  ,2.347e+02   ,-2.4  ,-1.6  ,0
1274  ,8.352e+01   ,-2.4  ,-1.8  ,0
1275  ,5.424e+01   ,-2.4  ,-2  ,0
1276  ,6.586e+00   ,-2.4  ,-2.2  ,0
1277  ,1.904e+06   ,2.2  ,2.4  ,0
1278  ,1.448e+06   ,2  ,2.4  ,0
1279  ,1.883e+06   ,1.8  ,2.4  ,0
1280  ,2.530e+06   ,1.6  ,2.4  ,0
1281  ,2.741e+06   ,1.4  ,2.4  ,0
1282  ,4.736e+06   ,1.2  ,2.4  ,0
1283  ,5.834e+06   ,1  ,2.4  ,0
1284  ,7.384e+06   ,0.8  ,2.4  ,0
1285  ,7.743e+06   ,0.6  ,2.4  ,0
1286  ,4.206e+06   ,0.4  ,2.4  ,0
1287  ,2.114e+06   ,0.2  ,2.4  ,0
1288  ,2.115e+06   ,5.8879E-16  ,2.4  ,0
1289  ,2.067e+06   ,-0.2  ,2.4  ,0
1290  ,1.767e+06   ,-0.4  ,2.4  ,0
1291  ,1.875e+06   ,-0.6  ,2.4  ,0
1292  ,1.442e+06   ,-0.8  ,2.4  ,0
1293  ,1.420e+06   ,-1  ,2.4  ,0
1294  ,1.139e+06   ,-1.2  ,2.4  ,0
1295  ,5.768e+05   ,-1.4  ,2.4  ,0
1296  ,2.410e+05   ,-1.6  ,2.4  ,0
1297  ,3.887e+05   ,-1.8  ,2.4  ,0
1298  ,2.800e+05   ,-2  ,2.4  ,0
1299  ,2.008e+05   ,-2.2  ,2.4  ,0
1460  ,2.643e+09   ,2.3243  ,2.3243  ,4.9577
1461  ,2.475e+09   ,2.4577  ,2.3243  ,4.8243
1462  ,1.665e+09   ,2.3243  ,2.4577  ,4.8243
1463  ,2.267e+03   ,-2.3  ,-2.1759  ,4.8
1464  ,9.054e+04   ,-2.3  ,-1.7631  ,4.8
1465  ,2.934e+05   ,-2.3  ,-1.1827  ,4.8
1466  ,1.044e+06   ,-2.3  ,-0.34986  ,4.8
1467  ,1.445e+06   ,-2.3  ,0.80545  ,4.8
1468  ,3.019e+07   ,-0.81337  ,2.3  ,4.8
1469  ,3.271e+08   ,0.67326  ,2.3  ,4.8
1470  ,2.550e+05   ,2.3  ,-2.1824  ,4.8
1471  ,1.754e+06   ,2.3  ,-1.7784  ,4.8
1472  ,9.903e+06   ,2.3  ,-1.2138  ,4.8
1473  ,3.647e+07   ,2.3  ,-0.40752  ,4.8
1474  ,3.507e+08   ,2.3  ,0.70532  ,4.8
1516  ,2.835e+07   ,2.3  ,2.3  ,1.6866
1517  ,3.379e+08   ,2.3  ,2.3  ,3.1733
1518  ,2.279e+03   ,2.3  ,-2.1759  ,0.2
1519  ,7.595e+04   ,2.3  ,-1.7631  ,0.2
1520  ,3.072e+05   ,2.3  ,-1.1827  ,0.2
1521  ,1.300e+06   ,2.3  ,-0.34986  ,0.2
1522  ,1.837e+06   ,2.3  ,0.80545  ,0.2
1564  ,9.301e+05   ,-0.76667  ,2.3  ,0.2
1565  ,1.755e+06   ,0.76667  ,2.3  ,0.2
1566  ,2.280e+05   ,-2.3  ,2.3  ,1.7333
1567  ,1.616e+06   ,-2.3  ,2.3  ,3.2667
1574  ,1.352e+01   ,-2.3  ,-2.1759  ,0.2
1575  ,2.122e+02   ,-2.3  ,-1.7631  ,0.2
1576  ,1.626e+03   ,-2.3  ,-1.1827  ,0.2
1577  ,1.153e+04   ,-2.3  ,-0.34986  ,0.2
1578  ,1.168e+05   ,-2.3  ,0.80545  ,0.2
1777  ,3.590e+07   ,-0.52764  ,2.5  ,4.9
1801  ,1.517e+05   ,-2.3  ,1.5527  ,0.2
1825  ,3.609e+05   ,-1.5333  ,2.3  ,0.2
1841  ,1.459e+08   ,0.063638  ,2.5  ,4.9
1876  ,1.629e+06   ,-0.5  ,2.4  ,0
1894  ,2.394e+06   ,2.3  ,1.5527  ,0.2
1907  ,1.374e+06   ,2.1  ,2.5  ,0.1
1928  ,1.757e+06   ,1.9  ,2.4  ,0
1974  ,6.749e+06   ,2.4  ,1.1  ,0
1981  ,4.199e+06   ,2.4  ,2.5  ,0.59273
1987  ,3.446e+06   ,-2.5  ,2.4  ,4
2004  ,1.667e+06   ,-2.4  ,2.5  ,4.6
2009  ,5.027e+06   ,2.4  ,1.3  ,0
2020  ,3.397e+06   ,2.5  ,1.1  ,0.1
2035  ,4.171e+03   ,-2.3  ,-0.76628  ,0.2
2070  ,6.474e+08   ,1.6404  ,2.4  ,5
2081  ,2.680e+07   ,2.4  ,2.5  ,1.9724
2095  ,8.359e+06   ,2.4  ,2.5  ,0.78982
2138  ,8.956e+03   ,-2.4  ,-0.1  ,0
2146  ,3.179e+07   ,-0.92182  ,2.4  ,5
2174  ,8.265e+06   ,2.4  ,2.5  ,1.184
2190  ,1.067e+07   ,2.5  ,2.4  ,0.98691
2203  ,7.672e+07   ,2.5  ,-0.13345  ,4.9
2232  ,1.058e+08   ,2.3  ,0.1489  ,4.8
2242  ,1.603e+08   ,2.4  ,2.5  ,2.9578
2293  ,3.064e+04   ,-2.5  ,0.5  ,0.1
2311  ,5.228e+07   ,2.3  ,2.3  ,2.4299
2313  ,7.525e+06   ,2.5  ,2.4  ,0.78982
2329  ,2.523e+07   ,2.4  ,2.5  ,2.1695
2355  ,2.087e+06   ,-2.4  ,2.5  ,4.4
2380  ,3.003e+02   ,-2.5  ,-1.5  ,0.1
2383  ,1.962e+08   ,0.45782  ,2.5  ,4.9
2408  ,1.463e+06   ,2.3  ,-1.4961  ,4.8
2445  ,3.693e+06   ,2.5  ,-1.5131  ,4.9
2484  ,1.234e+01   ,-2.5  ,-2.4  ,1.6
2495  ,1.061e+06   ,-2.4  ,1.7  ,5
2508  ,2.333e+06   ,2.4  ,0.3  ,0
2514  ,2.138e+06   ,2.3  ,0.2278  ,0.2
2570  ,1.342e+06   ,-2.4  ,1.5  ,5
2580  ,6.720e+08   ,1.6404  ,2.5  ,4.9
2603  ,7.868e+06   ,-1.1189  ,2.5  ,4.9
2695  ,3.084e+06   ,2.3  ,2.3  ,0.94331
2705  ,4.663e+06   ,2.4  ,2.5  ,1.3811
2714  ,1.884e+08   ,2.5  ,0.45782  ,4.9
2734  ,4.227e+05   ,2.4  ,-0.9  ,0
2775  ,2.246e+06   ,2.5  ,-0.1  ,0.1
2779  ,2.581e+06   ,2.4  ,-0.1  ,0
2801  ,1.112e+09   ,1.4166  ,2.3  ,4.8
2814  ,4.960e+08   ,1.4433  ,2.5  ,4.9
2863  ,5.493e+05   ,-2.4  ,2.5  ,0.6
2884  ,2.960e+05   ,-2.4  ,2.5  ,0.8
2886  ,5.117e+05   ,-2.4  ,2.5  ,1.2
2967  ,1.535e+06   ,2.4  ,1.7  ,0
2973  ,4.418e+06   ,2.5  ,1.5  ,0.1
2987  ,1.324e+06   ,-0.3  ,2.5  ,0.1
3008  ,4.325e+05   ,-2.3  ,2.3  ,0.96667
3012  ,1.232e+06   ,-2.5  ,2.4  ,2.6
3021  ,2.341e+06   ,-2.5  ,2.4  ,2.8
3025  ,1.251e+06   ,-2.5  ,2.4  ,2.4
3030  ,1.794e+06   ,-2.4  ,2.5  ,2.4
3033  ,1.579e+06   ,-2.4  ,2.5  ,2.2
3047  ,9.349e+07   ,2.4  ,2.5  ,2.3665
3052  ,1.433e+08   ,2.5  ,2.4  ,2.5636
3061  ,1.460e+08   ,2.4  ,2.5  ,2.5636
3081  ,1.520e+06   ,-2.4  ,1.3  ,5
3088  ,2.429e+06   ,-1.9073  ,2.4  ,5
3099  ,6.859e+05   ,-2.4  ,1.9  ,5
3107  ,3.285e+06   ,-2.4  ,2.5  ,3.8
3139  ,9.746e+06   ,-1.5131  ,2.4  ,5
3145  ,8.766e+06   ,-1.5131  ,2.5  ,4.9
3148  ,4.612e+06   ,-1.7102  ,2.5  ,4.9
3168  ,8.966e+04   ,-2.4  ,1.5  ,0
3188  ,9.037e+00   ,-2.5  ,-2.4  ,1
3202  ,1.351e+08   ,0.26073  ,2.5  ,4.9
3212  ,7.149e+08   ,2.5  ,1.6404  ,4.9
3247  ,1.256e+09   ,2.5  ,1.8375  ,4.9
3265  ,1.159e+09   ,2.3  ,1.4326  ,4.8
3271  ,2.298e+09   ,2.2299  ,2.2299  ,4.8
3284  ,5.041e+08   ,2.4  ,1.4433  ,5
3291  ,4.694e+08   ,2.5  ,1.4433  ,4.9
3296  ,3.318e+05   ,-2.3  ,-0.76628  ,4.8
3303  ,1.662e+05   ,-2.4  ,-0.9  ,5
3311  ,5.736e+05   ,-2.4  ,-0.7  ,5
3315  ,1.916e+06   ,1.9  ,2.5  ,0.1
3336  ,2.616e+04   ,-2.4  ,0.3  ,0
3340  ,2.199e+04   ,-2.5  ,0.1  ,0.1
3344  ,2.091e+04   ,-2.4  ,0.1  ,0
3356  ,2.064e+06   ,-0.3  ,2.4  ,0
3361  ,2.270e+07   ,-0.33054  ,2.5  ,4.9
3364  ,8.822e+07   ,-0.13345  ,2.5  ,4.9
3383  ,1.801e+08   ,2.4  ,2.5  ,3.5491
3402  ,1.800e+09   ,2.4  ,2.5  ,4.5345
3421  ,9.483e+06   ,-1.316  ,2.5  ,4.9
3439  ,4.387e+08   ,2.5  ,2.4  ,3.9433
3447  ,4.613e+08   ,2.4  ,2.5  ,3.9433
3451  ,3.528e+08   ,2.4  ,2.5  ,3.7462
3468  ,5.125e+08   ,1.4433  ,2.4  ,5
3480  ,1.418e+08   ,1.0491  ,2.4  ,5
3519  ,2.614e+06   ,1.5  ,2.4  ,0
3527  ,1.548e+05   ,2.3  ,-1.4729  ,0.2
3550  ,3.516e+05   ,-1.7  ,2.4  ,0
3554  ,3.469e+05   ,-1.7  ,2.5  ,0.1
3558  ,4.536e+05   ,-1.5  ,2.4  ,0
3562  ,7.482e+05   ,-1.5  ,2.5  ,0.1
3574  ,8.256e+05   ,-2.4  ,2.1  ,5
3581  ,9.813e+04   ,-2.5  ,1.7  ,0.1
3583  ,1.239e+05   ,-2.5  ,1.9  ,0.1
3584  ,1.468e+06   ,-1.9073  ,2.5  ,4.9
3591  ,3.245e+06   ,2.5  ,0.3  ,0.1
3595  ,3.695e+06   ,2.5  ,0.1  ,0.1
3603  ,3.904e+09   ,2.4577  ,2.391  ,4.7576
3663  ,2.161e+00   ,-1.933  ,-2.5  ,0.2
3669  ,2.649e+00   ,-2.1765  ,-2.5  ,0.2
3672  ,4.394e+00   ,-2.3  ,-2.3379  ,0.2
3682  ,1.842e+00   ,-1.9  ,-2.4  ,0
3700  ,2.482e+04   ,2.3  ,-2.5  ,2.7424
3712  ,1.744e+03   ,-2.1  ,-2.5  ,4.9
3715  ,1.757e+03   ,-1.9  ,-2.5  ,4.9
3740  ,5.369e+03   ,-1.3  ,-2.4  ,5
3746  ,6.866e+03   ,-1.2085  ,-2.5  ,4.8
3755  ,4.532e+03   ,-1.5  ,-2.4  ,5
3760  ,2.364e+03   ,-1.7  ,-2.5  ,4.9
3786  ,3.826e+07   ,2.4  ,2.5  ,1.5782
3813  ,1.437e+08   ,0.26073  ,2.4  ,5
3858  ,9.162e+03   ,-0.9  ,-2.4  ,5
3863  ,9.987e+05   ,-2.5  ,0.9  ,4.9
3875  ,1.888e+03   ,-1.9  ,-2.4  ,5
3885  ,1.676e+07   ,2.4  ,-0.72473  ,5
3910  ,4.729e+01   ,-2.4  ,-2.5  ,3.4
3959  ,7.831e+08   ,2.5  ,2.4  ,4.1404
3969  ,1.238e+08   ,2.5  ,1.0491  ,4.9
3992  ,4.651e+09   ,2.391  ,2.2576  ,4.9577
3993  ,4.139e+09   ,2.4577  ,2.2576  ,4.891
4016  ,8.953e+05   ,-2.3015  ,2.5  ,4.9
4018  ,9.486e+05   ,-2.4  ,2.5  ,4.8
4021  ,2.681e+08   ,1.2462  ,2.4  ,5
4042  ,4.101e+05   ,2.4  ,-1.1  ,0
4046  ,1.319e+06   ,-0.9  ,2.4  ,0
4055  ,1.655e+05   ,1.7  ,-2.5  ,4.9
4087  ,2.485e+06   ,1.7  ,2.4  ,0
4114  ,4.738e+07   ,2.5  ,-0.33054  ,4.9
4120  ,1.142e+04   ,2.4  ,-2.5  ,1.8
4125  ,1.080e+07   ,2.4  ,2.5  ,0.98691
4144  ,1.120e+09   ,2.4  ,2.5  ,4.3375
4161  ,1.123e+06   ,-2.4  ,0.3  ,5
4201  ,2.084e+03   ,1.933  ,-2.5  ,0.2
4225  ,1.366e+00   ,-2.3  ,-2.4  ,0
4230  ,1.665e+01   ,-2.3  ,-2.5  ,0.56701
4269  ,6.166e+03   ,-0.9  ,-2.5  ,4.9
4277  ,5.157e+03   ,-1.1  ,-2.4  ,5
4288  ,5.141e+07   ,-0.070055  ,2.3  ,4.8
4328  ,5.243e+02   ,-2.5  ,-2.4  ,4.2
4336  ,5.674e+02   ,-2.5  ,-2.4  ,4.4
4342  ,8.249e+02   ,-2.5  ,-2.4  ,4.6
4348  ,5.746e+02   ,-2.4  ,-2.4707  ,4.9707
4352  ,8.012e+02   ,-2.3  ,-2.5  ,4.9
4354  ,1.123e+03   ,-2.1765  ,-2.5  ,4.8
4355  ,2.534e+03   ,-2.3  ,-2.3379  ,4.8
4362  ,3.118e+06   ,2.5  ,2.4  ,0.59273
4364  ,4.042e+04   ,2.5  ,-2.4  ,2.4
4366  ,2.868e+04   ,2.5  ,-2.4  ,2.2
4372  ,2.908e+04   ,2.4  ,-2.5  ,2.2
4385  ,9.403e+01   ,-2.5  ,-1.9  ,0.1
4399  ,3.698e+05   ,-2.5  ,2.1  ,0.1
4407  ,2.643e+02   ,-0.7  ,-2.4  ,0
4436  ,1.034e+04   ,-2.5  ,-0.1  ,0.1
4462  ,2.166e+06   ,-2.3  ,2.3  ,4.0333
4491  ,6.936e+07   ,2.5  ,-0.52764  ,4.9
4494  ,7.729e+03   ,2.5  ,-2.4  ,1.4
4503  ,5.218e+03   ,2.4  ,-2.5  ,1.4
4508  ,7.624e+03   ,2.4  ,-2.5  ,1.2
4515  ,2.022e+04   ,2.5  ,-2.4  ,1.8
4517  ,4.298e+03   ,2.4  ,-2.5  ,1.6
4522  ,2.167e+02   ,0.7  ,-2.4  ,0
4538  ,4.376e+06   ,-1.1189  ,2.4  ,5
4546  ,6.928e+08   ,2.4  ,2.5  ,4.1404
4559  ,1.242e+03   ,1.7  ,-2.4  ,0
4590  ,1.867e+02   ,0.5  ,-2.4  ,0
4631  ,2.929e+04   ,2.4  ,-2.5  ,2.6
4634  ,3.541e+04   ,2.5  ,-2.4  ,2.8
4657  ,1.697e+01   ,-2.5  ,-2.4  ,2
4660  ,1.166e+01   ,-2.5  ,-2.4  ,1.8
4664  ,4.821e+02   ,-0.3  ,-2.4  ,0
4675  ,5.517e+02   ,-2.4  ,-2.5  ,4.8
4681  ,1.267e+04   ,-2.5  ,-0.3  ,0.1
4684  ,2.004e+05   ,1.7  ,-2.4  ,5
4703  ,1.742e+06   ,-2.4  ,0.7  ,5
4707  ,5.124e+05   ,-2.5  ,0.3  ,4.9
4714  ,5.435e+07   ,2.4  ,-0.33054  ,5
4723  ,3.479e+06   ,-1.5567  ,2.3  ,4.8
4739  ,7.269e+05   ,-2.1044  ,2.5  ,4.9
4763  ,3.782e+05   ,-1.9  ,2.4  ,0
4780  ,4.468e+01   ,-2.3  ,-1.9695  ,0.2
4782  ,1.421e+00   ,-2.4707  ,-2.4  ,0.029289
4784  ,8.295e+01   ,-2.4  ,-1.9  ,0
4791  ,4.033e+00   ,-2.4  ,-2.5  ,1.8
4796  ,2.935e+04   ,2.4707  ,-2.4707  ,4.9
4799  ,2.719e+04   ,2.5  ,-2.4  ,4.8
4806  ,5.832e+04   ,2.3  ,-2.5  ,4.9
4809  ,1.162e+09   ,2.3  ,2.3  ,3.9166
4833  ,5.361e+05   ,-2.4  ,2.5  ,0.4
4841  ,1.491e+06   ,-2.4  ,2.5  ,2.6
4846  ,1.108e+06   ,-2.5  ,2.1  ,4.9
4848  ,1.155e+06   ,-2.5  ,2.3  ,4.9
4849  ,1.434e+06   ,-2.5  ,2.4  ,4.8
4893  ,2.411e+06   ,-2.4  ,2.5  ,4.2
4897  ,1.919e+09   ,2.3333  ,2.1998  ,5
4900  ,3.660e+09   ,2.391  ,2.4577  ,4.7576
4908  ,3.897e+09   ,2.2576  ,2.391  ,4.9577
4911  ,3.711e+09   ,2.2576  ,2.4577  ,4.891
4926  ,1.946e+05   ,-2.5  ,2.4  ,1
4932  ,1.273e+06   ,-2.4  ,2.5  ,1.6
4937  ,1.121e+06   ,-1.1  ,2.5  ,0.1
4939  ,2.309e+09   ,2.3  ,2.2299  ,4.7299
4944  ,5.202e+05   ,2.5  ,-1.9073  ,4.9
4987  ,2.158e+06   ,-2.3  ,1.5527  ,4.8
5010  ,2.277e+09   ,2.4973  ,2.1331  ,4.923
5013  ,1.724e+09   ,2.5  ,2.0345  ,4.9
5017  ,1.747e+09   ,2.4  ,2.0345  ,5
5035  ,3.969e+02   ,1.3  ,-2.4  ,0
5038  ,1.712e+02   ,1.2085  ,-2.5  ,0.2
5092  ,8.721e+00   ,-2.4  ,-2.5  ,1.2
5123  ,2.978e+03   ,2.5  ,-2.4  ,0.6
5151  ,9.951e+03   ,-2.5  ,-0.5  ,0.1
5160  ,3.158e+03   ,-2.5  ,-0.7  ,0.1
5164  ,9.509e+05   ,-2.4  ,0.9  ,5
5168  ,1.434e+06   ,-2.4  ,0.5  ,5
5176  ,8.927e+05   ,2.5  ,-0.7  ,0.1
5179  ,1.401e+06   ,2.4  ,-0.5  ,0
5189  ,2.637e+04   ,2.4  ,-2.5  ,2.4
5194  ,1.170e+04   ,2.3  ,-2.5  ,2.2576
5198  ,2.380e+00   ,-2.3  ,-2.5  ,0.32348
5205  ,8.508e-01   ,-2.4  ,-2.5  ,0.2
5207  ,1.475e+00   ,-2.1  ,-2.5  ,0.1
5246  ,4.744e+06   ,-2.5  ,2.4  ,3.2
5257  ,1.317e+06   ,-2.5  ,1.5  ,4.9
5263  ,4.980e+04   ,-2.3  ,0.2278  ,0.2
5272  ,3.023e+04   ,-2.5  ,0.3  ,0.1
5275  ,6.460e+05   ,-2.5  ,0.5  ,4.9
5281  ,8.769e+08   ,1.8375  ,2.5  ,4.9
5297  ,1.563e+06   ,-0.9  ,2.5  ,0.1
5306  ,1.704e+06   ,-0.7  ,2.4  ,0
5309  ,1.666e+06   ,-0.5  ,2.5  ,0.1
5324  ,1.463e+08   ,2.4  ,2.5  ,2.7607
5332  ,5.923e+03   ,2.5  ,-2.4  ,0.8
5334  ,5.275e+03   ,2.4  ,-2.5  ,1
5360  ,1.517e+06   ,2.4  ,-1.7102  ,5
5362  ,4.092e+06   ,2.4  ,-1.5131  ,5
5368  ,1.229e+09   ,2.4  ,1.8375  ,5
5371  ,6.938e+09   ,2.4325  ,2.4888  ,4.6656
5372  ,1.892e+09   ,2.3333  ,2.5  ,4.6998
5376  ,1.726e+09   ,2.4707  ,2.4707  ,4.6331
5377  ,1.840e+09   ,2.5  ,2.4  ,4.5345
5379  ,3.626e+03   ,-1.5  ,-2.5  ,4.9
5406  ,7.069e+01   ,-2.5  ,-2.4  ,3.4
5420  ,3.781e+01   ,-2.3  ,-2.5  ,3.2226
5423  ,6.141e+02   ,1.5  ,-2.4  ,0
5502  ,3.023e+00   ,-2.5  ,-2.3  ,0.1
5504  ,2.978e+00   ,-2.5  ,-2.4  ,0.2
5506  ,1.209e+00   ,-2.4  ,-2.3  ,0
5511  ,8.866e+00   ,-2.5  ,-2.1  ,0.1
5513  ,2.894e+04   ,-2.4  ,0.5  ,0
5517  ,1.386e+02   ,-0.9  ,-2.5  ,0.1
5532  ,4.434e+05   ,-2.4707  ,2.4707  ,4.9
5534  ,1.293e+06   ,2.4  ,-0.7  ,0
5551  ,1.010e+05   ,2.5  ,-2.4  ,3.8
5566  ,9.602e+06   ,2.5  ,2.4  ,1.3811
5603  ,2.170e+06   ,2.4  ,-0.3  ,0
5617  ,4.373e+05   ,-2.1  ,2.5  ,0.1
5637  ,2.602e+04   ,-2.3  ,-1.9695  ,4.8
5641  ,5.871e+04   ,2.3  ,-2.5  ,3.4636
5645  ,5.442e+00   ,-2.4  ,-2.5  ,2
5649  ,9.684e+00   ,-2.4  ,-2.5  ,2.2
5659  ,5.906e+00   ,-2.3  ,-2.5  ,1.7774
5662  ,8.036e+04   ,2.1765  ,-2.5  ,4.8
5666  ,5.727e+04   ,2.4  ,-2.5  ,4.8
5669  ,9.055e+04   ,2.3  ,-2.3412  ,4.8
5695  ,9.035e+04   ,-2.4  ,0.7  ,0
5701  ,8.814e+05   ,-2.5  ,2.4  ,1.6
5715  ,1.355e+06   ,-2.4  ,2.5  ,1.8
5726  ,2.061e+06   ,-0.7  ,2.5  ,0.1
5727  ,1.439e+06   ,-1.1  ,2.4  ,0
5730  ,3.673e+03   ,2.3  ,-2.5  ,1.7774
5746  ,5.168e+07   ,2.5  ,2.4  ,1.7753
5755  ,1.417e+05   ,2.5  ,-2.4  ,4.4
5763  ,1.651e+05   ,2.4  ,-2.5  ,4.4
5773  ,1.458e+08   ,1.0491  ,2.5  ,4.9
5791  ,4.802e+07   ,-0.72473  ,2.4  ,5
5795  ,1.032e+09   ,1.8375  ,2.4  ,5
5803  ,3.843e+04   ,-0.3  ,-2.4  ,5
5810  ,6.920e+08   ,2.4  ,1.6404  ,5
5836  ,1.059e+06   ,-2.5  ,1.3  ,4.9
5860  ,8.440e+03   ,2.5  ,-2.4  ,1.6
5866  ,3.459e+02   ,1.5  ,-2.5  ,0.1
5884  ,6.948e+05   ,-2.4  ,-0.3  ,5
5888  ,1.088e+06   ,-2.5  ,-0.5  ,4.9
5901  ,9.886e+03   ,2.3  ,-2.5  ,2.5
5908  ,1.302e+04   ,2.5  ,-2.4  ,1.2
5909  ,2.386e+04   ,2.5  ,-2.4  ,2
5934  ,2.097e+05   ,1.9  ,-2.5  ,4.9
5938  ,3.294e+05   ,1.933  ,-2.5  ,4.8
5948  ,4.722e+02   ,-2.4  ,-2.5  ,4.6
5950  ,8.439e+02   ,-2.4707  ,-2.4707  ,4.9
5951  ,1.279e+03   ,-2.5  ,-2.4  ,4.8
5952  ,2.716e+03   ,-2.5  ,-2.3  ,4.9
5986  ,3.729e+04   ,2.3  ,-2.5  ,3.7085
5990  ,3.240e+07   ,-0.92182  ,2.5  ,4.9
6019  ,2.724e+06   ,2.5  ,1.9  ,0.1
6025  ,2.561e+05   ,2.4  ,-1.3  ,0
6035  ,1.516e+06   ,-2.5  ,1.9  ,4.9
6044  ,2.749e+06   ,0.1  ,2.5  ,0.1
6054  ,2.597e+06   ,2.4  ,0.1  ,0
6070  ,2.909e+05   ,-2.4  ,2.3  ,0
6071  ,2.131e+05   ,-2.3  ,2.4  ,0
6076  ,3.148e+05   ,-2.4  ,2.1  ,0
6083  ,8.786e+02   ,2.1  ,-2.4  ,0
6084  ,1.934e+06   ,2.4  ,2.3  ,0
6087  ,1.368e+06   ,2.3  ,2.4  ,0
6092  ,3.779e+00   ,-2.4  ,-2.5  ,0.4
6096  ,1.388e+00   ,-2.3  ,-2.5  ,0.1
6099  ,1.285e+02   ,0.7  ,-2.5  ,0.1
6149  ,4.170e+03   ,-2.4  ,-0.9  ,0
6159  ,1.201e+01   ,-2.5  ,-2.4  ,2.6
6183  ,2.865e+08   ,1.2462  ,2.5  ,4.9
6224  ,4.549e+04   ,2.5  ,-2.4  ,4
6228  ,4.177e+04   ,2.4  ,-2.5  ,3.8
6237  ,7.845e+06   ,2.5  ,0.7  ,0.1
6241  ,1.947e+09   ,2.5  ,2.3333  ,4.6998
6245  ,3.418e+07   ,2.5  ,2.4  ,1.5782
6259  ,2.919e+05   ,2.5  ,-2.1044  ,4.9
6265  ,3.649e+05   ,2.3  ,-1.9804  ,4.8
6267  ,6.381e+04   ,2.5  ,-2.3015  ,4.9
6268  ,3.841e+04   ,2.4707  ,-2.4  ,4.9707
6270  ,2.156e+05   ,2.4  ,-2.1044  ,5
6317  ,1.417e+06   ,-2.3  ,0.2278  ,4.8
6349  ,3.122e+07   ,-0.52764  ,2.4  ,5
6391  ,5.406e+07   ,2.4  ,2.5  ,1.7753
6440  ,4.149e+06   ,-2.5  ,2.4  ,3.8
6471  ,1.599e+07   ,2.5  ,-0.92182  ,4.9
6489  ,3.899e+08   ,2.5  ,1.2462  ,4.9
6523  ,8.346e+01   ,-1.1  ,-2.4  ,0
6528  ,2.266e+01   ,-1.1  ,-2.5  ,0.1
6535  ,2.337e+02   ,-0.9  ,-2.4  ,0
6538  ,1.494e+05   ,1.5  ,-2.4  ,5
6541  ,1.014e+05   ,1.5  ,-2.5  ,4.9
6551  ,2.142e+07   ,2.5  ,-0.72473  ,4.9
6564  ,2.278e+09   ,2.1331  ,2.4973  ,4.923
6565  ,1.861e+09   ,2.0345  ,2.5  ,4.9
6572  ,4.360e+04   ,2.4  ,-1.7  ,0
6581  ,1.680e+06   ,0  ,2.3  ,0.2
6592  ,1.954e+04   ,2.3  ,-1.9695  ,0.2
6594  ,3.195e+06   ,0.3  ,2.4  ,0
6601  ,3.369e+06   ,0.5  ,2.5  ,0.1
6605  ,1.370e+03   ,-2.4  ,-1.3  ,0
6606  ,1.160e+03   ,-2.4  ,-1.1  ,0
6615  ,1.432e+04   ,-2.4  ,-0.3  ,0
6634  ,3.944e+04   ,2.1  ,-2.5  ,4.9
6635  ,2.485e+04   ,2.4  ,-2.4707  ,4.9707
6636  ,2.691e+04   ,2.3  ,-2.4  ,5
6647  ,1.766e+02   ,0.5  ,-2.5  ,0.1
6704  ,1.171e+05   ,-2.4707  ,2.4707  ,0.1
6708  ,1.665e+05   ,-2.5  ,2.4  ,0.2
6712  ,2.325e+06   ,-2.4  ,2.5  ,3.6
6715  ,2.688e+06   ,-2.4  ,2.5  ,3.4
6728  ,9.508e+05   ,-2.5  ,0.7  ,4.9
6753  ,1.888e+06   ,-2.1044  ,2.4  ,5
6788  ,1.107e+09   ,2.5  ,2.4  ,4.3375
6791  ,4.689e+03   ,-1.933  ,-2.5  ,4.8
6795  ,1.766e+09   ,2.1998  ,2.5  ,4.8333
6837  ,4.944e+00   ,-2.3  ,-2.5  ,0.8063
6869  ,1.774e+06   ,2.5  ,-1.7102  ,4.9
6873  ,5.793e+05   ,2.4  ,-1.9073  ,5
6880  ,1.554e+07   ,2.4  ,-0.92182  ,5
6885  ,7.273e+07   ,2.4  ,-0.52764  ,5
6893  ,3.780e+08   ,2.4  ,1.2462  ,5
6914  ,6.652e+06   ,0.7  ,2.5  ,0.1
6920  ,6.509e+06   ,0.9  ,2.4  ,0
6923  ,7.662e+06   ,0.7  ,2.4  ,0
6936  ,3.283e+04   ,2.4  ,-2.5  ,3.4
6939  ,3.248e+04   ,2.3  ,-2.5  ,3.2226
6961  ,3.797e+04   ,-0.1  ,-2.5  ,4.9
6967  ,9.702e+04   ,-2.5  ,-1.5  ,4.9
6975  ,9.575e+05   ,-2.4  ,1.1  ,5
6978  ,2.945e+05   ,-2.4  ,2.5  ,0.2
6987  ,2.851e+06   ,2.4  ,-1.316  ,5
6994  ,7.672e+04   ,2.4  ,-1.5  ,0
7004  ,3.597e+04   ,2.4  ,-2.5  ,3.6
7011  ,2.747e+08   ,2.4  ,0.65491  ,5
7016  ,1.792e+08   ,2.4  ,0.45782  ,5
7019  ,2.190e+07   ,2.5  ,2.4  ,2.1695
7021  ,3.131e+07   ,2.5  ,2.4  ,1.9724
7052  ,8.266e+05   ,-1.3  ,2.5  ,0.1
7054  ,2.984e+00   ,-2.4  ,-2.5  ,0.8
7057  ,2.607e+02   ,0.3  ,-2.5  ,0.1
7065  ,1.155e+02   ,0.24243  ,-2.5  ,0.2
7075  ,6.909e+09   ,2.4888  ,2.4325  ,4.6656
7113  ,7.939e+00   ,-2.4  ,-2.5  ,2.6
7121  ,1.392e+01   ,-2.4  ,-2.5  ,2.8
7126  ,3.875e+01   ,-2.5  ,-2.4  ,2.8
7128  ,3.408e-01   ,-2.4707  ,-2.4707  ,0.1
7129  ,7.360e-01   ,-2.4  ,-2.4707  ,0.029289
7141  ,2.885e+03   ,-1.7  ,-2.4  ,5
7145  ,5.323e+06   ,1.1  ,2.4  ,0
7163  ,5.294e+06   ,-1.7102  ,2.4  ,5
7172  ,5.514e+04   ,2.5  ,-2.4  ,3.2
7174  ,4.346e+06   ,-2.5  ,2.4  ,3.6
7183  ,5.841e+03   ,-1.4531  ,-2.5  ,4.8
7204  ,1.196e+07   ,2.3  ,-0.81068  ,4.8
7220  ,1.811e+08   ,2.5  ,0.063638  ,4.9
7227  ,3.649e+04   ,2.5  ,-1.9  ,0.1
7256  ,4.536e+04   ,-0.1  ,-2.4  ,5
7280  ,2.419e+07   ,-0.33054  ,2.4  ,5
7299  ,1.453e+07   ,2.5  ,-1.1189  ,4.9
7316  ,7.670e+00   ,-2.5  ,-2.4  ,0.8
7323  ,5.251e+00   ,-2.4  ,-2.5  ,1
7396  ,6.865e+04   ,1.1  ,-2.4  ,5
7400  ,7.871e+04   ,-2.5  ,0.7  ,0.1
7409  ,9.759e+04   ,1.3  ,-2.4  ,5
7420  ,2.405e+06   ,2.5  ,2.1  ,0.1
7429  ,1.673e+06   ,2.4  ,1.9  ,0
7436  ,4.277e+04   ,2.5  ,-1.7  ,0.1
7438  ,1.812e+04   ,2.4  ,-2.5  ,2.8
7445  ,6.568e+09   ,2.4325  ,2.1656  ,4.9888
7464  ,1.562e+05   ,2.5  ,-1.5  ,0.1
7480  ,2.041e+03   ,2.5  ,-2.4  ,0.2
7482  ,8.759e+02   ,1.9  ,-2.5  ,0.1
7483  ,9.152e+02   ,1.7  ,-2.5  ,0.1
7486  ,2.075e+05   ,1.9  ,-2.4  ,5
7488  ,1.133e+05   ,1.6937  ,-2.5  ,4.8
7492  ,9.050e+04   ,2.1  ,-2.4  ,5
7495  ,3.157e+02   ,0.1  ,-2.5  ,0.1
7504  ,4.094e+02   ,0.3  ,-2.4  ,0
7507  ,7.462e+01   ,0.9  ,-2.5  ,0.1
7533  ,7.447e+04   ,-2.5  ,0.9  ,0.1
7536  ,3.946e+01   ,-2.4  ,-2.5  ,3.2
7540  ,1.908e+01   ,-2.4  ,-2.5  ,3
7545  ,3.865e+01   ,-2.5  ,-2.4  ,3
7582  ,2.814e+06   ,1.3  ,2.5  ,0.1
7588  ,8.425e+07   ,2.5  ,2.4  ,2.3665
7598  ,2.398e+06   ,-2.5  ,2.4  ,4.2
7607  ,1.764e+06   ,1.5333  ,2.3  ,0.2
7627  ,9.949e+05   ,-2.5  ,1.1  ,4.9
7651  ,2.971e+04   ,2.4  ,-1.9  ,0
7656  ,2.182e+06   ,2.5  ,2.4  ,0.39564
7660  ,2.245e+09   ,2.2299  ,2.3  ,4.7299
7668  ,1.498e+04   ,1.4531  ,-2.5  ,4.8
7676  ,3.282e+04   ,0.1  ,-2.5  ,4.9
7683  ,4.365e+04   ,0.1  ,-2.4  ,5
7686  ,3.525e+05   ,-2.4  ,-1.1  ,5
7702  ,5.825e+02   ,-2.3  ,-2.5  ,4.433
7710  ,6.976e+02   ,-2.3  ,-2.5  ,4.6765
7752  ,5.361e+04   ,0.9  ,-2.4  ,5
7763  ,2.790e+04   ,0.24243  ,-2.5  ,4.8
7767  ,7.468e+01   ,-2.5  ,-2.4  ,3.2
7768  ,1.564e+01   ,-2.4  ,-2.1  ,0
7776  ,8.068e+04   ,-2.4  ,0.9  ,0
7786  ,4.194e+04   ,-0.4838  ,-2.5  ,4.8
7800  ,7.438e+04   ,2.5  ,-2.4  ,4.6
7805  ,1.369e+05   ,-2.5  ,-1.3  ,4.9
7811  ,2.194e+05   ,-2.5  ,-1.1  ,4.9
7820  ,7.312e+03   ,2.5  ,-2.1  ,0.1
7824  ,2.108e+03   ,2.4  ,-2.1  ,0
7828  ,9.194e+04   ,2.4  ,-2.5  ,4.2
7831  ,4.935e+04   ,2.4  ,-2.5  ,4
7838  ,9.680e+04   ,2.5  ,-2.4  ,4.2
7839  ,1.320e+08   ,2.5  ,2.4  ,2.7607
7840  ,1.998e+08   ,2.5  ,2.4  ,2.9578
7863  ,3.550e+02   ,-2.4  ,-1.5  ,0
7890  ,7.103e+06   ,2.4  ,0.9  ,0
7897  ,4.232e+03   ,-2.4  ,-0.7  ,0
7912  ,7.096e+00   ,-1.5  ,-2.4  ,0
7917  ,1.471e+01   ,-1.3  ,-2.5  ,0.1
7931  ,6.158e+06   ,0.5  ,2.4  ,0
7934  ,2.370e+02   ,1.1  ,-2.4  ,0
7937  ,4.716e+03   ,2.4  ,-2.5  ,0.8
7941  ,7.425e+00   ,-2.4  ,-2.5  ,0.6
7969  ,3.392e+05   ,-2.5  ,2.3  ,0.1
7971  ,1.439e+05   ,-2.4  ,1.9  ,0
7972  ,3.473e+05   ,-1.9  ,2.5  ,0.1
7978  ,4.828e+04   ,-2.4  ,1.1  ,0
7996  ,1.351e+06   ,-2.4  ,-0.5  ,5
8000  ,8.324e+00   ,-2.5  ,-2.4  ,0.6
8003  ,4.298e+00   ,-2.5  ,-2.4  ,0.4
8025  ,2.804e+06   ,0.9  ,2.5  ,0.1
8035  ,2.805e+06   ,0.3  ,2.5  ,0.1
8039  ,1.636e+03   ,2.3  ,-2.5  ,0.32348
8041  ,1.012e+03   ,2.3  ,-2.3379  ,0.2
8043  ,4.887e+02   ,2.1765  ,-2.5  ,0.2
8045  ,4.588e+01   ,-0.96359  ,-2.5  ,0.2
8054  ,3.751e+06   ,1.3  ,2.4  ,0
8058  ,2.423e+06   ,1.1  ,2.5  ,0.1
8062  ,8.360e+05   ,-2.5  ,2.4  ,1.4
8067  ,2.146e+05   ,-2.5  ,2.4  ,0.8
8087  ,5.730e+04   ,-2.5  ,1.5  ,0.1
8132  ,8.137e+07   ,-0.13345  ,2.4  ,5
8183  ,6.727e+05   ,2.5  ,-0.9  ,0.1
8184  ,1.147e+03   ,1.6937  ,-2.5  ,0.2
8214  ,1.197e+03   ,-2.4707  ,-2.4  ,4.9707
8217  ,1.864e+03   ,-2.1  ,-2.4  ,5
8219  ,5.122e+02   ,-2.4  ,-2.5  ,4.4
8227  ,3.050e+08   ,2.5  ,2.4  ,3.1549
8242  ,1.625e+04   ,0.7  ,-2.5  ,4.9
8248  ,5.445e+04   ,2.5  ,-2.4  ,3.6
8254  ,1.855e+06   ,2.5  ,-0.3  ,0.1
8256  ,1.802e+06   ,2.5  ,-0.5  ,0.1
8258  ,3.688e+04   ,-0.3  ,-2.5  ,4.9
8263  ,2.321e+04   ,-0.5  ,-2.5  ,4.9
8268  ,1.730e+02   ,-2.3  ,-2.5  ,3.7085
8277  ,3.876e+02   ,-0.1  ,-2.5  ,0.1
8285  ,5.360e+04   ,1.1  ,-2.5  ,4.9
8307  ,1.871e+06   ,0.1  ,2.4  ,0
8308  ,9.809e+05   ,-0.1  ,2.5  ,0.1
8309  ,1.666e+06   ,-0.1  ,2.4  ,0
8313  ,1.379e+03   ,2.5  ,-2.3  ,0.1
8318  ,9.083e+03   ,2.5  ,-2.4  ,3
8338  ,2.214e+08   ,2.5  ,2.4  ,3.352
8339  ,3.027e+08   ,2.4  ,2.5  ,3.1549
8344  ,4.533e+06   ,-2.5  ,2.4  ,3.4
8357  ,6.390e+09   ,2.4888  ,2.1656  ,4.9325
8358  ,1.656e+09   ,2.5  ,2.1998  ,4.8333
8383  ,8.125e+00   ,-1.7  ,-2.4  ,0
8396  ,1.382e+02   ,1.1  ,-2.5  ,0.1
8399  ,1.654e+09   ,2.4526  ,2.1331  ,4.9851
8405  ,7.765e+03   ,2.5  ,-2.4  ,1
8412  ,6.449e+03   ,2.3  ,-2.5  ,0.8063
8417  ,8.409e+00   ,-2.3  ,-2.5  ,2.5
8434  ,5.379e+04   ,0.9636  ,-2.5  ,4.8
8438  ,4.304e+02   ,-0.3  ,-2.5  ,0.1
8452  ,9.433e+05   ,-2.4  ,-0.1  ,5
8468  ,3.081e+08   ,2.5  ,2.4  ,3.7462
8471  ,5.122e+03   ,-1.3  ,-2.5  ,4.9
8493  ,4.880e+03   ,-1.1  ,-2.5  ,4.9
8509  ,1.544e+02   ,-2.5  ,-1.7  ,0.1
8517  ,2.579e+06   ,-2.4  ,2.5  ,3
8531  ,1.034e+05   ,-2.4  ,1.7  ,0
8556  ,1.880e+08   ,2.5  ,2.4  ,3.5491
8573  ,9.508e+06   ,-1.316  ,2.4  ,5
8576  ,5.496e+04   ,-2.4  ,1.3  ,0
8611  ,6.749e+03   ,2.3  ,-2.5  ,1.2915
8618  ,2.516e+06   ,-2.4  ,2.5  ,4
8646  ,5.698e+04   ,-2.5  ,1.1  ,0.1
8656  ,2.413e+05   ,2.5  ,-1.3  ,0.1
8657  ,1.998e+06   ,2.4  ,2.1  ,0
8673  ,8.470e+05   ,-1.3  ,2.4  ,0
8692  ,1.444e+04   ,0.72263  ,-2.5  ,4.8
8696  ,5.474e+03   ,2.3  ,-2.5  ,1.0469
8706  ,2.764e+08   ,2.5  ,0.65491  ,4.9
8721  ,1.160e+01   ,-2.4  ,-2.5  ,1.6
8725  ,3.256e+08   ,0.65491  ,2.4  ,5
8739  ,6.614e+09   ,2.1656  ,2.4325  ,4.9888
8741  ,1.828e+09   ,2.1998  ,2.3333  ,5
8746  ,9.126e-01   ,-2.1  ,-2.4  ,0
8748  ,8.900e+00   ,-2.5  ,-2.4  ,1.2
8752  ,2.002e+09   ,2.1331  ,2.4526  ,4.9851
8759  ,4.049e+00   ,-2.3  ,-2.5  ,1.0469
8787  ,6.192e+02   ,-0.1  ,-2.4  ,0
8793  ,8.747e+00   ,-2.3  ,-2.5  ,2.2576
8795  ,1.864e+00   ,-2.4  ,-2.5  ,2.4
8798  ,1.286e+02   ,-2.3  ,-2.5  ,4.1937
8808  ,8.459e+01   ,-2.3  ,-2.5  ,3.9531
8814  ,1.486e+05   ,-2.4  ,-1.5  ,5
8849  ,1.625e+04   ,0.4838  ,-2.5  ,4.8
8851  ,1.982e+02   ,-2.4  ,-2.5  ,4.2
8868  ,1.459e+04   ,2.4  ,-2.5  ,3
8874  ,2.044e+08   ,0.852  ,2.4  ,5
8883  ,3.214e+04   ,-0.5  ,-2.4  ,5
8886  ,1.535e+04   ,-0.72262  ,-2.5  ,4.8
8893  ,1.145e+04   ,-0.7  ,-2.5  ,4.9
8897  ,2.452e+02   ,-2.5  ,-2.4  ,3.6
8899  ,5.365e+01   ,-2.3  ,-2.5  ,3.4636
8900  ,7.034e+02   ,-2.3  ,-1.4729  ,0.2
8906  ,1.423e+03   ,-2.5  ,-1.3  ,0.1
8910  ,2.468e+08   ,0.852  ,2.5  ,4.9
8925  ,7.879e+05   ,-2.4  ,2.5  ,1.4
8941  ,1.557e+06   ,2.4707  ,2.4  ,0.029289
8942  ,2.195e+06   ,2.5  ,2.3  ,0.1
8945  ,6.835e+05   ,-2.5  ,0.1  ,4.9
8950  ,1.404e+06   ,2.4707  ,2.4707  ,0.1
8951  ,1.136e+06   ,2.4  ,2.4707  ,0.029289
8959  ,2.000e+08   ,2.4  ,0.26073  ,5
8965  ,1.811e+08   ,0.45782  ,2.4  ,5
8978  ,1.317e+08   ,2.4  ,0.852  ,5
8983  ,4.633e+05   ,2.5  ,-1.1  ,0.1
8991  ,2.580e+05   ,-2.5  ,2.4  ,0.6
9008  ,1.123e+08   ,2.5  ,0.852  ,4.9
9011  ,1.056e+04   ,-2.4  ,-0.5  ,0
9025  ,7.222e+00   ,-1.5  ,-2.5  ,0.1
9038  ,1.689e+04   ,2.4  ,-2.5  ,2
9041  ,5.525e+06   ,2.5  ,0.9  ,0.1
9050  ,3.541e+06   ,2.5  ,0.5  ,0.1
9054  ,1.308e+02   ,0.9  ,-2.4  ,0
9060  ,1.110e+03   ,2.4  ,-2.5  ,0.4
9062  ,1.162e+03   ,2.3  ,-2.5  ,0.56701
9064  ,3.101e+03   ,2.5  ,-2.4  ,0.4
9069  ,1.406e+03   ,2.4  ,-2.5  ,0.6
9071  ,4.010e+02   ,1.4531  ,-2.5  ,0.2
9082  ,9.276e+00   ,-2.3  ,-2.5  ,1.2915
9086  ,2.870e+00   ,-2.4  ,-2.5  ,1.4
9091  ,4.647e+00   ,-2.5  ,-2.4  ,1.4
9094  ,5.271e+04   ,1.3  ,-2.5  ,4.9
9097  ,1.990e+02   ,-0.7  ,-2.5  ,0.1
9137  ,5.051e+05   ,-2.5  ,-0.7  ,4.9
9143  ,2.218e+05   ,-2.5  ,-0.1  ,4.9
9146  ,3.239e+05   ,-2.1  ,2.4  ,0
9148  ,1.209e+06   ,-2.5  ,1.7  ,4.9
9173  ,4.057e+06   ,-2.5  ,2.4  ,3
9192  ,1.732e+04   ,-0.7  ,-2.4  ,5
9195  ,1.608e+02   ,0.72263  ,-2.5  ,0.2
9209  ,6.956e+04   ,2.5  ,-2.4  ,3.4
9215  ,1.619e+02   ,0.9636  ,-2.5  ,0.2
9217  ,4.268e+04   ,2.4  ,-2.5  ,3.2
9218  ,3.124e+03   ,-0.96359  ,-2.5  ,4.8
9229  ,1.260e+06   ,-2.4  ,2.5  ,2.8
9248  ,1.851e+05   ,2.3  ,-2.5  ,4.433
9255  ,4.351e+06   ,2.5  ,1.3  ,0.1
9257  ,3.399e+06   ,2.4  ,1.5  ,0
9262  ,1.869e+04   ,0.5  ,-2.4  ,5
9264  ,7.890e+07   ,2.4  ,-0.13345  ,5
9272  ,1.400e+08   ,0.063638  ,2.4  ,5
9277  ,4.808e+05   ,-2.5  ,2.4  ,1.2
9279  ,1.972e+08   ,2.5  ,0.26073  ,4.9
9282  ,5.749e+04   ,1.2085  ,-2.5  ,4.8
9286  ,3.695e+04   ,0.9  ,-2.5  ,4.9
9292  ,6.463e+05   ,-2.4  ,2.4707  ,4.9707
9293  ,9.807e+05   ,-2.3015  ,2.4  ,5
9296  ,7.790e+03   ,-2.4  ,-2.1  ,5
9303  ,3.709e+04   ,-2.4  ,-1.9  ,5
9311  ,5.092e+05   ,-2.4  ,2.3  ,5
9313  ,1.244e+06   ,-2.4  ,0.1  ,5
9319  ,5.117e+02   ,-0.5  ,-2.4  ,0
9328  ,1.667e+01   ,-2.3  ,-2.5  ,1.5364
9334  ,2.913e+05   ,-2.3  ,2.5  ,0.1
9338  ,6.587e+00   ,-2.5  ,-2.4  ,2.4
9339  ,6.008e+04   ,-2.5  ,1.3  ,0.1
9341  ,8.093e+00   ,-2.3  ,-2.5  ,2.7424
9344  ,1.473e+01   ,-2.5  ,-2.4  ,2.2
9358  ,1.383e+06   ,-2.3  ,2.3  ,2.5
9364  ,3.480e+03   ,-2.5  ,-2.1  ,4.9
9367  ,2.622e+03   ,-2.4  ,-2.3  ,5
9374  ,1.045e+05   ,-2.4  ,-1.3  ,5
9378  ,1.116e+06   ,-2.5  ,2.4  ,1.8
9384  ,2.291e+04   ,2.3  ,-2.5  ,2.0162
9385  ,1.629e+06   ,-2.5  ,2.4  ,4.4
9389  ,1.495e+06   ,-2.5  ,2.4  ,2
9395  ,5.921e+04   ,2.4  ,-2.3015  ,5
9396  ,8.896e+01   ,-2.4  ,-1.7  ,0
9407  ,1.624e+05   ,-2.3  ,-1.4729  ,4.8
9411  ,4.922e+04   ,-2.5  ,-1.7  ,4.9
9423  ,1.158e+02   ,-2.4  ,-2.5  ,3.6
9432  ,2.485e+04   ,0.7  ,-2.4  ,5
9438  ,1.832e+05   ,-2.5  ,-0.9  ,4.9
9443  ,7.856e+05   ,-2.5  ,-0.3  ,4.9
9445  ,3.038e+05   ,-2.4707  ,2.4  ,4.9707
9448  ,1.533e+07   ,2.4  ,-1.1189  ,5
9453  ,6.833e+06   ,2.4  ,0.7  ,0
9455  ,4.909e+04   ,2.5  ,-2.4  ,2.6
9457  ,2.022e+04   ,2.3  ,-2.5  ,2.9838
9494  ,3.199e+05   ,-2.4  ,2.5  ,1
9500  ,1.528e+04   ,0.3  ,-2.5  ,4.9
9504  ,1.687e+04   ,0.3  ,-2.4  ,5
9506  ,7.570e+02   ,2.1  ,-2.5  ,0.1
9518  ,7.664e-01   ,-1.9  ,-2.5  ,0.1
9528  ,2.819e+02   ,2.3  ,-2.5  ,0.1
9531  ,3.797e+02   ,2.4707  ,-2.4707  ,0.1
9533  ,5.764e+02   ,2.4707  ,-2.4  ,0.029289
9534  ,5.465e+02   ,2.4  ,-2.4707  ,0.029289
9541  ,2.055e+04   ,0.5  ,-2.5  ,4.9
9544  ,3.757e+02   ,-0.5  ,-2.5  ,0.1
9559  ,3.637e+04   ,-2.5  ,-1.9  ,4.9
9562  ,1.440e+06   ,-2.5  ,2.4  ,4.6
9565  ,1.101e+06   ,-2.4  ,2.5  ,2
9571  ,3.028e+02   ,-2.5  ,-2.4  ,3.8
9574  ,1.635e+02   ,-2.4  ,-2.5  ,3.8
9577  ,3.625e+02   ,1.3  ,-2.5  ,0.1
9582  ,3.870e+03   ,-2.5  ,-0.9  ,0.1
9596  ,1.486e+06   ,2.1  ,2.4  ,0
9598  ,4.713e+06   ,-2.4  ,2.5  ,3.2
9602  ,2.889e+06   ,1.5  ,2.5  ,0.1
9610  ,1.064e+06   ,2.4  ,2.5  ,0.39564
9612  ,4.914e+07   ,-0.72473  ,2.5  ,4.9
9614  ,2.430e+06   ,1.7  ,2.5  ,0.1
9635  ,3.854e+06   ,2.5  ,1.7  ,0.1
9646  ,1.351e+06   ,2.3  ,2.5  ,0.1
9651  ,6.100e+09   ,2.1656  ,2.4888  ,4.9325
9653  ,4.107e+06   ,2.5  ,-1.316  ,4.9
9656  ,5.099e+04   ,-2.4  ,-1.7  ,5
9659  ,9.267e+04   ,2.3  ,-2.5  ,4.6765
9661  ,8.400e+04   ,2.3  ,-2.5  ,3.9531
9664  ,2.175e+03   ,-2.3  ,-2.4  ,5
9666  ,1.421e+03   ,1.9  ,-2.4  ,0
9677  ,5.039e+06   ,2.4  ,0.5  ,0
9678  ,1.376e+03   ,-2.5  ,-1.1  ,0.1
9680  ,7.470e+06   ,2.5  ,2.4  ,1.184
9681  ,2.657e+06   ,2.5  ,2.4  ,0.19855
9696  ,2.699e+00   ,-2.3  ,-2.5  ,2.0162
9698  ,1.912e+03   ,2.4  ,-2.3  ,0
9699  ,2.155e+02   ,-0.24243  ,-2.5  ,0.2
9701  ,6.294e+02   ,0.1  ,-2.4  ,0
9704  ,7.577e+02   ,-0.4838  ,-2.5  ,0.2
9718  ,3.104e+02   ,-0.72262  ,-2.5  ,0.2
9726  ,6.216e+05   ,2.3  ,-0.76628  ,0.2
9727  ,1.393e+05   ,-2.5  ,2.4  ,0.4
9730  ,1.149e+04   ,1.9433E-06  ,-2.5  ,4.8
9731  ,1.484e+04   ,-0.24243  ,-2.5  ,4.8
9732  ,1.523e+06   ,-2.5  ,2.4  ,2.2
9738  ,2.346e+02   ,-2.5  ,-2.4  ,4
9743  ,4.439e+03   ,-1.6937  ,-2.5  ,4.8
9744  ,1.812e+02   ,-2.4  ,-2.5  ,4
9750  ,1.531e+00   ,-1.7  ,-2.5  ,0.1
9752  ,3.556e+00   ,-1.6937  ,-2.5  ,0.2
9754  ,4.773e+01   ,-1.3  ,-2.4  ,0
9759  ,1.948e+05   ,-2.4707  ,2.4  ,0.029289
9760  ,1.220e+05   ,-2.4  ,2.4707  ,0.029289
9768  ,5.841e+04   ,2.3  ,-2.5  ,4.1937
9770  ,1.498e+02   ,1.9433E-06  ,-2.5  ,0.2
9771  ,3.003e+02   ,0.4838  ,-2.5  ,0.2
9772  ,7.237e+02   ,2.4  ,-2.5  ,0.2
9773  ,6.006e+04   ,2.4  ,-2.5  ,4.6
9776  ,2.015e+08   ,2.4  ,0.063638  ,5
9780  ,2.868e+08   ,0.65491  ,2.5  ,4.9
9781  ,1.846e+06   ,2.4  ,2.5  ,0.19855
9782  ,1.427e+01   ,-2.3  ,-2.5  ,2.9838
9786  ,2.141e+01   ,-1.2085  ,-2.5  ,0.2
9787  ,1.086e+01   ,-1.4531  ,-2.5  ,0.2
9790  ,9.683e+02   ,2.3  ,-2.4  ,0
9793  ,1.892e+09   ,2.0345  ,2.4  ,5
9797  ,1.014e+04   ,2.3  ,-2.5  ,1.5364
9798  ,1.476e+08   ,2.4  ,1.0491  ,5
9809  ,2.186e+08   ,2.4  ,2.5  ,3.352
