Date:  12:56, Monday, July 10, 2023
Model name: Hollow_DropBox
Study name: DropTest_300fts(-Default-)
Plot type:  Stress1
Plot step: 22   time : 115.44 Microseconds
Result Type: von Mises 


Node  ,Value (N/m^2)  ,X (in)  ,Y (in)  ,Z (in)
1  ,5.991e+09   ,2.5  ,2.1331  ,4.9
2  ,2.323e+10   ,2.4577  ,2.1908  ,4.9577
3  ,9.910e+09   ,2.4894  ,2.1331  ,4.9447
4  ,2.856e+10   ,2.1331  ,2.5  ,4.9
5  ,4.942e+10   ,2.1331  ,2.4894  ,4.9447
6  ,2.380e+10   ,2.1908  ,2.4577  ,4.9577
7  ,3.402e+08   ,-2.4  ,2.4  ,5
8  ,3.271e+09   ,-2.4  ,-2.4  ,5
9  ,5.604e+09   ,2.4  ,-2.4  ,5
10  ,6.539e+09   ,2.4  ,2.1331  ,5
11  ,1.876e+10   ,2.1331  ,2.4  ,5
12  ,6.094e+09   ,2.5  ,-2.4  ,4.9
13  ,3.048e+09   ,2.5  ,-2.4  ,0.1
14  ,3.740e+08   ,2.5  ,2.4  ,0.1
15  ,1.817e+10   ,2.5  ,2.4  ,4.6331
16  ,2.976e+08   ,2.4  ,2.5  ,0.1
17  ,8.242e+08   ,-2.4  ,2.5  ,0.1
18  ,3.041e+08   ,-2.4  ,2.5  ,4.9
19  ,2.785e+10   ,2.4  ,2.5  ,4.6331
20  ,4.111e+08   ,-2.5  ,2.4  ,0.1
21  ,4.058e+08   ,-2.5  ,-2.4  ,0.1
22  ,2.267e+09   ,-2.5  ,-2.4  ,4.9
23  ,4.811e+08   ,-2.5  ,2.4  ,4.9
24  ,1.765e+09   ,-2.3  ,-2.5  ,0.2
25  ,2.277e+09   ,-2.3  ,-2.5  ,4.8
26  ,5.291e+09   ,2.3  ,-2.5  ,4.8
27  ,2.350e+09   ,2.3  ,-2.5  ,0.2
28  ,3.028e+09   ,-2.4  ,-2.5  ,4.9
29  ,5.557e+09   ,2.4  ,-2.5  ,4.9
30  ,2.449e+08   ,-2.4  ,-2.5  ,0.1
31  ,3.005e+09   ,2.4  ,-2.5  ,0.1
32  ,2.407e+09   ,2.4  ,-2.4  ,0
33  ,5.694e+08   ,2.4  ,2.4  ,0
34  ,5.624e+08   ,-2.4  ,-2.4  ,0
35  ,4.808e+08   ,-2.4  ,2.4  ,0
36  ,3.112e+10   ,2.4577  ,2.4577  ,4.6908
37  ,8.974e+08   ,-2.3  ,2.3  ,4.8
38  ,1.282e+10   ,2.1599  ,2.3  ,4.8
39  ,1.142e+10   ,2.3  ,2.1599  ,4.8
40  ,1.263e+10   ,2.3  ,2.3  ,4.6599
41  ,9.822e+08   ,2.3  ,2.3  ,0.2
42  ,1.039e+09   ,-2.3  ,2.3  ,0.2
43  ,1.029e+09   ,-2.4  ,2.2  ,5
44  ,1.286e+09   ,-2.4  ,2  ,5
45  ,1.179e+09   ,-2.4  ,1.8  ,5
46  ,1.151e+09   ,-2.4  ,1.6  ,5
47  ,1.188e+09   ,-2.4  ,1.4  ,5
48  ,1.313e+09   ,-2.4  ,1.2  ,5
49  ,1.669e+09   ,-2.4  ,1  ,5
50  ,2.124e+09   ,-2.4  ,0.8  ,5
51  ,1.336e+09   ,-2.4  ,0.6  ,5
52  ,1.134e+09   ,-2.4  ,0.4  ,5
53  ,1.352e+09   ,-2.4  ,0.2  ,5
54  ,1.316e+09   ,-2.4  ,5.8879E-16  ,5
55  ,9.942e+08   ,-2.4  ,-0.2  ,5
56  ,5.056e+08   ,-2.4  ,-0.4  ,5
57  ,3.735e+08   ,-2.4  ,-0.6  ,5
58  ,4.771e+08   ,-2.4  ,-0.8  ,5
59  ,7.883e+08   ,-2.4  ,-1  ,5
60  ,7.776e+08   ,-2.4  ,-1.2  ,5
61  ,1.491e+09   ,-2.4  ,-1.4  ,5
62  ,1.411e+09   ,-2.4  ,-1.6  ,5
63  ,1.543e+09   ,-2.4  ,-1.8  ,5
64  ,2.159e+09   ,-2.4  ,-2  ,5
65  ,1.859e+09   ,-2.4  ,-2.2  ,5
66  ,3.904e+09   ,-2.2  ,-2.4  ,5
67  ,2.661e+09   ,-2  ,-2.4  ,5
68  ,2.145e+09   ,-1.8  ,-2.4  ,5
69  ,1.647e+09   ,-1.6  ,-2.4  ,5
70  ,1.420e+09   ,-1.4  ,-2.4  ,5
71  ,1.365e+09   ,-1.2  ,-2.4  ,5
72  ,1.267e+09   ,-1  ,-2.4  ,5
73  ,1.244e+09   ,-0.8  ,-2.4  ,5
74  ,1.263e+09   ,-0.6  ,-2.4  ,5
75  ,1.845e+09   ,-0.4  ,-2.4  ,5
76  ,2.335e+09   ,-0.2  ,-2.4  ,5
77  ,3.160e+09   ,-5.8879E-16  ,-2.4  ,5
78  ,3.351e+09   ,0.2  ,-2.4  ,5
79  ,3.454e+09   ,0.4  ,-2.4  ,5
80  ,4.059e+09   ,0.6  ,-2.4  ,5
81  ,3.951e+09   ,0.8  ,-2.4  ,5
82  ,3.591e+09   ,1  ,-2.4  ,5
83  ,3.025e+09   ,1.2  ,-2.4  ,5
84  ,2.158e+09   ,1.4  ,-2.4  ,5
85  ,9.636e+08   ,1.6  ,-2.4  ,5
86  ,2.393e+09   ,1.8  ,-2.4  ,5
87  ,4.247e+09   ,2  ,-2.4  ,5
88  ,9.350e+09   ,2.2  ,-2.4  ,5
89  ,5.120e+09   ,2.4  ,-2.2029  ,5
90  ,5.681e+09   ,2.4  ,-2.0058  ,5
91  ,4.276e+09   ,2.4  ,-1.8087  ,5
92  ,4.107e+09   ,2.4  ,-1.6116  ,5
93  ,4.506e+09   ,2.4  ,-1.4145  ,5
94  ,3.960e+09   ,2.4  ,-1.2175  ,5
95  ,4.289e+09   ,2.4  ,-1.0204  ,5
96  ,4.239e+09   ,2.4  ,-0.82327  ,5
97  ,4.146e+09   ,2.4  ,-0.62618  ,5
98  ,3.593e+09   ,2.4  ,-0.42909  ,5
99  ,3.295e+09   ,2.4  ,-0.232  ,5
100  ,2.912e+09   ,2.4  ,-0.034907  ,5
101  ,2.409e+09   ,2.4  ,0.16218  ,5
102  ,2.155e+09   ,2.4  ,0.35927  ,5
103  ,2.402e+09   ,2.4  ,0.55637  ,5
104  ,2.129e+09   ,2.4  ,0.75346  ,5
105  ,1.822e+09   ,2.4  ,0.95055  ,5
106  ,2.164e+09   ,2.4  ,1.1476  ,5
107  ,2.942e+09   ,2.4  ,1.3447  ,5
108  ,3.716e+09   ,2.4  ,1.5418  ,5
109  ,4.763e+09   ,2.4  ,1.7389  ,5
110  ,6.274e+09   ,2.4  ,1.936  ,5
111  ,1.007e+10   ,2.2665  ,2.2665  ,5
112  ,1.048e+10   ,1.936  ,2.4  ,5
113  ,5.915e+09   ,1.7389  ,2.4  ,5
114  ,4.581e+09   ,1.5418  ,2.4  ,5
115  ,3.238e+09   ,1.3447  ,2.4  ,5
116  ,2.741e+09   ,1.1476  ,2.4  ,5
117  ,2.578e+09   ,0.95055  ,2.4  ,5
118  ,2.644e+09   ,0.75346  ,2.4  ,5
119  ,2.747e+09   ,0.55637  ,2.4  ,5
120  ,2.040e+09   ,0.35927  ,2.4  ,5
121  ,1.934e+09   ,0.16218  ,2.4  ,5
122  ,2.275e+09   ,-0.034907  ,2.4  ,5
123  ,2.809e+09   ,-0.232  ,2.4  ,5
124  ,2.774e+09   ,-0.42909  ,2.4  ,5
125  ,2.626e+09   ,-0.62618  ,2.4  ,5
126  ,3.702e+09   ,-0.82327  ,2.4  ,5
127  ,4.015e+09   ,-1.0204  ,2.4  ,5
128  ,3.875e+09   ,-1.2175  ,2.4  ,5
129  ,3.144e+09   ,-1.4145  ,2.4  ,5
130  ,2.287e+09   ,-1.6116  ,2.4  ,5
131  ,1.528e+09   ,-1.8087  ,2.4  ,5
132  ,1.173e+09   ,-2.0058  ,2.4  ,5
133  ,7.798e+08   ,-2.2029  ,2.4  ,5
294  ,4.358e+09   ,2.5  ,-2.2029  ,4.9
295  ,5.496e+09   ,2.5  ,-2.0058  ,4.9
296  ,4.242e+09   ,2.5  ,-1.8087  ,4.9
297  ,4.500e+09   ,2.5  ,-1.6116  ,4.9
298  ,3.846e+09   ,2.5  ,-1.4145  ,4.9
299  ,4.039e+09   ,2.5  ,-1.2175  ,4.9
300  ,4.565e+09   ,2.5  ,-1.0204  ,4.9
301  ,3.432e+09   ,2.5  ,-0.82327  ,4.9
302  ,4.002e+09   ,2.5  ,-0.62618  ,4.9
303  ,3.754e+09   ,2.5  ,-0.42909  ,4.9
304  ,4.063e+09   ,2.5  ,-0.232  ,4.9
305  ,4.316e+09   ,2.5  ,-0.034907  ,4.9
306  ,3.089e+09   ,2.5  ,0.16218  ,4.9
307  ,2.427e+09   ,2.5  ,0.35927  ,4.9
308  ,2.355e+09   ,2.5  ,0.55637  ,4.9
309  ,1.950e+09   ,2.5  ,0.75346  ,4.9
310  ,2.385e+09   ,2.5  ,0.95055  ,4.9
311  ,2.669e+09   ,2.5  ,1.1476  ,4.9
312  ,3.100e+09   ,2.5  ,1.3447  ,4.9
313  ,3.750e+09   ,2.5  ,1.5418  ,4.9
314  ,4.955e+09   ,2.5  ,1.7389  ,4.9
315  ,6.613e+09   ,2.5  ,1.936  ,4.9
316  ,9.284e+09   ,2.5  ,-2.4  ,4.7
317  ,4.008e+09   ,2.5  ,-2.4  ,4.5
318  ,2.498e+09   ,2.5  ,-2.4  ,4.3
319  ,1.013e+09   ,2.5  ,-2.4  ,4.1
320  ,1.985e+09   ,2.5  ,-2.4  ,3.9
321  ,2.782e+09   ,2.5  ,-2.4  ,3.7
322  ,3.629e+09   ,2.5  ,-2.4  ,3.5
323  ,4.132e+09   ,2.5  ,-2.4  ,3.3
324  ,4.023e+09   ,2.5  ,-2.4  ,3.1
325  ,3.445e+09   ,2.5  ,-2.4  ,2.9
326  ,3.212e+09   ,2.5  ,-2.4  ,2.7
327  ,2.987e+09   ,2.5  ,-2.4  ,2.5
328  ,2.354e+09   ,2.5  ,-2.4  ,2.3
329  ,1.997e+09   ,2.5  ,-2.4  ,2.1
330  ,1.396e+09   ,2.5  ,-2.4  ,1.9
331  ,1.071e+09   ,2.5  ,-2.4  ,1.7
332  ,1.003e+09   ,2.5  ,-2.4  ,1.5
333  ,1.124e+09   ,2.5  ,-2.4  ,1.3
334  ,1.211e+09   ,2.5  ,-2.4  ,1.1
335  ,1.504e+09   ,2.5  ,-2.4  ,0.9
336  ,2.215e+09   ,2.5  ,-2.4  ,0.7
337  ,2.659e+09   ,2.5  ,-2.4  ,0.5
338  ,3.604e+09   ,2.5  ,-2.4  ,0.3
339  ,1.844e+09   ,2.5  ,-2.2  ,0.1
340  ,2.061e+09   ,2.5  ,-2  ,0.1
341  ,1.427e+09   ,2.5  ,-1.8  ,0.1
342  ,1.374e+09   ,2.5  ,-1.6  ,0.1
343  ,9.051e+08   ,2.5  ,-1.4  ,0.1
344  ,8.534e+08   ,2.5  ,-1.2  ,0.1
345  ,7.898e+08   ,2.5  ,-1  ,0.1
346  ,4.554e+08   ,2.5  ,-0.8  ,0.1
347  ,3.506e+08   ,2.5  ,-0.6  ,0.1
348  ,3.151e+08   ,2.5  ,-0.4  ,0.1
349  ,6.064e+08   ,2.5  ,-0.2  ,0.1
350  ,8.488e+08   ,2.5  ,-1.7664E-15  ,0.1
351  ,9.933e+08   ,2.5  ,0.2  ,0.1
352  ,1.155e+09   ,2.5  ,0.4  ,0.1
353  ,1.728e+09   ,2.5  ,0.6  ,0.1
354  ,2.222e+09   ,2.5  ,0.8  ,0.1
355  ,1.626e+09   ,2.5  ,1  ,0.1
356  ,1.517e+09   ,2.5  ,1.2  ,0.1
357  ,1.232e+09   ,2.5  ,1.4  ,0.1
358  ,1.164e+09   ,2.5  ,1.6  ,0.1
359  ,9.854e+08   ,2.5  ,1.8  ,0.1
360  ,1.011e+09   ,2.5  ,2  ,0.1
361  ,1.132e+09   ,2.5  ,2.2  ,0.1
362  ,1.149e+10   ,2.5  ,2.4  ,4.436
363  ,7.245e+09   ,2.5  ,2.4  ,4.2389
364  ,4.423e+09   ,2.5  ,2.4  ,4.0418
365  ,3.533e+09   ,2.5  ,2.4  ,3.8447
366  ,3.060e+09   ,2.5  ,2.4  ,3.6476
367  ,2.700e+09   ,2.5  ,2.4  ,3.4505
368  ,2.566e+09   ,2.5  ,2.4  ,3.2535
369  ,2.511e+09   ,2.5  ,2.4  ,3.0564
370  ,2.475e+09   ,2.5  ,2.4  ,2.8593
371  ,2.213e+09   ,2.5  ,2.4  ,2.6622
372  ,2.671e+09   ,2.5  ,2.4  ,2.4651
373  ,2.791e+09   ,2.5  ,2.4  ,2.268
374  ,3.247e+09   ,2.5  ,2.4  ,2.0709
375  ,3.139e+09   ,2.5  ,2.4  ,1.8738
376  ,3.632e+09   ,2.5  ,2.4  ,1.6767
377  ,3.009e+09   ,2.5  ,2.4  ,1.4796
378  ,3.203e+09   ,2.5  ,2.4  ,1.2825
379  ,3.035e+09   ,2.5  ,2.4  ,1.0855
380  ,2.827e+09   ,2.5  ,2.4  ,0.88836
381  ,2.262e+09   ,2.5  ,2.4  ,0.69127
382  ,1.396e+09   ,2.5  ,2.4  ,0.49418
383  ,7.752e+08   ,2.5  ,2.4  ,0.29709
384  ,1.003e+10   ,2.5  ,2.2665  ,4.7665
544  ,1.080e+09   ,2.2  ,2.5  ,0.1
545  ,1.505e+09   ,2  ,2.5  ,0.1
546  ,1.584e+09   ,1.8  ,2.5  ,0.1
547  ,1.799e+09   ,1.6  ,2.5  ,0.1
548  ,1.529e+09   ,1.4  ,2.5  ,0.1
549  ,1.845e+09   ,1.2  ,2.5  ,0.1
550  ,2.096e+09   ,1  ,2.5  ,0.1
551  ,2.777e+09   ,0.8  ,2.5  ,0.1
552  ,2.098e+09   ,0.6  ,2.5  ,0.1
553  ,1.233e+09   ,0.4  ,2.5  ,0.1
554  ,1.029e+09   ,0.2  ,2.5  ,0.1
555  ,6.386e+08   ,5.8879E-16  ,2.5  ,0.1
556  ,1.468e+09   ,-0.2  ,2.5  ,0.1
557  ,1.325e+09   ,-0.4  ,2.5  ,0.1
558  ,1.259e+09   ,-0.6  ,2.5  ,0.1
559  ,1.987e+09   ,-0.8  ,2.5  ,0.1
560  ,2.049e+09   ,-1  ,2.5  ,0.1
561  ,2.236e+09   ,-1.2  ,2.5  ,0.1
562  ,2.088e+09   ,-1.4  ,2.5  ,0.1
563  ,2.091e+09   ,-1.6  ,2.5  ,0.1
564  ,2.002e+09   ,-1.8  ,2.5  ,0.1
565  ,1.826e+09   ,-2  ,2.5  ,0.1
566  ,1.411e+09   ,-2.2  ,2.5  ,0.1
567  ,1.013e+09   ,-2.4  ,2.5  ,4.7
568  ,1.522e+09   ,-2.4  ,2.5  ,4.5
569  ,1.551e+09   ,-2.4  ,2.5  ,4.3
570  ,1.733e+09   ,-2.4  ,2.5  ,4.1
571  ,1.468e+09   ,-2.4  ,2.5  ,3.9
572  ,1.497e+09   ,-2.4  ,2.5  ,3.7
573  ,1.825e+09   ,-2.4  ,2.5  ,3.5
574  ,2.664e+09   ,-2.4  ,2.5  ,3.3
575  ,1.955e+09   ,-2.4  ,2.5  ,3.1
576  ,1.422e+09   ,-2.4  ,2.5  ,2.9
577  ,1.353e+09   ,-2.4  ,2.5  ,2.7
578  ,9.057e+08   ,-2.4  ,2.5  ,2.5
579  ,9.991e+08   ,-2.4  ,2.5  ,2.3
580  ,1.192e+09   ,-2.4  ,2.5  ,2.1
581  ,1.274e+09   ,-2.4  ,2.5  ,1.9
582  ,1.936e+09   ,-2.4  ,2.5  ,1.7
583  ,1.923e+09   ,-2.4  ,2.5  ,1.5
584  ,2.135e+09   ,-2.4  ,2.5  ,1.3
585  ,2.105e+09   ,-2.4  ,2.5  ,1.1
586  ,2.138e+09   ,-2.4  ,2.5  ,0.9
587  ,1.968e+09   ,-2.4  ,2.5  ,0.7
588  ,1.767e+09   ,-2.4  ,2.5  ,0.5
589  ,1.454e+09   ,-2.4  ,2.5  ,0.3
590  ,1.312e+10   ,1.936  ,2.5  ,4.9
591  ,5.289e+09   ,1.7389  ,2.5  ,4.9
592  ,3.930e+09   ,1.5418  ,2.5  ,4.9
593  ,3.104e+09   ,1.3447  ,2.5  ,4.9
594  ,2.379e+09   ,1.1476  ,2.5  ,4.9
595  ,2.638e+09   ,0.95055  ,2.5  ,4.9
596  ,2.643e+09   ,0.75346  ,2.5  ,4.9
597  ,2.562e+09   ,0.55637  ,2.5  ,4.9
598  ,2.316e+09   ,0.35927  ,2.5  ,4.9
599  ,2.017e+09   ,0.16218  ,2.5  ,4.9
600  ,2.081e+09   ,-0.034907  ,2.5  ,4.9
601  ,2.359e+09   ,-0.232  ,2.5  ,4.9
602  ,3.905e+09   ,-0.42909  ,2.5  ,4.9
603  ,4.015e+09   ,-0.62618  ,2.5  ,4.9
604  ,4.051e+09   ,-0.82327  ,2.5  ,4.9
605  ,4.520e+09   ,-1.0204  ,2.5  ,4.9
606  ,4.035e+09   ,-1.2175  ,2.5  ,4.9
607  ,3.180e+09   ,-1.4145  ,2.5  ,4.9
608  ,2.634e+09   ,-1.6116  ,2.5  ,4.9
609  ,1.930e+09   ,-1.8087  ,2.5  ,4.9
610  ,1.323e+09   ,-2.0058  ,2.5  ,4.9
611  ,7.356e+08   ,-2.2029  ,2.5  ,4.9
612  ,1.794e+10   ,2.2665  ,2.5  ,4.7665
613  ,1.118e+10   ,2.4  ,2.5  ,4.436
614  ,6.931e+09   ,2.4  ,2.5  ,4.2389
615  ,4.377e+09   ,2.4  ,2.5  ,4.0418
616  ,3.090e+09   ,2.4  ,2.5  ,3.8447
617  ,2.857e+09   ,2.4  ,2.5  ,3.6476
618  ,2.506e+09   ,2.4  ,2.5  ,3.4505
619  ,2.532e+09   ,2.4  ,2.5  ,3.2535
620  ,2.615e+09   ,2.4  ,2.5  ,3.0564
621  ,2.184e+09   ,2.4  ,2.5  ,2.8593
622  ,2.195e+09   ,2.4  ,2.5  ,2.6622
623  ,2.155e+09   ,2.4  ,2.5  ,2.4651
624  ,2.348e+09   ,2.4  ,2.5  ,2.268
625  ,2.568e+09   ,2.4  ,2.5  ,2.0709
626  ,3.176e+09   ,2.4  ,2.5  ,1.8738
627  ,3.845e+09   ,2.4  ,2.5  ,1.6767
628  ,4.276e+09   ,2.4  ,2.5  ,1.4796
629  ,4.518e+09   ,2.4  ,2.5  ,1.2825
630  ,3.213e+09   ,2.4  ,2.5  ,1.0855
631  ,2.531e+09   ,2.4  ,2.5  ,0.88836
632  ,1.896e+09   ,2.4  ,2.5  ,0.69127
633  ,1.586e+09   ,2.4  ,2.5  ,0.49418
634  ,8.557e+08   ,2.4  ,2.5  ,0.29709
796  ,8.827e+08   ,-2.5  ,2.2  ,0.1
797  ,1.202e+09   ,-2.5  ,2  ,0.1
798  ,1.539e+09   ,-2.5  ,1.8  ,0.1
799  ,1.604e+09   ,-2.5  ,1.6  ,0.1
800  ,1.767e+09   ,-2.5  ,1.4  ,0.1
801  ,1.910e+09   ,-2.5  ,1.2  ,0.1
802  ,1.856e+09   ,-2.5  ,1  ,0.1
803  ,1.843e+09   ,-2.5  ,0.8  ,0.1
804  ,1.837e+09   ,-2.5  ,0.6  ,0.1
805  ,1.899e+09   ,-2.5  ,0.4  ,0.1
806  ,1.655e+09   ,-2.5  ,0.2  ,0.1
807  ,1.586e+09   ,-2.5  ,5.8879E-16  ,0.1
808  ,1.596e+09   ,-2.5  ,-0.2  ,0.1
809  ,1.652e+09   ,-2.5  ,-0.4  ,0.1
810  ,1.728e+09   ,-2.5  ,-0.6  ,0.1
811  ,1.584e+09   ,-2.5  ,-0.8  ,0.1
812  ,1.753e+09   ,-2.5  ,-1  ,0.1
813  ,1.487e+09   ,-2.5  ,-1.2  ,0.1
814  ,1.444e+09   ,-2.5  ,-1.4  ,0.1
815  ,1.122e+09   ,-2.5  ,-1.6  ,0.1
816  ,7.503e+08   ,-2.5  ,-1.8  ,0.1
817  ,6.207e+08   ,-2.5  ,-2  ,0.1
818  ,1.564e+08   ,-2.5  ,-2.2  ,0.1
819  ,3.440e+09   ,-2.5  ,-2.4  ,4.7
820  ,2.108e+09   ,-2.5  ,-2.4  ,4.5
821  ,1.672e+09   ,-2.5  ,-2.4  ,4.3
822  ,2.864e+09   ,-2.5  ,-2.4  ,4.1
823  ,3.786e+09   ,-2.5  ,-2.4  ,3.9
824  ,4.182e+09   ,-2.5  ,-2.4  ,3.7
825  ,4.526e+09   ,-2.5  ,-2.4  ,3.5
826  ,3.957e+09   ,-2.5  ,-2.4  ,3.3
827  ,4.060e+09   ,-2.5  ,-2.4  ,3.1
828  ,3.552e+09   ,-2.5  ,-2.4  ,2.9
829  ,3.263e+09   ,-2.5  ,-2.4  ,2.7
830  ,3.470e+09   ,-2.5  ,-2.4  ,2.5
831  ,2.514e+09   ,-2.5  ,-2.4  ,2.3
832  ,2.133e+09   ,-2.5  ,-2.4  ,2.1
833  ,1.414e+09   ,-2.5  ,-2.4  ,1.9
834  ,7.814e+08   ,-2.5  ,-2.4  ,1.7
835  ,7.693e+08   ,-2.5  ,-2.4  ,1.5
836  ,1.470e+09   ,-2.5  ,-2.4  ,1.3
837  ,1.981e+09   ,-2.5  ,-2.4  ,1.1
838  ,2.391e+09   ,-2.5  ,-2.4  ,0.9
839  ,2.760e+09   ,-2.5  ,-2.4  ,0.7
840  ,2.593e+09   ,-2.5  ,-2.4  ,0.5
841  ,1.221e+09   ,-2.5  ,-2.4  ,0.3
842  ,9.740e+08   ,-2.5  ,2.2  ,4.9
843  ,1.215e+09   ,-2.5  ,2  ,4.9
844  ,1.164e+09   ,-2.5  ,1.8  ,4.9
845  ,1.102e+09   ,-2.5  ,1.6  ,4.9
846  ,1.055e+09   ,-2.5  ,1.4  ,4.9
847  ,1.092e+09   ,-2.5  ,1.2  ,4.9
848  ,1.191e+09   ,-2.5  ,1  ,4.9
849  ,1.720e+09   ,-2.5  ,0.8  ,4.9
850  ,1.771e+09   ,-2.5  ,0.6  ,4.9
851  ,1.607e+09   ,-2.5  ,0.4  ,4.9
852  ,1.480e+09   ,-2.5  ,0.2  ,4.9
853  ,9.832e+08   ,-2.5  ,5.8879E-16  ,4.9
854  ,9.295e+08   ,-2.5  ,-0.2  ,4.9
855  ,6.226e+08   ,-2.5  ,-0.4  ,4.9
856  ,5.732e+08   ,-2.5  ,-0.6  ,4.9
857  ,6.514e+08   ,-2.5  ,-0.8  ,4.9
858  ,7.649e+08   ,-2.5  ,-1  ,4.9
859  ,8.118e+08   ,-2.5  ,-1.2  ,4.9
860  ,1.083e+09   ,-2.5  ,-1.4  ,4.9
861  ,1.070e+09   ,-2.5  ,-1.6  ,4.9
862  ,1.248e+09   ,-2.5  ,-1.8  ,4.9
863  ,1.663e+09   ,-2.5  ,-2  ,4.9
864  ,1.696e+09   ,-2.5  ,-2.2  ,4.9
865  ,1.030e+09   ,-2.5  ,2.4  ,4.7
866  ,1.495e+09   ,-2.5  ,2.4  ,4.5
867  ,1.586e+09   ,-2.5  ,2.4  ,4.3
868  ,1.226e+09   ,-2.5  ,2.4  ,4.1
869  ,1.415e+09   ,-2.5  ,2.4  ,3.9
870  ,1.394e+09   ,-2.5  ,2.4  ,3.7
871  ,1.633e+09   ,-2.5  ,2.4  ,3.5
872  ,2.231e+09   ,-2.5  ,2.4  ,3.3
873  ,1.912e+09   ,-2.5  ,2.4  ,3.1
874  ,1.147e+09   ,-2.5  ,2.4  ,2.9
875  ,1.155e+09   ,-2.5  ,2.4  ,2.7
876  ,1.155e+09   ,-2.5  ,2.4  ,2.5
877  ,1.082e+09   ,-2.5  ,2.4  ,2.3
878  ,1.151e+09   ,-2.5  ,2.4  ,2.1
879  ,8.310e+08   ,-2.5  ,2.4  ,1.9
880  ,1.630e+09   ,-2.5  ,2.4  ,1.7
881  ,2.151e+09   ,-2.5  ,2.4  ,1.5
882  ,2.392e+09   ,-2.5  ,2.4  ,1.3
883  ,2.142e+09   ,-2.5  ,2.4  ,1.1
884  ,2.133e+09   ,-2.5  ,2.4  ,0.9
885  ,1.952e+09   ,-2.5  ,2.4  ,0.7
886  ,1.860e+09   ,-2.5  ,2.4  ,0.5
887  ,1.460e+09   ,-2.5  ,2.4  ,0.3
1044  ,1.007e+09   ,-2.3  ,-2.5  ,0.44697
1045  ,1.584e+09   ,-2.3  ,-2.5  ,0.68705
1046  ,1.492e+09   ,-2.3  ,-2.5  ,0.92554
1047  ,1.395e+09   ,-2.3  ,-2.5  ,1.1682
1048  ,7.641e+08   ,-2.3  ,-2.5  ,1.4148
1049  ,3.900e+08   ,-2.3  ,-2.5  ,1.6581
1050  ,9.855e+08   ,-2.3  ,-2.5  ,1.8967
1051  ,1.225e+09   ,-2.3  ,-2.5  ,2.1357
1052  ,1.751e+09   ,-2.3  ,-2.5  ,2.3794
1053  ,2.127e+09   ,-2.3  ,-2.5  ,2.6206
1054  ,2.231e+09   ,-2.3  ,-2.5  ,2.8643
1055  ,2.616e+09   ,-2.3  ,-2.5  ,3.1033
1056  ,2.765e+09   ,-2.3  ,-2.5  ,3.342
1057  ,2.773e+09   ,-2.3  ,-2.5  ,3.5852
1058  ,2.557e+09   ,-2.3  ,-2.5  ,3.8318
1059  ,1.829e+09   ,-2.3  ,-2.5  ,4.0745
1060  ,1.134e+09   ,-2.3  ,-2.5  ,4.3129
1061  ,2.305e+09   ,-2.3  ,-2.5  ,4.553
1062  ,3.753e+09   ,-2.053  ,-2.5  ,4.8
1063  ,2.450e+09   ,-1.8129  ,-2.5  ,4.8
1064  ,1.964e+09   ,-1.5745  ,-2.5  ,4.8
1065  ,1.440e+09   ,-1.3318  ,-2.5  ,4.8
1066  ,1.162e+09   ,-1.0852  ,-2.5  ,4.8
1067  ,9.985e+08   ,-0.84195  ,-2.5  ,4.8
1068  ,1.203e+09   ,-0.60329  ,-2.5  ,4.8
1069  ,1.513e+09   ,-0.3643  ,-2.5  ,4.8
1070  ,1.924e+09   ,-0.12055  ,-2.5  ,4.8
1071  ,2.105e+09   ,0.12056  ,-2.5  ,4.8
1072  ,2.095e+09   ,0.3643  ,-2.5  ,4.8
1073  ,2.054e+09   ,0.6033  ,-2.5  ,4.8
1074  ,2.048e+09   ,0.84195  ,-2.5  ,4.8
1075  ,1.134e+09   ,1.0852  ,-2.5  ,4.8
1076  ,5.673e+08   ,1.3318  ,-2.5  ,4.8
1077  ,1.970e+09   ,1.5745  ,-2.5  ,4.8
1078  ,4.004e+09   ,1.8129  ,-2.5  ,4.8
1079  ,8.086e+09   ,2.053  ,-2.5  ,4.8
1080  ,8.192e+09   ,2.3  ,-2.5  ,4.553
1081  ,4.030e+09   ,2.3  ,-2.5  ,4.3129
1082  ,2.068e+09   ,2.3  ,-2.5  ,4.0745
1083  ,5.073e+08   ,2.3  ,-2.5  ,3.8318
1084  ,8.892e+08   ,2.3  ,-2.5  ,3.5852
1085  ,2.111e+09   ,2.3  ,-2.5  ,3.3419
1086  ,2.286e+09   ,2.3  ,-2.5  ,3.1033
1087  ,2.086e+09   ,2.3  ,-2.5  ,2.8643
1088  ,1.927e+09   ,2.3  ,-2.5  ,2.6206
1089  ,1.955e+09   ,2.3  ,-2.5  ,2.3794
1090  ,1.671e+09   ,2.3  ,-2.5  ,2.1357
1091  ,1.444e+09   ,2.3  ,-2.5  ,1.8967
1092  ,1.158e+09   ,2.3  ,-2.5  ,1.658
1093  ,1.420e+09   ,2.3  ,-2.5  ,1.4148
1094  ,1.497e+09   ,2.3  ,-2.5  ,1.1682
1095  ,1.749e+09   ,2.3  ,-2.5  ,0.92554
1096  ,2.535e+09   ,2.3  ,-2.5  ,0.68705
1097  ,3.682e+09   ,2.3  ,-2.5  ,0.44697
1098  ,1.322e+09   ,-2.053  ,-2.5  ,0.2
1099  ,1.627e+09   ,-1.8129  ,-2.5  ,0.2
1100  ,1.633e+09   ,-1.5745  ,-2.5  ,0.2
1101  ,1.175e+09   ,-1.3318  ,-2.5  ,0.2
1102  ,4.477e+08   ,-1.0852  ,-2.5  ,0.2
1103  ,3.327e+08   ,-0.84195  ,-2.5  ,0.2
1104  ,7.691e+08   ,-0.60329  ,-2.5  ,0.2
1105  ,1.202e+09   ,-0.3643  ,-2.5  ,0.2
1106  ,1.558e+09   ,-0.12055  ,-2.5  ,0.2
1107  ,1.964e+09   ,0.12056  ,-2.5  ,0.2
1108  ,2.432e+09   ,0.3643  ,-2.5  ,0.2
1109  ,2.622e+09   ,0.6033  ,-2.5  ,0.2
1110  ,2.762e+09   ,0.84195  ,-2.5  ,0.2
1111  ,2.450e+09   ,1.0852  ,-2.5  ,0.2
1112  ,2.142e+09   ,1.3318  ,-2.5  ,0.2
1113  ,1.530e+09   ,1.5745  ,-2.5  ,0.2
1114  ,9.611e+08   ,1.8129  ,-2.5  ,0.2
1115  ,2.873e+09   ,2.053  ,-2.5  ,0.2
1116  ,1.506e+09   ,-2.2  ,-2.5  ,4.9
1117  ,7.664e+08   ,-2  ,-2.5  ,4.9
1118  ,8.569e+08   ,-1.8  ,-2.5  ,4.9
1119  ,9.798e+08   ,-1.6  ,-2.5  ,4.9
1120  ,8.904e+08   ,-1.4  ,-2.5  ,4.9
1121  ,7.602e+08   ,-1.2  ,-2.5  ,4.9
1122  ,4.983e+08   ,-1  ,-2.5  ,4.9
1123  ,2.005e+08   ,-0.8  ,-2.5  ,4.9
1124  ,1.510e+08   ,-0.6  ,-2.5  ,4.9
1125  ,3.714e+08   ,-0.4  ,-2.5  ,4.9
1126  ,7.626e+08   ,-0.2  ,-2.5  ,4.9
1127  ,6.644e+08   ,-1.7664E-15  ,-2.5  ,4.9
1128  ,7.641e+08   ,0.2  ,-2.5  ,4.9
1129  ,1.111e+09   ,0.4  ,-2.5  ,4.9
1130  ,9.866e+08   ,0.6  ,-2.5  ,4.9
1131  ,1.224e+09   ,0.8  ,-2.5  ,4.9
1132  ,1.312e+09   ,1  ,-2.5  ,4.9
1133  ,1.834e+09   ,1.2  ,-2.5  ,4.9
1134  ,1.797e+09   ,1.4  ,-2.5  ,4.9
1135  ,1.971e+09   ,1.6  ,-2.5  ,4.9
1136  ,2.335e+09   ,1.8  ,-2.5  ,4.9
1137  ,2.163e+09   ,2  ,-2.5  ,4.9
1138  ,1.833e+09   ,2.2  ,-2.5  ,4.9
1139  ,2.032e+09   ,-2.4  ,-2.5  ,4.7
1140  ,1.980e+09   ,-2.4  ,-2.5  ,4.5
1141  ,1.853e+09   ,-2.4  ,-2.5  ,4.3
1142  ,1.588e+09   ,-2.4  ,-2.5  ,4.1
1143  ,1.239e+09   ,-2.4  ,-2.5  ,3.9
1144  ,1.362e+09   ,-2.4  ,-2.5  ,3.7
1145  ,5.948e+08   ,-2.4  ,-2.5  ,3.5
1146  ,1.018e+09   ,-2.4  ,-2.5  ,3.3
1147  ,7.328e+08   ,-2.4  ,-2.5  ,3.1
1148  ,8.793e+08   ,-2.4  ,-2.5  ,2.9
1149  ,1.001e+09   ,-2.4  ,-2.5  ,2.7
1150  ,1.096e+09   ,-2.4  ,-2.5  ,2.5
1151  ,1.158e+09   ,-2.4  ,-2.5  ,2.3
1152  ,8.217e+08   ,-2.4  ,-2.5  ,2.1
1153  ,8.304e+08   ,-2.4  ,-2.5  ,1.9
1154  ,7.781e+08   ,-2.4  ,-2.5  ,1.7
1155  ,5.851e+08   ,-2.4  ,-2.5  ,1.5
1156  ,4.868e+08   ,-2.4  ,-2.5  ,1.3
1157  ,5.560e+08   ,-2.4  ,-2.5  ,1.1
1158  ,9.916e+08   ,-2.4  ,-2.5  ,0.9
1159  ,1.454e+09   ,-2.4  ,-2.5  ,0.7
1160  ,1.536e+09   ,-2.4  ,-2.5  ,0.5
1161  ,1.652e+09   ,-2.4  ,-2.5  ,0.3
1162  ,2.064e+09   ,-2.2  ,-2.5  ,0.1
1163  ,2.105e+09   ,-2  ,-2.5  ,0.1
1164  ,1.829e+09   ,-1.8  ,-2.5  ,0.1
1165  ,8.106e+08   ,-1.6  ,-2.5  ,0.1
1166  ,4.304e+08   ,-1.4  ,-2.5  ,0.1
1167  ,4.788e+08   ,-1.2  ,-2.5  ,0.1
1168  ,4.548e+08   ,-1  ,-2.5  ,0.1
1169  ,4.462e+08   ,-0.8  ,-2.5  ,0.1
1170  ,6.785e+08   ,-0.6  ,-2.5  ,0.1
1171  ,9.524e+08   ,-0.4  ,-2.5  ,0.1
1172  ,1.113e+09   ,-0.2  ,-2.5  ,0.1
1173  ,1.256e+09   ,-1.7664E-15  ,-2.5  ,0.1
1174  ,9.905e+08   ,0.2  ,-2.5  ,0.1
1175  ,7.914e+08   ,0.4  ,-2.5  ,0.1
1176  ,9.491e+08   ,0.6  ,-2.5  ,0.1
1177  ,5.608e+08   ,0.8  ,-2.5  ,0.1
1178  ,8.963e+08   ,1  ,-2.5  ,0.1
1179  ,1.076e+09   ,1.2  ,-2.5  ,0.1
1180  ,1.025e+09   ,1.4  ,-2.5  ,0.1
1181  ,1.373e+09   ,1.6  ,-2.5  ,0.1
1182  ,1.768e+09   ,1.8  ,-2.5  ,0.1
1183  ,1.965e+09   ,2  ,-2.5  ,0.1
1184  ,1.982e+09   ,2.2  ,-2.5  ,0.1
1185  ,1.963e+09   ,2.4  ,-2.5  ,4.7
1186  ,2.213e+09   ,2.4  ,-2.5  ,4.5
1187  ,2.279e+09   ,2.4  ,-2.5  ,4.3
1188  ,2.145e+09   ,2.4  ,-2.5  ,4.1
1189  ,1.745e+09   ,2.4  ,-2.5  ,3.9
1190  ,1.658e+09   ,2.4  ,-2.5  ,3.7
1191  ,1.267e+09   ,2.4  ,-2.5  ,3.5
1192  ,1.211e+09   ,2.4  ,-2.5  ,3.3
1193  ,1.298e+09   ,2.4  ,-2.5  ,3.1
1194  ,1.205e+09   ,2.4  ,-2.5  ,2.9
1195  ,8.261e+08   ,2.4  ,-2.5  ,2.7
1196  ,5.286e+08   ,2.4  ,-2.5  ,2.5
1197  ,5.946e+08   ,2.4  ,-2.5  ,2.3
1198  ,3.588e+08   ,2.4  ,-2.5  ,2.1
1199  ,3.056e+08   ,2.4  ,-2.5  ,1.9
1200  ,1.616e+08   ,2.4  ,-2.5  ,1.7
1201  ,4.404e+08   ,2.4  ,-2.5  ,1.5
1202  ,7.092e+08   ,2.4  ,-2.5  ,1.3
1203  ,8.590e+08   ,2.4  ,-2.5  ,1.1
1204  ,1.062e+09   ,2.4  ,-2.5  ,0.9
1205  ,1.139e+09   ,2.4  ,-2.5  ,0.7
1206  ,9.820e+08   ,2.4  ,-2.5  ,0.5
1207  ,1.368e+09   ,2.4  ,-2.5  ,0.3
1208  ,1.664e+09   ,2.4  ,-2.2  ,0
1209  ,1.634e+09   ,2.4  ,-2  ,0
1210  ,1.207e+09   ,2.4  ,-1.8  ,0
1211  ,1.039e+09   ,2.4  ,-1.6  ,0
1212  ,1.070e+09   ,2.4  ,-1.4  ,0
1213  ,8.427e+08   ,2.4  ,-1.2  ,0
1214  ,7.504e+08   ,2.4  ,-1  ,0
1215  ,5.984e+08   ,2.4  ,-0.8  ,0
1216  ,4.730e+08   ,2.4  ,-0.6  ,0
1217  ,4.640e+08   ,2.4  ,-0.4  ,0
1218  ,6.836e+08   ,2.4  ,-0.2  ,0
1219  ,8.339e+08   ,2.4  ,-1.7664E-15  ,0
1220  ,1.048e+09   ,2.4  ,0.2  ,0
1221  ,1.355e+09   ,2.4  ,0.4  ,0
1222  ,1.705e+09   ,2.4  ,0.6  ,0
1223  ,1.836e+09   ,2.4  ,0.8  ,0
1224  ,1.385e+09   ,2.4  ,1  ,0
1225  ,1.321e+09   ,2.4  ,1.2  ,0
1226  ,1.186e+09   ,2.4  ,1.4  ,0
1227  ,1.077e+09   ,2.4  ,1.6  ,0
1228  ,1.339e+09   ,2.4  ,1.8  ,0
1229  ,1.256e+09   ,2.4  ,2  ,0
1230  ,1.020e+09   ,2.4  ,2.2  ,0
1231  ,1.536e+09   ,-2.2  ,-2.4  ,0
1232  ,2.703e+09   ,-2  ,-2.4  ,0
1233  ,3.101e+09   ,-1.8  ,-2.4  ,0
1234  ,2.634e+09   ,-1.6  ,-2.4  ,0
1235  ,1.863e+09   ,-1.4  ,-2.4  ,0
1236  ,1.180e+09   ,-1.2  ,-2.4  ,0
1237  ,3.496e+08   ,-1  ,-2.4  ,0
1238  ,6.070e+08   ,-0.8  ,-2.4  ,0
1239  ,1.414e+09   ,-0.6  ,-2.4  ,0
1240  ,2.250e+09   ,-0.4  ,-2.4  ,0
1241  ,2.817e+09   ,-0.2  ,-2.4  ,0
1242  ,3.327e+09   ,5.8879E-16  ,-2.4  ,0
1243  ,3.480e+09   ,0.2  ,-2.4  ,0
1244  ,3.673e+09   ,0.4  ,-2.4  ,0
1245  ,3.606e+09   ,0.6  ,-2.4  ,0
1246  ,4.226e+09   ,0.8  ,-2.4  ,0
1247  ,4.057e+09   ,1  ,-2.4  ,0
1248  ,4.161e+09   ,1.2  ,-2.4  ,0
1249  ,3.657e+09   ,1.4  ,-2.4  ,0
1250  ,2.761e+09   ,1.6  ,-2.4  ,0
1251  ,1.489e+09   ,1.8  ,-2.4  ,0
1252  ,1.781e+09   ,2  ,-2.4  ,0
1253  ,3.842e+09   ,2.2  ,-2.4  ,0
1254  ,8.249e+08   ,-2.4  ,2.2  ,0
1255  ,1.392e+09   ,-2.4  ,2  ,0
1256  ,1.498e+09   ,-2.4  ,1.8  ,0
1257  ,1.707e+09   ,-2.4  ,1.6  ,0
1258  ,1.942e+09   ,-2.4  ,1.4  ,0
1259  ,2.116e+09   ,-2.4  ,1.2  ,0
1260  ,1.936e+09   ,-2.4  ,1  ,0
1261  ,1.846e+09   ,-2.4  ,0.8  ,0
1262  ,1.688e+09   ,-2.4  ,0.6  ,0
1263  ,1.620e+09   ,-2.4  ,0.4  ,0
1264  ,1.586e+09   ,-2.4  ,0.2  ,0
1265  ,1.637e+09   ,-2.4  ,5.8879E-16  ,0
1266  ,1.912e+09   ,-2.4  ,-0.2  ,0
1267  ,1.628e+09   ,-2.4  ,-0.4  ,0
1268  ,1.765e+09   ,-2.4  ,-0.6  ,0
1269  ,1.606e+09   ,-2.4  ,-0.8  ,0
1270  ,1.806e+09   ,-2.4  ,-1  ,0
1271  ,1.640e+09   ,-2.4  ,-1.2  ,0
1272  ,1.255e+09   ,-2.4  ,-1.4  ,0
1273  ,1.045e+09   ,-2.4  ,-1.6  ,0
1274  ,8.046e+08   ,-2.4  ,-1.8  ,0
1275  ,6.879e+08   ,-2.4  ,-2  ,0
1276  ,3.630e+08   ,-2.4  ,-2.2  ,0
1277  ,9.624e+08   ,2.2  ,2.4  ,0
1278  ,1.290e+09   ,2  ,2.4  ,0
1279  ,1.517e+09   ,1.8  ,2.4  ,0
1280  ,1.226e+09   ,1.6  ,2.4  ,0
1281  ,9.957e+08   ,1.4  ,2.4  ,0
1282  ,1.306e+09   ,1.2  ,2.4  ,0
1283  ,1.604e+09   ,1  ,2.4  ,0
1284  ,2.242e+09   ,0.8  ,2.4  ,0
1285  ,1.922e+09   ,0.6  ,2.4  ,0
1286  ,1.028e+09   ,0.4  ,2.4  ,0
1287  ,7.410e+08   ,0.2  ,2.4  ,0
1288  ,4.724e+08   ,5.8879E-16  ,2.4  ,0
1289  ,7.992e+08   ,-0.2  ,2.4  ,0
1290  ,1.144e+09   ,-0.4  ,2.4  ,0
1291  ,8.209e+08   ,-0.6  ,2.4  ,0
1292  ,1.645e+09   ,-0.8  ,2.4  ,0
1293  ,2.209e+09   ,-1  ,2.4  ,0
1294  ,2.456e+09   ,-1.2  ,2.4  ,0
1295  ,2.171e+09   ,-1.4  ,2.4  ,0
1296  ,2.055e+09   ,-1.6  ,2.4  ,0
1297  ,1.945e+09   ,-1.8  ,2.4  ,0
1298  ,1.650e+09   ,-2  ,2.4  ,0
1299  ,1.493e+09   ,-2.2  ,2.4  ,0
1460  ,1.219e+10   ,2.3243  ,2.3243  ,4.9577
1461  ,1.118e+10   ,2.4577  ,2.3243  ,4.8243
1462  ,9.771e+09   ,2.3243  ,2.4577  ,4.8243
1463  ,1.508e+09   ,-2.3  ,-2.1759  ,4.8
1464  ,1.028e+09   ,-2.3  ,-1.7631  ,4.8
1465  ,1.338e+09   ,-2.3  ,-1.1827  ,4.8
1466  ,2.464e+09   ,-2.3  ,-0.34986  ,4.8
1467  ,2.963e+09   ,-2.3  ,0.80545  ,4.8
1468  ,2.886e+09   ,-0.81337  ,2.3  ,4.8
1469  ,3.671e+09   ,0.67326  ,2.3  ,4.8
1470  ,4.127e+09   ,2.3  ,-2.1824  ,4.8
1471  ,2.840e+09   ,2.3  ,-1.7784  ,4.8
1472  ,3.192e+09   ,2.3  ,-1.2138  ,4.8
1473  ,3.807e+09   ,2.3  ,-0.40752  ,4.8
1474  ,3.215e+09   ,2.3  ,0.70532  ,4.8
1516  ,2.852e+09   ,2.3  ,2.3  ,1.6866
1517  ,3.775e+09   ,2.3  ,2.3  ,3.1733
1518  ,1.510e+09   ,2.3  ,-2.1759  ,0.2
1519  ,9.322e+08   ,2.3  ,-1.7631  ,0.2
1520  ,1.286e+09   ,2.3  ,-1.1827  ,0.2
1521  ,2.407e+09   ,2.3  ,-0.34986  ,0.2
1522  ,3.153e+09   ,2.3  ,0.80545  ,0.2
1564  ,1.439e+09   ,-0.76667  ,2.3  ,0.2
1565  ,2.721e+09   ,0.76667  ,2.3  ,0.2
1566  ,1.364e+09   ,-2.3  ,2.3  ,1.7333
1567  ,2.887e+09   ,-2.3  ,2.3  ,3.2667
1574  ,8.415e+08   ,-2.3  ,-2.1759  ,0.2
1575  ,5.839e+08   ,-2.3  ,-1.7631  ,0.2
1576  ,4.971e+08   ,-2.3  ,-1.1827  ,0.2
1577  ,2.027e+08   ,-2.3  ,-0.34986  ,0.2
1578  ,3.078e+08   ,-2.3  ,0.80545  ,0.2
1777  ,4.098e+09   ,-0.52764  ,2.5  ,4.9
1801  ,2.133e+09   ,-2.3  ,1.5527  ,0.2
1825  ,1.771e+09   ,-1.5333  ,2.3  ,0.2
1841  ,2.129e+09   ,0.063638  ,2.5  ,4.9
1876  ,1.015e+09   ,-0.5  ,2.4  ,0
1894  ,2.621e+09   ,2.3  ,1.5527  ,0.2
1907  ,1.288e+09   ,2.1  ,2.5  ,0.1
1928  ,1.355e+09   ,1.9  ,2.4  ,0
1974  ,1.279e+09   ,2.4  ,1.1  ,0
1981  ,1.776e+09   ,2.4  ,2.5  ,0.59273
1987  ,1.372e+09   ,-2.5  ,2.4  ,4
2004  ,1.273e+09   ,-2.4  ,2.5  ,4.6
2009  ,1.189e+09   ,2.4  ,1.3  ,0
2020  ,1.422e+09   ,2.5  ,1.1  ,0.1
2035  ,1.337e+09   ,-2.3  ,-0.76628  ,0.2
2070  ,5.099e+09   ,1.6404  ,2.4  ,5
2081  ,2.766e+09   ,2.4  ,2.5  ,1.9724
2095  ,2.330e+09   ,2.4  ,2.5  ,0.78982
2138  ,1.510e+09   ,-2.4  ,-0.1  ,0
2146  ,3.892e+09   ,-0.92182  ,2.4  ,5
2174  ,3.645e+09   ,2.4  ,2.5  ,1.184
2190  ,2.873e+09   ,2.5  ,2.4  ,0.98691
2203  ,4.565e+09   ,2.5  ,-0.13345  ,4.9
2232  ,5.917e+09   ,2.3  ,0.1489  ,4.8
2242  ,2.466e+09   ,2.4  ,2.5  ,2.9578
2293  ,1.991e+09   ,-2.5  ,0.5  ,0.1
2311  ,5.917e+09   ,2.3  ,2.3  ,2.4299
2313  ,2.737e+09   ,2.5  ,2.4  ,0.78982
2329  ,2.397e+09   ,2.4  ,2.5  ,2.1695
2355  ,1.500e+09   ,-2.4  ,2.5  ,4.4
2380  ,1.248e+09   ,-2.5  ,-1.5  ,0.1
2383  ,2.350e+09   ,0.45782  ,2.5  ,4.9
2408  ,4.614e+09   ,2.3  ,-1.4961  ,4.8
2445  ,3.924e+09   ,2.5  ,-1.5131  ,4.9
2484  ,4.448e+08   ,-2.5  ,-2.4  ,1.6
2495  ,1.119e+09   ,-2.4  ,1.7  ,5
2508  ,1.142e+09   ,2.4  ,0.3  ,0
2514  ,3.839e+09   ,2.3  ,0.2278  ,0.2
2570  ,1.130e+09   ,-2.4  ,1.5  ,5
2580  ,4.837e+09   ,1.6404  ,2.5  ,4.9
2603  ,4.511e+09   ,-1.1189  ,2.5  ,4.9
2695  ,2.459e+09   ,2.3  ,2.3  ,0.94331
2705  ,4.656e+09   ,2.4  ,2.5  ,1.3811
2714  ,2.245e+09   ,2.5  ,0.45782  ,4.9
2734  ,6.576e+08   ,2.4  ,-0.9  ,0
2775  ,7.106e+08   ,2.5  ,-0.1  ,0.1
2779  ,7.388e+08   ,2.4  ,-0.1  ,0
2801  ,6.165e+09   ,1.4166  ,2.3  ,4.8
2814  ,3.430e+09   ,1.4433  ,2.5  ,4.9
2863  ,1.797e+09   ,-2.4  ,2.5  ,0.6
2884  ,2.052e+09   ,-2.4  ,2.5  ,0.8
2886  ,2.097e+09   ,-2.4  ,2.5  ,1.2
2967  ,1.177e+09   ,2.4  ,1.7  ,0
2973  ,1.129e+09   ,2.5  ,1.5  ,0.1
2987  ,1.273e+09   ,-0.3  ,2.5  ,0.1
3008  ,1.708e+09   ,-2.3  ,2.3  ,0.96667
3012  ,1.159e+09   ,-2.5  ,2.4  ,2.6
3021  ,1.187e+09   ,-2.5  ,2.4  ,2.8
3025  ,1.056e+09   ,-2.5  ,2.4  ,2.4
3030  ,9.119e+08   ,-2.4  ,2.5  ,2.4
3033  ,9.589e+08   ,-2.4  ,2.5  ,2.2
3047  ,2.200e+09   ,2.4  ,2.5  ,2.3665
3052  ,2.421e+09   ,2.5  ,2.4  ,2.5636
3061  ,2.178e+09   ,2.4  ,2.5  ,2.5636
3081  ,1.258e+09   ,-2.4  ,1.3  ,5
3088  ,1.324e+09   ,-1.9073  ,2.4  ,5
3099  ,1.227e+09   ,-2.4  ,1.9  ,5
3107  ,1.459e+09   ,-2.4  ,2.5  ,3.8
3139  ,2.700e+09   ,-1.5131  ,2.4  ,5
3145  ,2.877e+09   ,-1.5131  ,2.5  ,4.9
3148  ,2.302e+09   ,-1.7102  ,2.5  ,4.9
3168  ,1.767e+09   ,-2.4  ,1.5  ,0
3188  ,2.190e+09   ,-2.5  ,-2.4  ,1
3202  ,1.876e+09   ,0.26073  ,2.5  ,4.9
3212  ,4.299e+09   ,2.5  ,1.6404  ,4.9
3247  ,5.502e+09   ,2.5  ,1.8375  ,4.9
3265  ,5.766e+09   ,2.3  ,1.4326  ,4.8
3271  ,1.205e+10   ,2.2299  ,2.2299  ,4.8
3284  ,3.279e+09   ,2.4  ,1.4433  ,5
3291  ,3.334e+09   ,2.5  ,1.4433  ,4.9
3296  ,1.933e+09   ,-2.3  ,-0.76628  ,4.8
3303  ,6.492e+08   ,-2.4  ,-0.9  ,5
3311  ,4.101e+08   ,-2.4  ,-0.7  ,5
3315  ,1.512e+09   ,1.9  ,2.5  ,0.1
3336  ,1.585e+09   ,-2.4  ,0.3  ,0
3340  ,1.573e+09   ,-2.5  ,0.1  ,0.1
3344  ,1.592e+09   ,-2.4  ,0.1  ,0
3356  ,9.933e+08   ,-0.3  ,2.4  ,0
3361  ,2.664e+09   ,-0.33054  ,2.5  ,4.9
3364  ,2.107e+09   ,-0.13345  ,2.5  ,4.9
3383  ,2.679e+09   ,2.4  ,2.5  ,3.5491
3402  ,1.409e+10   ,2.4  ,2.5  ,4.5345
3421  ,3.572e+09   ,-1.316  ,2.5  ,4.9
3439  ,3.723e+09   ,2.5  ,2.4  ,3.9433
3447  ,3.903e+09   ,2.4  ,2.5  ,3.9433
3451  ,2.868e+09   ,2.4  ,2.5  ,3.7462
3468  ,3.839e+09   ,1.4433  ,2.4  ,5
3480  ,2.666e+09   ,1.0491  ,2.4  ,5
3519  ,1.247e+09   ,1.5  ,2.4  ,0
3527  ,1.288e+09   ,2.3  ,-1.4729  ,0.2
3550  ,1.959e+09   ,-1.7  ,2.4  ,0
3554  ,1.962e+09   ,-1.7  ,2.5  ,0.1
3558  ,2.136e+09   ,-1.5  ,2.4  ,0
3562  ,2.042e+09   ,-1.5  ,2.5  ,0.1
3574  ,1.180e+09   ,-2.4  ,2.1  ,5
3581  ,1.545e+09   ,-2.5  ,1.7  ,0.1
3583  ,1.380e+09   ,-2.5  ,1.9  ,0.1
3584  ,1.500e+09   ,-1.9073  ,2.5  ,4.9
3591  ,1.114e+09   ,2.5  ,0.3  ,0.1
3595  ,8.175e+08   ,2.5  ,0.1  ,0.1
3603  ,2.117e+10   ,2.4577  ,2.391  ,4.7576
3663  ,1.510e+09   ,-1.933  ,-2.5  ,0.2
3669  ,1.670e+09   ,-2.1765  ,-2.5  ,0.2
3672  ,1.255e+09   ,-2.3  ,-2.3379  ,0.2
3682  ,2.904e+09   ,-1.9  ,-2.4  ,0
3700  ,1.979e+09   ,2.3  ,-2.5  ,2.7424
3712  ,5.958e+08   ,-2.1  ,-2.5  ,4.9
3715  ,6.603e+08   ,-1.9  ,-2.5  ,4.9
3740  ,1.251e+09   ,-1.3  ,-2.4  ,5
3746  ,1.277e+09   ,-1.2085  ,-2.5  ,4.8
3755  ,1.346e+09   ,-1.5  ,-2.4  ,5
3760  ,7.530e+08   ,-1.7  ,-2.5  ,4.9
3786  ,3.826e+09   ,2.4  ,2.5  ,1.5782
3813  ,2.106e+09   ,0.26073  ,2.4  ,5
3858  ,1.148e+09   ,-0.9  ,-2.4  ,5
3863  ,1.371e+09   ,-2.5  ,0.9  ,4.9
3875  ,2.123e+09   ,-1.9  ,-2.4  ,5
3885  ,3.975e+09   ,2.4  ,-0.72473  ,5
3910  ,8.781e+08   ,-2.4  ,-2.5  ,3.4
3959  ,5.429e+09   ,2.5  ,2.4  ,4.1404
3969  ,2.597e+09   ,2.5  ,1.0491  ,4.9
3992  ,1.532e+10   ,2.391  ,2.2576  ,4.9577
3993  ,1.427e+10   ,2.4577  ,2.2576  ,4.891
4016  ,4.433e+08   ,-2.3015  ,2.5  ,4.9
4018  ,6.322e+08   ,-2.4  ,2.5  ,4.8
4021  ,2.833e+09   ,1.2462  ,2.4  ,5
4042  ,7.931e+08   ,2.4  ,-1.1  ,0
4046  ,1.939e+09   ,-0.9  ,2.4  ,0
4055  ,2.077e+09   ,1.7  ,-2.5  ,4.9
4087  ,1.447e+09   ,1.7  ,2.4  ,0
4114  ,3.868e+09   ,2.5  ,-0.33054  ,4.9
4120  ,3.327e+08   ,2.4  ,-2.5  ,1.8
4125  ,2.437e+09   ,2.4  ,2.5  ,0.98691
4144  ,9.349e+09   ,2.4  ,2.5  ,4.3375
4161  ,1.186e+09   ,-2.4  ,0.3  ,5
4201  ,1.285e+09   ,1.933  ,-2.5  ,0.2
4225  ,7.728e+08   ,-2.3  ,-2.4  ,0
4230  ,1.536e+09   ,-2.3  ,-2.5  ,0.56701
4269  ,2.757e+08   ,-0.9  ,-2.5  ,4.9
4277  ,1.271e+09   ,-1.1  ,-2.4  ,5
4288  ,4.482e+09   ,-0.070055  ,2.3  ,4.8
4328  ,1.928e+09   ,-2.5  ,-2.4  ,4.2
4336  ,1.639e+09   ,-2.5  ,-2.4  ,4.4
4342  ,2.519e+09   ,-2.5  ,-2.4  ,4.6
4348  ,3.201e+09   ,-2.4  ,-2.4707  ,4.9707
4352  ,1.544e+09   ,-2.3  ,-2.5  ,4.9
4354  ,4.320e+09   ,-2.1765  ,-2.5  ,4.8
4355  ,2.267e+09   ,-2.3  ,-2.3379  ,4.8
4362  ,1.601e+09   ,2.5  ,2.4  ,0.59273
4364  ,2.505e+09   ,2.5  ,-2.4  ,2.4
4366  ,2.086e+09   ,2.5  ,-2.4  ,2.2
4372  ,3.644e+08   ,2.4  ,-2.5  ,2.2
4385  ,7.278e+08   ,-2.5  ,-1.9  ,0.1
4399  ,1.021e+09   ,-2.5  ,2.1  ,0.1
4407  ,8.929e+08   ,-0.7  ,-2.4  ,0
4436  ,1.661e+09   ,-2.5  ,-0.1  ,0.1
4462  ,2.191e+09   ,-2.3  ,2.3  ,4.0333
4491  ,3.630e+09   ,2.5  ,-0.52764  ,4.9
4494  ,1.075e+09   ,2.5  ,-2.4  ,1.4
4503  ,6.154e+08   ,2.4  ,-2.5  ,1.4
4508  ,8.415e+08   ,2.4  ,-2.5  ,1.2
4515  ,1.132e+09   ,2.5  ,-2.4  ,1.8
4517  ,3.020e+08   ,2.4  ,-2.5  ,1.6
4522  ,3.885e+09   ,0.7  ,-2.4  ,0
4538  ,3.858e+09   ,-1.1189  ,2.4  ,5
4546  ,4.669e+09   ,2.4  ,2.5  ,4.1404
4559  ,1.918e+09   ,1.7  ,-2.4  ,0
4590  ,3.601e+09   ,0.5  ,-2.4  ,0
4631  ,6.037e+08   ,2.4  ,-2.5  ,2.6
4634  ,3.245e+09   ,2.5  ,-2.4  ,2.8
4657  ,1.689e+09   ,-2.5  ,-2.4  ,2
4660  ,1.069e+09   ,-2.5  ,-2.4  ,1.8
4664  ,2.413e+09   ,-0.3  ,-2.4  ,0
4675  ,1.770e+09   ,-2.4  ,-2.5  ,4.8
4681  ,1.581e+09   ,-2.5  ,-0.3  ,0.1
4684  ,8.965e+08   ,1.7  ,-2.4  ,5
4703  ,1.882e+09   ,-2.4  ,0.7  ,5
4707  ,1.417e+09   ,-2.5  ,0.3  ,4.9
4714  ,3.417e+09   ,2.4  ,-0.33054  ,5
4723  ,3.566e+09   ,-1.5567  ,2.3  ,4.8
4739  ,9.706e+08   ,-2.1044  ,2.5  ,4.9
4763  ,1.852e+09   ,-1.9  ,2.4  ,0
4780  ,4.702e+08   ,-2.3  ,-1.9695  ,0.2
4782  ,4.007e+08   ,-2.4707  ,-2.4  ,0.029289
4784  ,7.263e+08   ,-2.4  ,-1.9  ,0
4791  ,7.582e+08   ,-2.4  ,-2.5  ,1.8
4796  ,5.267e+09   ,2.4707  ,-2.4707  ,4.9
4799  ,6.750e+09   ,2.5  ,-2.4  ,4.8
4806  ,3.463e+09   ,2.3  ,-2.5  ,4.9
4809  ,6.303e+09   ,2.3  ,2.3  ,3.9166
4833  ,1.503e+09   ,-2.4  ,2.5  ,0.4
4841  ,1.063e+09   ,-2.4  ,2.5  ,2.6
4846  ,1.113e+09   ,-2.5  ,2.1  ,4.9
4848  ,7.074e+08   ,-2.5  ,2.3  ,4.9
4849  ,7.522e+08   ,-2.5  ,2.4  ,4.8
4893  ,1.578e+09   ,-2.4  ,2.5  ,4.2
4897  ,6.844e+09   ,2.3333  ,2.1998  ,5
4900  ,1.799e+10   ,2.391  ,2.4577  ,4.7576
4908  ,2.125e+10   ,2.2576  ,2.391  ,4.9577
4911  ,1.825e+10   ,2.2576  ,2.4577  ,4.891
4926  ,2.083e+09   ,-2.5  ,2.4  ,1
4932  ,1.925e+09   ,-2.4  ,2.5  ,1.6
4937  ,2.214e+09   ,-1.1  ,2.5  ,0.1
4939  ,1.158e+10   ,2.3  ,2.2299  ,4.7299
4944  ,4.692e+09   ,2.5  ,-1.9073  ,4.9
4987  ,2.351e+09   ,-2.3  ,1.5527  ,4.8
5010  ,7.956e+09   ,2.4973  ,2.1331  ,4.923
5013  ,6.408e+09   ,2.5  ,2.0345  ,4.9
5017  ,6.705e+09   ,2.4  ,2.0345  ,5
5035  ,3.781e+09   ,1.3  ,-2.4  ,0
5038  ,2.313e+09   ,1.2085  ,-2.5  ,0.2
5092  ,3.764e+08   ,-2.4  ,-2.5  ,1.2
5123  ,2.394e+09   ,2.5  ,-2.4  ,0.6
5151  ,1.669e+09   ,-2.5  ,-0.5  ,0.1
5160  ,1.585e+09   ,-2.5  ,-0.7  ,0.1
5164  ,1.808e+09   ,-2.4  ,0.9  ,5
5168  ,1.196e+09   ,-2.4  ,0.5  ,5
5176  ,3.464e+08   ,2.5  ,-0.7  ,0.1
5179  ,4.338e+08   ,2.4  ,-0.5  ,0
5189  ,5.443e+08   ,2.4  ,-2.5  ,2.4
5194  ,1.822e+09   ,2.3  ,-2.5  ,2.2576
5198  ,1.611e+09   ,-2.3  ,-2.5  ,0.32348
5205  ,7.751e+08   ,-2.4  ,-2.5  ,0.2
5207  ,2.098e+09   ,-2.1  ,-2.5  ,0.1
5246  ,2.120e+09   ,-2.5  ,2.4  ,3.2
5257  ,1.037e+09   ,-2.5  ,1.5  ,4.9
5263  ,1.465e+09   ,-2.3  ,0.2278  ,0.2
5272  ,1.605e+09   ,-2.5  ,0.3  ,0.1
5275  ,1.540e+09   ,-2.5  ,0.5  ,4.9
5281  ,6.359e+09   ,1.8375  ,2.5  ,4.9
5297  ,2.029e+09   ,-0.9  ,2.5  ,0.1
5306  ,1.024e+09   ,-0.7  ,2.4  ,0
5309  ,1.269e+09   ,-0.5  ,2.5  ,0.1
5324  ,1.967e+09   ,2.4  ,2.5  ,2.7607
5332  ,1.616e+09   ,2.5  ,-2.4  ,0.8
5334  ,1.040e+09   ,2.4  ,-2.5  ,1
5360  ,4.202e+09   ,2.4  ,-1.7102  ,5
5362  ,4.243e+09   ,2.4  ,-1.5131  ,5
5368  ,5.363e+09   ,2.4  ,1.8375  ,5
5371  ,3.928e+10   ,2.4325  ,2.4888  ,4.6656
5372  ,2.370e+10   ,2.3333  ,2.5  ,4.6998
5376  ,2.474e+10   ,2.4707  ,2.4707  ,4.6331
5377  ,1.377e+10   ,2.5  ,2.4  ,4.5345
5379  ,9.387e+08   ,-1.5  ,-2.5  ,4.9
5406  ,4.219e+09   ,-2.5  ,-2.4  ,3.4
5420  ,2.710e+09   ,-2.3  ,-2.5  ,3.2226
5423  ,3.162e+09   ,1.5  ,-2.4  ,0
5502  ,2.871e+08   ,-2.5  ,-2.3  ,0.1
5504  ,4.999e+08   ,-2.5  ,-2.4  ,0.2
5506  ,4.998e+08   ,-2.4  ,-2.3  ,0
5511  ,2.790e+08   ,-2.5  ,-2.1  ,0.1
5513  ,1.596e+09   ,-2.4  ,0.5  ,0
5517  ,4.533e+08   ,-0.9  ,-2.5  ,0.1
5532  ,2.536e+08   ,-2.4707  ,2.4707  ,4.9
5534  ,5.071e+08   ,2.4  ,-0.7  ,0
5551  ,2.422e+09   ,2.5  ,-2.4  ,3.8
5566  ,3.181e+09   ,2.5  ,2.4  ,1.3811
5603  ,5.425e+08   ,2.4  ,-0.3  ,0
5617  ,1.572e+09   ,-2.1  ,2.5  ,0.1
5637  ,1.199e+09   ,-2.3  ,-1.9695  ,4.8
5641  ,1.598e+09   ,2.3  ,-2.5  ,3.4636
5645  ,8.554e+08   ,-2.4  ,-2.5  ,2
5649  ,8.945e+08   ,-2.4  ,-2.5  ,2.2
5659  ,7.147e+08   ,-2.3  ,-2.5  ,1.7774
5662  ,9.011e+09   ,2.1765  ,-2.5  ,4.8
5666  ,3.314e+09   ,2.4  ,-2.5  ,4.8
5669  ,5.128e+09   ,2.3  ,-2.3412  ,4.8
5695  ,1.704e+09   ,-2.4  ,0.7  ,0
5701  ,1.892e+09   ,-2.5  ,2.4  ,1.6
5715  ,1.551e+09   ,-2.4  ,2.5  ,1.8
5726  ,1.488e+09   ,-0.7  ,2.5  ,0.1
5727  ,2.288e+09   ,-1.1  ,2.4  ,0
5730  ,1.261e+09   ,2.3  ,-2.5  ,1.7774
5746  ,3.395e+09   ,2.5  ,2.4  ,1.7753
5755  ,3.155e+09   ,2.5  ,-2.4  ,4.4
5763  ,2.058e+09   ,2.4  ,-2.5  ,4.4
5773  ,2.560e+09   ,1.0491  ,2.5  ,4.9
5791  ,3.130e+09   ,-0.72473  ,2.4  ,5
5795  ,7.215e+09   ,1.8375  ,2.4  ,5
5803  ,1.974e+09   ,-0.3  ,-2.4  ,5
5810  ,4.256e+09   ,2.4  ,1.6404  ,5
5836  ,1.040e+09   ,-2.5  ,1.3  ,4.9
5860  ,9.200e+08   ,2.5  ,-2.4  ,1.6
5866  ,1.111e+09   ,1.5  ,-2.5  ,0.1
5884  ,7.616e+08   ,-2.4  ,-0.3  ,5
5888  ,4.781e+08   ,-2.5  ,-0.5  ,4.9
5901  ,1.959e+09   ,2.3  ,-2.5  ,2.5
5908  ,1.104e+09   ,2.5  ,-2.4  ,1.2
5909  ,1.513e+09   ,2.5  ,-2.4  ,2
5934  ,2.084e+09   ,1.9  ,-2.5  ,4.9
5938  ,5.523e+09   ,1.933  ,-2.5  ,4.8
5948  ,2.065e+09   ,-2.4  ,-2.5  ,4.6
5950  ,2.504e+09   ,-2.4707  ,-2.4707  ,4.9
5951  ,2.760e+09   ,-2.5  ,-2.4  ,4.8
5952  ,1.823e+09   ,-2.5  ,-2.3  ,4.9
5986  ,3.572e+08   ,2.3  ,-2.5  ,3.7085
5990  ,4.039e+09   ,-0.92182  ,2.5  ,4.9
6019  ,1.023e+09   ,2.5  ,1.9  ,0.1
6025  ,8.701e+08   ,2.4  ,-1.3  ,0
6035  ,1.107e+09   ,-2.5  ,1.9  ,4.9
6044  ,8.095e+08   ,0.1  ,2.5  ,0.1
6054  ,8.988e+08   ,2.4  ,0.1  ,0
6070  ,5.519e+08   ,-2.4  ,2.3  ,0
6071  ,9.190e+08   ,-2.3  ,2.4  ,0
6076  ,1.122e+09   ,-2.4  ,2.1  ,0
6083  ,2.918e+09   ,2.1  ,-2.4  ,0
6084  ,7.461e+08   ,2.4  ,2.3  ,0
6087  ,7.725e+08   ,2.3  ,2.4  ,0
6092  ,1.478e+09   ,-2.4  ,-2.5  ,0.4
6096  ,9.702e+08   ,-2.3  ,-2.5  ,0.1
6099  ,7.501e+08   ,0.7  ,-2.5  ,0.1
6149  ,1.721e+09   ,-2.4  ,-0.9  ,0
6159  ,3.311e+09   ,-2.5  ,-2.4  ,2.6
6183  ,2.746e+09   ,1.2462  ,2.5  ,4.9
6224  ,1.629e+09   ,2.5  ,-2.4  ,4
6228  ,1.751e+09   ,2.4  ,-2.5  ,3.8
6237  ,1.919e+09   ,2.5  ,0.7  ,0.1
6241  ,1.135e+10   ,2.5  ,2.3333  ,4.6998
6245  ,3.183e+09   ,2.5  ,2.4  ,1.5782
6259  ,4.927e+09   ,2.5  ,-2.1044  ,4.9
6265  ,3.972e+09   ,2.3  ,-1.9804  ,4.8
6267  ,5.114e+09   ,2.5  ,-2.3015  ,4.9
6268  ,4.644e+09   ,2.4707  ,-2.4  ,4.9707
6270  ,4.997e+09   ,2.4  ,-2.1044  ,5
6317  ,2.976e+09   ,-2.3  ,0.2278  ,4.8
6349  ,3.159e+09   ,-0.52764  ,2.4  ,5
6391  ,3.476e+09   ,2.4  ,2.5  ,1.7753
6440  ,1.354e+09   ,-2.5  ,2.4  ,3.8
6471  ,4.032e+09   ,2.5  ,-0.92182  ,4.9
6489  ,2.821e+09   ,2.5  ,1.2462  ,4.9
6523  ,7.579e+08   ,-1.1  ,-2.4  ,0
6528  ,5.352e+08   ,-1.1  ,-2.5  ,0.1
6535  ,2.299e+08   ,-0.9  ,-2.4  ,0
6538  ,1.569e+09   ,1.5  ,-2.4  ,5
6541  ,2.022e+09   ,1.5  ,-2.5  ,4.9
6551  ,3.837e+09   ,2.5  ,-0.72473  ,4.9
6564  ,4.508e+10   ,2.1331  ,2.4973  ,4.923
6565  ,1.448e+10   ,2.0345  ,2.5  ,4.9
6572  ,1.076e+09   ,2.4  ,-1.7  ,0
6581  ,3.108e+09   ,0  ,2.3  ,0.2
6592  ,1.109e+09   ,2.3  ,-1.9695  ,0.2
6594  ,8.248e+08   ,0.3  ,2.4  ,0
6601  ,1.624e+09   ,0.5  ,2.5  ,0.1
6605  ,1.402e+09   ,-2.4  ,-1.3  ,0
6606  ,1.620e+09   ,-2.4  ,-1.1  ,0
6615  ,1.794e+09   ,-2.4  ,-0.3  ,0
6634  ,2.907e+09   ,2.1  ,-2.5  ,4.9
6635  ,5.290e+09   ,2.4  ,-2.4707  ,4.9707
6636  ,6.678e+09   ,2.3  ,-2.4  ,5
6647  ,5.550e+08   ,0.5  ,-2.5  ,0.1
6704  ,5.055e+08   ,-2.4707  ,2.4707  ,0.1
6708  ,9.041e+08   ,-2.5  ,2.4  ,0.2
6712  ,1.625e+09   ,-2.4  ,2.5  ,3.6
6715  ,2.174e+09   ,-2.4  ,2.5  ,3.4
6728  ,1.724e+09   ,-2.5  ,0.7  ,4.9
6753  ,9.465e+08   ,-2.1044  ,2.4  ,5
6788  ,8.725e+09   ,2.5  ,2.4  ,4.3375
6791  ,3.022e+09   ,-1.933  ,-2.5  ,4.8
6795  ,2.385e+10   ,2.1998  ,2.5  ,4.8333
6837  ,1.550e+09   ,-2.3  ,-2.5  ,0.8063
6869  ,4.281e+09   ,2.5  ,-1.7102  ,4.9
6873  ,5.125e+09   ,2.4  ,-1.9073  ,5
6880  ,4.153e+09   ,2.4  ,-0.92182  ,5
6885  ,3.742e+09   ,2.4  ,-0.52764  ,5
6893  ,2.707e+09   ,2.4  ,1.2462  ,5
6914  ,2.411e+09   ,0.7  ,2.5  ,0.1
6920  ,1.965e+09   ,0.9  ,2.4  ,0
6923  ,2.102e+09   ,0.7  ,2.4  ,0
6936  ,1.068e+09   ,2.4  ,-2.5  ,3.4
6939  ,2.378e+09   ,2.3  ,-2.5  ,3.2226
6961  ,7.453e+08   ,-0.1  ,-2.5  ,4.9
6967  ,1.305e+09   ,-2.5  ,-1.5  ,4.9
6975  ,1.408e+09   ,-2.4  ,1.1  ,5
6978  ,1.088e+09   ,-2.4  ,2.5  ,0.2
6987  ,4.118e+09   ,2.4  ,-1.316  ,5
6994  ,1.094e+09   ,2.4  ,-1.5  ,0
7004  ,1.627e+09   ,2.4  ,-2.5  ,3.6
7011  ,2.306e+09   ,2.4  ,0.65491  ,5
7016  ,2.301e+09   ,2.4  ,0.45782  ,5
7019  ,2.813e+09   ,2.5  ,2.4  ,2.1695
7021  ,3.034e+09   ,2.5  ,2.4  ,1.9724
7052  ,2.029e+09   ,-1.3  ,2.5  ,0.1
7054  ,1.041e+09   ,-2.4  ,-2.5  ,0.8
7057  ,7.111e+08   ,0.3  ,-2.5  ,0.1
7065  ,2.248e+09   ,0.24243  ,-2.5  ,0.2
7075  ,3.272e+10   ,2.4888  ,2.4325  ,4.6656
7113  ,8.979e+08   ,-2.4  ,-2.5  ,2.6
7121  ,8.227e+08   ,-2.4  ,-2.5  ,2.8
7126  ,3.409e+09   ,-2.5  ,-2.4  ,2.8
7128  ,2.511e+08   ,-2.4707  ,-2.4707  ,0.1
7129  ,3.456e+08   ,-2.4  ,-2.4707  ,0.029289
7141  ,1.697e+09   ,-1.7  ,-2.4  ,5
7145  ,1.369e+09   ,1.1  ,2.4  ,0
7163  ,1.711e+09   ,-1.7102  ,2.4  ,5
7172  ,3.927e+09   ,2.5  ,-2.4  ,3.2
7174  ,1.426e+09   ,-2.5  ,2.4  ,3.6
7183  ,1.720e+09   ,-1.4531  ,-2.5  ,4.8
7204  ,8.069e+09   ,2.3  ,-0.81068  ,4.8
7220  ,3.218e+09   ,2.5  ,0.063638  ,4.9
7227  ,1.726e+09   ,2.5  ,-1.9  ,0.1
7256  ,2.596e+09   ,-0.1  ,-2.4  ,5
7280  ,2.680e+09   ,-0.33054  ,2.4  ,5
7299  ,4.210e+09   ,2.5  ,-1.1189  ,4.9
7316  ,2.501e+09   ,-2.5  ,-2.4  ,0.8
7323  ,6.909e+08   ,-2.4  ,-2.5  ,1
7396  ,3.407e+09   ,1.1  ,-2.4  ,5
7400  ,1.789e+09   ,-2.5  ,0.7  ,0.1
7409  ,2.594e+09   ,1.3  ,-2.4  ,5
7420  ,1.117e+09   ,2.5  ,2.1  ,0.1
7429  ,1.278e+09   ,2.4  ,1.9  ,0
7436  ,1.422e+09   ,2.5  ,-1.7  ,0.1
7438  ,8.074e+08   ,2.4  ,-2.5  ,2.8
7445  ,1.685e+10   ,2.4325  ,2.1656  ,4.9888
7464  ,9.159e+08   ,2.5  ,-1.5  ,0.1
7480  ,2.873e+09   ,2.5  ,-2.4  ,0.2
7482  ,1.817e+09   ,1.9  ,-2.5  ,0.1
7483  ,1.498e+09   ,1.7  ,-2.5  ,0.1
7486  ,3.232e+09   ,1.9  ,-2.4  ,5
7488  ,3.172e+09   ,1.6937  ,-2.5  ,4.8
7492  ,7.455e+09   ,2.1  ,-2.4  ,5
7495  ,9.692e+08   ,0.1  ,-2.5  ,0.1
7504  ,3.468e+09   ,0.3  ,-2.4  ,0
7507  ,6.907e+08   ,0.9  ,-2.5  ,0.1
7533  ,1.836e+09   ,-2.5  ,0.9  ,0.1
7536  ,6.091e+08   ,-2.4  ,-2.5  ,3.2
7540  ,9.394e+08   ,-2.4  ,-2.5  ,3
7545  ,3.618e+09   ,-2.5  ,-2.4  ,3
7582  ,1.536e+09   ,1.3  ,2.5  ,0.1
7588  ,2.769e+09   ,2.5  ,2.4  ,2.3665
7598  ,1.504e+09   ,-2.5  ,2.4  ,4.2
7607  ,2.189e+09   ,1.5333  ,2.3  ,0.2
7627  ,1.063e+09   ,-2.5  ,1.1  ,4.9
7651  ,1.445e+09   ,2.4  ,-1.9  ,0
7656  ,1.132e+09   ,2.5  ,2.4  ,0.39564
7660  ,1.179e+10   ,2.2299  ,2.3  ,4.7299
7668  ,1.284e+09   ,1.4531  ,-2.5  ,4.8
7676  ,6.452e+08   ,0.1  ,-2.5  ,4.9
7683  ,3.096e+09   ,0.1  ,-2.4  ,5
7686  ,7.878e+08   ,-2.4  ,-1.1  ,5
7702  ,1.382e+09   ,-2.3  ,-2.5  ,4.433
7710  ,3.110e+09   ,-2.3  ,-2.5  ,4.6765
7752  ,3.886e+09   ,0.9  ,-2.4  ,5
7763  ,2.158e+09   ,0.24243  ,-2.5  ,4.8
7767  ,3.909e+09   ,-2.5  ,-2.4  ,3.2
7768  ,4.439e+08   ,-2.4  ,-2.1  ,0
7776  ,1.868e+09   ,-2.4  ,0.9  ,0
7786  ,1.363e+09   ,-0.4838  ,-2.5  ,4.8
7800  ,7.208e+09   ,2.5  ,-2.4  ,4.6
7805  ,8.850e+08   ,-2.5  ,-1.3  ,4.9
7811  ,8.062e+08   ,-2.5  ,-1.1  ,4.9
7820  ,1.951e+09   ,2.5  ,-2.1  ,0.1
7824  ,1.526e+09   ,2.4  ,-2.1  ,0
7828  ,2.167e+09   ,2.4  ,-2.5  ,4.2
7831  ,2.073e+09   ,2.4  ,-2.5  ,4
7838  ,1.080e+09   ,2.5  ,-2.4  ,4.2
7839  ,2.303e+09   ,2.5  ,2.4  ,2.7607
7840  ,2.388e+09   ,2.5  ,2.4  ,2.9578
7863  ,1.166e+09   ,-2.4  ,-1.5  ,0
7890  ,1.549e+09   ,2.4  ,0.9  ,0
7897  ,1.630e+09   ,-2.4  ,-0.7  ,0
7912  ,2.267e+09   ,-1.5  ,-2.4  ,0
7917  ,5.041e+08   ,-1.3  ,-2.5  ,0.1
7931  ,1.296e+09   ,0.5  ,2.4  ,0
7934  ,4.017e+09   ,1.1  ,-2.4  ,0
7937  ,1.260e+09   ,2.4  ,-2.5  ,0.8
7941  ,1.402e+09   ,-2.4  ,-2.5  ,0.6
7969  ,5.810e+08   ,-2.5  ,2.3  ,0.1
7971  ,1.421e+09   ,-2.4  ,1.9  ,0
7972  ,1.920e+09   ,-1.9  ,2.5  ,0.1
7978  ,1.877e+09   ,-2.4  ,1.1  ,0
7996  ,3.541e+08   ,-2.4  ,-0.5  ,5
8000  ,2.548e+09   ,-2.5  ,-2.4  ,0.6
8003  ,1.771e+09   ,-2.5  ,-2.4  ,0.4
8025  ,2.392e+09   ,0.9  ,2.5  ,0.1
8035  ,1.108e+09   ,0.3  ,2.5  ,0.1
8039  ,4.277e+09   ,2.3  ,-2.5  ,0.32348
8041  ,2.314e+09   ,2.3  ,-2.3379  ,0.2
8043  ,3.618e+09   ,2.1765  ,-2.5  ,0.2
8045  ,1.894e+08   ,-0.96359  ,-2.5  ,0.2
8054  ,1.079e+09   ,1.3  ,2.4  ,0
8058  ,1.911e+09   ,1.1  ,2.5  ,0.1
8062  ,2.288e+09   ,-2.5  ,2.4  ,1.4
8067  ,1.978e+09   ,-2.5  ,2.4  ,0.8
8087  ,1.668e+09   ,-2.5  ,1.5  ,0.1
8132  ,2.625e+09   ,-0.13345  ,2.4  ,5
8183  ,6.656e+08   ,2.5  ,-0.9  ,0.1
8184  ,1.265e+09   ,1.6937  ,-2.5  ,0.2
8214  ,1.975e+09   ,-2.4707  ,-2.4  ,4.9707
8217  ,3.270e+09   ,-2.1  ,-2.4  ,5
8219  ,1.932e+09   ,-2.4  ,-2.5  ,4.4
8227  ,2.528e+09   ,2.5  ,2.4  ,3.1549
8242  ,1.142e+09   ,0.7  ,-2.5  ,4.9
8248  ,3.190e+09   ,2.5  ,-2.4  ,3.6
8254  ,4.552e+08   ,2.5  ,-0.3  ,0.1
8256  ,1.887e+08   ,2.5  ,-0.5  ,0.1
8258  ,4.686e+08   ,-0.3  ,-2.5  ,4.9
8263  ,3.470e+08   ,-0.5  ,-2.5  ,4.9
8268  ,2.656e+09   ,-2.3  ,-2.5  ,3.7085
8277  ,1.061e+09   ,-0.1  ,-2.5  ,0.1
8285  ,1.691e+09   ,1.1  ,-2.5  ,4.9
8307  ,4.976e+08   ,0.1  ,2.4  ,0
8308  ,1.623e+09   ,-0.1  ,2.5  ,0.1
8309  ,5.780e+08   ,-0.1  ,2.4  ,0
8313  ,1.972e+09   ,2.5  ,-2.3  ,0.1
8318  ,3.599e+09   ,2.5  ,-2.4  ,3
8338  ,2.558e+09   ,2.5  ,2.4  ,3.352
8339  ,2.686e+09   ,2.4  ,2.5  ,3.1549
8344  ,1.928e+09   ,-2.5  ,2.4  ,3.4
8357  ,1.642e+10   ,2.4888  ,2.1656  ,4.9325
8358  ,6.546e+09   ,2.5  ,2.1998  ,4.8333
8383  ,2.813e+09   ,-1.7  ,-2.4  ,0
8396  ,7.941e+08   ,1.1  ,-2.5  ,0.1
8399  ,5.963e+09   ,2.4526  ,2.1331  ,4.9851
8405  ,1.233e+09   ,2.5  ,-2.4  ,1
8412  ,2.120e+09   ,2.3  ,-2.5  ,0.8063
8417  ,1.961e+09   ,-2.3  ,-2.5  ,2.5
8434  ,1.707e+09   ,0.9636  ,-2.5  ,4.8
8438  ,9.479e+08   ,-0.3  ,-2.5  ,0.1
8452  ,1.112e+09   ,-2.4  ,-0.1  ,5
8468  ,3.236e+09   ,2.5  ,2.4  ,3.7462
8471  ,7.884e+08   ,-1.3  ,-2.5  ,4.9
8493  ,6.780e+08   ,-1.1  ,-2.5  ,4.9
8509  ,9.484e+08   ,-2.5  ,-1.7  ,0.1
8517  ,1.635e+09   ,-2.4  ,2.5  ,3
8531  ,1.572e+09   ,-2.4  ,1.7  ,0
8556  ,2.980e+09   ,2.5  ,2.4  ,3.5491
8573  ,3.220e+09   ,-1.316  ,2.4  ,5
8576  ,1.915e+09   ,-2.4  ,1.3  ,0
8611  ,1.479e+09   ,2.3  ,-2.5  ,1.2915
8618  ,1.498e+09   ,-2.4  ,2.5  ,4
8646  ,1.948e+09   ,-2.5  ,1.1  ,0.1
8656  ,1.034e+09   ,2.5  ,-1.3  ,0.1
8657  ,1.107e+09   ,2.4  ,2.1  ,0
8673  ,2.222e+09   ,-1.3  ,2.4  ,0
8692  ,2.110e+09   ,0.72263  ,-2.5  ,4.8
8696  ,1.618e+09   ,2.3  ,-2.5  ,1.0469
8706  ,2.164e+09   ,2.5  ,0.65491  ,4.9
8721  ,7.624e+08   ,-2.4  ,-2.5  ,1.6
8725  ,2.813e+09   ,0.65491  ,2.4  ,5
8739  ,3.196e+10   ,2.1656  ,2.4325  ,4.9888
8741  ,1.226e+10   ,2.1998  ,2.3333  ,5
8746  ,1.988e+09   ,-2.1  ,-2.4  ,0
8748  ,1.757e+09   ,-2.5  ,-2.4  ,1.2
8752  ,3.902e+10   ,2.1331  ,2.4526  ,4.9851
8759  ,1.505e+09   ,-2.3  ,-2.5  ,1.0469
8787  ,2.951e+09   ,-0.1  ,-2.4  ,0
8793  ,1.454e+09   ,-2.3  ,-2.5  ,2.2576
8795  ,1.225e+09   ,-2.4  ,-2.5  ,2.4
8798  ,1.445e+09   ,-2.3  ,-2.5  ,4.1937
8808  ,2.233e+09   ,-2.3  ,-2.5  ,3.9531
8814  ,1.507e+09   ,-2.4  ,-1.5  ,5
8849  ,2.074e+09   ,0.4838  ,-2.5  ,4.8
8851  ,1.815e+09   ,-2.4  ,-2.5  ,4.2
8868  ,1.074e+09   ,2.4  ,-2.5  ,3
8874  ,2.671e+09   ,0.852  ,2.4  ,5
8883  ,1.339e+09   ,-0.5  ,-2.4  ,5
8886  ,1.089e+09   ,-0.72262  ,-2.5  ,4.8
8893  ,1.292e+08   ,-0.7  ,-2.5  ,4.9
8897  ,4.223e+09   ,-2.5  ,-2.4  ,3.6
8899  ,2.795e+09   ,-2.3  ,-2.5  ,3.4636
8900  ,6.923e+08   ,-2.3  ,-1.4729  ,0.2
8906  ,1.460e+09   ,-2.5  ,-1.3  ,0.1
8910  ,2.673e+09   ,0.852  ,2.5  ,4.9
8925  ,1.963e+09   ,-2.4  ,2.5  ,1.4
8941  ,3.648e+08   ,2.4707  ,2.4  ,0.029289
8942  ,7.590e+08   ,2.5  ,2.3  ,0.1
8945  ,1.315e+09   ,-2.5  ,0.1  ,4.9
8950  ,2.702e+08   ,2.4707  ,2.4707  ,0.1
8951  ,3.000e+08   ,2.4  ,2.4707  ,0.029289
8959  ,2.160e+09   ,2.4  ,0.26073  ,5
8965  ,2.420e+09   ,0.45782  ,2.4  ,5
8978  ,1.923e+09   ,2.4  ,0.852  ,5
8983  ,8.093e+08   ,2.5  ,-1.1  ,0.1
8991  ,1.839e+09   ,-2.5  ,2.4  ,0.6
9008  ,2.073e+09   ,2.5  ,0.852  ,4.9
9011  ,1.685e+09   ,-2.4  ,-0.5  ,0
9025  ,5.297e+08   ,-1.5  ,-2.5  ,0.1
9038  ,4.322e+08   ,2.4  ,-2.5  ,2
9041  ,1.906e+09   ,2.5  ,0.9  ,0.1
9050  ,1.397e+09   ,2.5  ,0.5  ,0.1
9054  ,3.911e+09   ,0.9  ,-2.4  ,0
9060  ,1.114e+09   ,2.4  ,-2.5  ,0.4
9062  ,3.083e+09   ,2.3  ,-2.5  ,0.56701
9064  ,2.983e+09   ,2.5  ,-2.4  ,0.4
9069  ,9.088e+08   ,2.4  ,-2.5  ,0.6
9071  ,1.877e+09   ,1.4531  ,-2.5  ,0.2
9082  ,1.117e+09   ,-2.3  ,-2.5  ,1.2915
9086  ,4.666e+08   ,-2.4  ,-2.5  ,1.4
9091  ,1.128e+09   ,-2.5  ,-2.4  ,1.4
9094  ,1.766e+09   ,1.3  ,-2.5  ,4.9
9097  ,4.915e+08   ,-0.7  ,-2.5  ,0.1
9137  ,6.498e+08   ,-2.5  ,-0.7  ,4.9
9143  ,9.761e+08   ,-2.5  ,-0.1  ,4.9
9146  ,1.566e+09   ,-2.1  ,2.4  ,0
9148  ,1.080e+09   ,-2.5  ,1.7  ,4.9
9173  ,1.428e+09   ,-2.5  ,2.4  ,3
9192  ,1.188e+09   ,-0.7  ,-2.4  ,5
9195  ,2.746e+09   ,0.72263  ,-2.5  ,0.2
9209  ,3.803e+09   ,2.5  ,-2.4  ,3.4
9215  ,2.595e+09   ,0.9636  ,-2.5  ,0.2
9217  ,1.147e+09   ,2.4  ,-2.5  ,3.2
9218  ,9.813e+08   ,-0.96359  ,-2.5  ,4.8
9229  ,1.430e+09   ,-2.4  ,2.5  ,2.8
9248  ,5.593e+09   ,2.3  ,-2.5  ,4.433
9255  ,1.365e+09   ,2.5  ,1.3  ,0.1
9257  ,1.015e+09   ,2.4  ,1.5  ,0
9262  ,3.482e+09   ,0.5  ,-2.4  ,5
9264  ,2.952e+09   ,2.4  ,-0.13345  ,5
9272  ,1.806e+09   ,0.063638  ,2.4  ,5
9277  ,2.227e+09   ,-2.5  ,2.4  ,1.2
9279  ,2.700e+09   ,2.5  ,0.26073  ,4.9
9282  ,4.985e+08   ,1.2085  ,-2.5  ,4.8
9286  ,1.225e+09   ,0.9  ,-2.5  ,4.9
9292  ,2.810e+08   ,-2.4  ,2.4707  ,4.9707
9293  ,4.637e+08   ,-2.3015  ,2.4  ,5
9296  ,1.920e+09   ,-2.4  ,-2.1  ,5
9303  ,1.924e+09   ,-2.4  ,-1.9  ,5
9311  ,6.477e+08   ,-2.4  ,2.3  ,5
9313  ,1.273e+09   ,-2.4  ,0.1  ,5
9319  ,1.686e+09   ,-0.5  ,-2.4  ,0
9328  ,4.138e+08   ,-2.3  ,-2.5  ,1.5364
9334  ,1.165e+09   ,-2.3  ,2.5  ,0.1
9338  ,2.856e+09   ,-2.5  ,-2.4  ,2.4
9339  ,1.749e+09   ,-2.5  ,1.3  ,0.1
9341  ,2.208e+09   ,-2.3  ,-2.5  ,2.7424
9344  ,2.218e+09   ,-2.5  ,-2.4  ,2.2
9358  ,4.723e+09   ,-2.3  ,2.3  ,2.5
9364  ,1.661e+09   ,-2.5  ,-2.1  ,4.9
9367  ,2.186e+09   ,-2.4  ,-2.3  ,5
9374  ,1.045e+09   ,-2.4  ,-1.3  ,5
9378  ,1.099e+09   ,-2.5  ,2.4  ,1.8
9384  ,1.575e+09   ,2.3  ,-2.5  ,2.0162
9385  ,1.466e+09   ,-2.5  ,2.4  ,4.4
9389  ,1.056e+09   ,-2.5  ,2.4  ,2
9395  ,4.771e+09   ,2.4  ,-2.3015  ,5
9396  ,8.661e+08   ,-2.4  ,-1.7  ,0
9407  ,1.125e+09   ,-2.3  ,-1.4729  ,4.8
9411  ,1.084e+09   ,-2.5  ,-1.7  ,4.9
9423  ,7.444e+08   ,-2.4  ,-2.5  ,3.6
9432  ,3.893e+09   ,0.7  ,-2.4  ,5
9438  ,6.606e+08   ,-2.5  ,-0.9  ,4.9
9443  ,7.363e+08   ,-2.5  ,-0.3  ,4.9
9445  ,2.540e+08   ,-2.4707  ,2.4  ,4.9707
9448  ,3.949e+09   ,2.4  ,-1.1189  ,5
9453  ,1.733e+09   ,2.4  ,0.7  ,0
9455  ,2.935e+09   ,2.5  ,-2.4  ,2.6
9457  ,2.192e+09   ,2.3  ,-2.5  ,2.9838
9494  ,2.019e+09   ,-2.4  ,2.5  ,1
9500  ,6.985e+08   ,0.3  ,-2.5  ,4.9
9504  ,3.354e+09   ,0.3  ,-2.4  ,5
9506  ,1.648e+09   ,2.1  ,-2.5  ,0.1
9518  ,1.761e+09   ,-1.9  ,-2.5  ,0.1
9528  ,1.773e+09   ,2.3  ,-2.5  ,0.1
9531  ,3.210e+09   ,2.4707  ,-2.4707  ,0.1
9533  ,1.989e+09   ,2.4707  ,-2.4  ,0.029289
9534  ,2.521e+09   ,2.4  ,-2.4707  ,0.029289
9541  ,9.370e+08   ,0.5  ,-2.5  ,4.9
9544  ,7.377e+08   ,-0.5  ,-2.5  ,0.1
9559  ,1.364e+09   ,-2.5  ,-1.9  ,4.9
9562  ,1.279e+09   ,-2.5  ,2.4  ,4.6
9565  ,1.317e+09   ,-2.4  ,2.5  ,2
9571  ,4.077e+09   ,-2.5  ,-2.4  ,3.8
9574  ,1.065e+09   ,-2.4  ,-2.5  ,3.8
9577  ,9.619e+08   ,1.3  ,-2.5  ,0.1
9582  ,1.645e+09   ,-2.5  ,-0.9  ,0.1
9596  ,1.070e+09   ,2.1  ,2.4  ,0
9598  ,2.314e+09   ,-2.4  ,2.5  ,3.2
9602  ,1.601e+09   ,1.5  ,2.5  ,0.1
9610  ,1.213e+09   ,2.4  ,2.5  ,0.39564
9612  ,3.846e+09   ,-0.72473  ,2.5  ,4.9
9614  ,1.571e+09   ,1.7  ,2.5  ,0.1
9635  ,1.168e+09   ,2.5  ,1.7  ,0.1
9646  ,5.956e+08   ,2.3  ,2.5  ,0.1
9651  ,3.357e+10   ,2.1656  ,2.4888  ,4.9325
9653  ,3.981e+09   ,2.5  ,-1.316  ,4.9
9656  ,1.495e+09   ,-2.4  ,-1.7  ,5
9659  ,9.098e+09   ,2.3  ,-2.5  ,4.6765
9661  ,1.343e+09   ,2.3  ,-2.5  ,3.9531
9664  ,2.919e+09   ,-2.3  ,-2.4  ,5
9666  ,1.363e+09   ,1.9  ,-2.4  ,0
9677  ,1.596e+09   ,2.4  ,0.5  ,0
9678  ,1.596e+09   ,-2.5  ,-1.1  ,0.1
9680  ,3.042e+09   ,2.5  ,2.4  ,1.184
9681  ,5.425e+08   ,2.5  ,2.4  ,0.19855
9696  ,1.116e+09   ,-2.3  ,-2.5  ,2.0162
9698  ,2.029e+09   ,2.4  ,-2.3  ,0
9699  ,1.359e+09   ,-0.24243  ,-2.5  ,0.2
9701  ,3.252e+09   ,0.1  ,-2.4  ,0
9704  ,9.904e+08   ,-0.4838  ,-2.5  ,0.2
9718  ,5.588e+08   ,-0.72262  ,-2.5  ,0.2
9726  ,2.125e+09   ,2.3  ,-0.76628  ,0.2
9727  ,1.679e+09   ,-2.5  ,2.4  ,0.4
9730  ,2.003e+09   ,1.9433E-06  ,-2.5  ,4.8
9731  ,1.700e+09   ,-0.24243  ,-2.5  ,4.8
9732  ,1.175e+09   ,-2.5  ,2.4  ,2.2
9738  ,3.264e+09   ,-2.5  ,-2.4  ,4
9743  ,2.271e+09   ,-1.6937  ,-2.5  ,4.8
9744  ,1.447e+09   ,-2.4  ,-2.5  ,4
9750  ,1.092e+09   ,-1.7  ,-2.5  ,0.1
9752  ,1.647e+09   ,-1.6937  ,-2.5  ,0.2
9754  ,1.548e+09   ,-1.3  ,-2.4  ,0
9759  ,2.827e+08   ,-2.4707  ,2.4  ,0.029289
9760  ,4.681e+08   ,-2.4  ,2.4707  ,0.029289
9768  ,3.212e+09   ,2.3  ,-2.5  ,4.1937
9770  ,1.715e+09   ,1.9433E-06  ,-2.5  ,0.2
9771  ,2.581e+09   ,0.4838  ,-2.5  ,0.2
9772  ,1.436e+09   ,2.4  ,-2.5  ,0.2
9773  ,3.038e+09   ,2.4  ,-2.5  ,4.6
9776  ,2.656e+09   ,2.4  ,0.063638  ,5
9780  ,2.683e+09   ,0.65491  ,2.5  ,4.9
9781  ,4.749e+08   ,2.4  ,2.5  ,0.19855
9782  ,2.428e+09   ,-2.3  ,-2.5  ,2.9838
9786  ,8.398e+08   ,-1.2085  ,-2.5  ,0.2
9787  ,1.451e+09   ,-1.4531  ,-2.5  ,0.2
9790  ,2.760e+09   ,2.3  ,-2.4  ,0
9793  ,1.261e+10   ,2.0345  ,2.4  ,5
9797  ,1.249e+09   ,2.3  ,-2.5  ,1.5364
9798  ,2.209e+09   ,2.4  ,1.0491  ,5
9809  ,2.430e+09   ,2.4  ,2.5  ,3.352
