Date:  12:51, Monday, July 10, 2023
Model name: Hollow_DropBox
Study name: DropTest_300fts(-Default-)
Plot type:  Stress1
Plot step: 10   time : 52.469 Microseconds
Result Type: von Mises 


Node  ,Value (N/m^2)  ,X (in)  ,Y (in)  ,Z (in)
1  ,2.737e+10   ,2.5  ,2.1331  ,4.9
2  ,2.417e+10   ,2.4577  ,2.1908  ,4.9577
3  ,5.037e+10   ,2.4894  ,2.1331  ,4.9447
4  ,2.903e+10   ,2.1331  ,2.5  ,4.9
5  ,5.183e+10   ,2.1331  ,2.4894  ,4.9447
6  ,2.254e+10   ,2.1908  ,2.4577  ,4.9577
7  ,2.401e+08   ,-2.4  ,2.4  ,5
8  ,9.234e+08   ,-2.4  ,-2.4  ,5
9  ,1.211e+09   ,2.4  ,-2.4  ,5
10  ,2.512e+10   ,2.4  ,2.1331  ,5
11  ,2.770e+10   ,2.1331  ,2.4  ,5
12  ,1.272e+09   ,2.5  ,-2.4  ,4.9
13  ,8.540e+08   ,2.5  ,-2.4  ,0.1
14  ,1.304e+08   ,2.5  ,2.4  ,0.1
15  ,2.832e+10   ,2.5  ,2.4  ,4.6331
16  ,2.041e+08   ,2.4  ,2.5  ,0.1
17  ,2.666e+08   ,-2.4  ,2.5  ,0.1
18  ,1.632e+08   ,-2.4  ,2.5  ,4.9
19  ,2.906e+10   ,2.4  ,2.5  ,4.6331
20  ,8.024e+07   ,-2.5  ,2.4  ,0.1
21  ,1.163e+08   ,-2.5  ,-2.4  ,0.1
22  ,5.653e+08   ,-2.5  ,-2.4  ,4.9
23  ,2.560e+08   ,-2.5  ,2.4  ,4.9
24  ,1.375e+08   ,-2.3  ,-2.5  ,0.2
25  ,1.165e+09   ,-2.3  ,-2.5  ,4.8
26  ,1.746e+09   ,2.3  ,-2.5  ,4.8
27  ,1.112e+09   ,2.3  ,-2.5  ,0.2
28  ,6.839e+08   ,-2.4  ,-2.5  ,4.9
29  ,1.204e+09   ,2.4  ,-2.5  ,4.9
30  ,1.254e+08   ,-2.4  ,-2.5  ,0.1
31  ,7.072e+08   ,2.4  ,-2.5  ,0.1
32  ,5.871e+08   ,2.4  ,-2.4  ,0
33  ,2.033e+08   ,2.4  ,2.4  ,0
34  ,1.394e+08   ,-2.4  ,-2.4  ,0
35  ,1.218e+08   ,-2.4  ,2.4  ,0
36  ,2.828e+10   ,2.4577  ,2.4577  ,4.6908
37  ,7.979e+08   ,-2.3  ,2.3  ,4.8
38  ,1.483e+10   ,2.1599  ,2.3  ,4.8
39  ,1.482e+10   ,2.3  ,2.1599  ,4.8
40  ,1.524e+10   ,2.3  ,2.3  ,4.6599
41  ,7.652e+08   ,2.3  ,2.3  ,0.2
42  ,3.199e+08   ,-2.3  ,2.3  ,0.2
43  ,3.578e+08   ,-2.4  ,2.2  ,5
44  ,6.187e+08   ,-2.4  ,2  ,5
45  ,6.567e+08   ,-2.4  ,1.8  ,5
46  ,6.676e+08   ,-2.4  ,1.6  ,5
47  ,6.521e+08   ,-2.4  ,1.4  ,5
48  ,7.554e+08   ,-2.4  ,1.2  ,5
49  ,8.040e+08   ,-2.4  ,1  ,5
50  ,1.155e+09   ,-2.4  ,0.8  ,5
51  ,1.084e+09   ,-2.4  ,0.6  ,5
52  ,9.457e+08   ,-2.4  ,0.4  ,5
53  ,9.293e+08   ,-2.4  ,0.2  ,5
54  ,6.226e+08   ,-2.4  ,5.8879E-16  ,5
55  ,5.767e+08   ,-2.4  ,-0.2  ,5
56  ,4.866e+08   ,-2.4  ,-0.4  ,5
57  ,5.824e+08   ,-2.4  ,-0.6  ,5
58  ,5.226e+08   ,-2.4  ,-0.8  ,5
59  ,5.458e+08   ,-2.4  ,-1  ,5
60  ,4.777e+08   ,-2.4  ,-1.2  ,5
61  ,5.988e+08   ,-2.4  ,-1.4  ,5
62  ,4.487e+08   ,-2.4  ,-1.6  ,5
63  ,2.912e+08   ,-2.4  ,-1.8  ,5
64  ,4.617e+08   ,-2.4  ,-2  ,5
65  ,4.705e+08   ,-2.4  ,-2.2  ,5
66  ,9.831e+08   ,-2.2  ,-2.4  ,5
67  ,5.183e+08   ,-2  ,-2.4  ,5
68  ,2.772e+08   ,-1.8  ,-2.4  ,5
69  ,1.805e+08   ,-1.6  ,-2.4  ,5
70  ,9.857e+07   ,-1.4  ,-2.4  ,5
71  ,3.219e+08   ,-1.2  ,-2.4  ,5
72  ,3.293e+08   ,-1  ,-2.4  ,5
73  ,3.642e+08   ,-0.8  ,-2.4  ,5
74  ,6.126e+08   ,-0.6  ,-2.4  ,5
75  ,9.721e+08   ,-0.4  ,-2.4  ,5
76  ,1.030e+09   ,-0.2  ,-2.4  ,5
77  ,1.166e+09   ,-5.8879E-16  ,-2.4  ,5
78  ,1.164e+09   ,0.2  ,-2.4  ,5
79  ,1.057e+09   ,0.4  ,-2.4  ,5
80  ,8.831e+08   ,0.6  ,-2.4  ,5
81  ,1.174e+09   ,0.8  ,-2.4  ,5
82  ,1.392e+09   ,1  ,-2.4  ,5
83  ,1.614e+09   ,1.2  ,-2.4  ,5
84  ,2.027e+09   ,1.4  ,-2.4  ,5
85  ,2.040e+09   ,1.6  ,-2.4  ,5
86  ,1.708e+09   ,1.8  ,-2.4  ,5
87  ,9.354e+08   ,2  ,-2.4  ,5
88  ,1.312e+09   ,2.2  ,-2.4  ,5
89  ,1.059e+09   ,2.4  ,-2.2029  ,5
90  ,1.053e+09   ,2.4  ,-2.0058  ,5
91  ,7.566e+08   ,2.4  ,-1.8087  ,5
92  ,7.034e+08   ,2.4  ,-1.6116  ,5
93  ,7.614e+08   ,2.4  ,-1.4145  ,5
94  ,7.049e+08   ,2.4  ,-1.2175  ,5
95  ,9.257e+08   ,2.4  ,-1.0204  ,5
96  ,1.240e+09   ,2.4  ,-0.82327  ,5
97  ,1.261e+09   ,2.4  ,-0.62618  ,5
98  ,1.301e+09   ,2.4  ,-0.42909  ,5
99  ,1.199e+09   ,2.4  ,-0.232  ,5
100  ,1.248e+09   ,2.4  ,-0.034907  ,5
101  ,1.493e+09   ,2.4  ,0.16218  ,5
102  ,1.757e+09   ,2.4  ,0.35927  ,5
103  ,2.114e+09   ,2.4  ,0.55637  ,5
104  ,2.409e+09   ,2.4  ,0.75346  ,5
105  ,2.049e+09   ,2.4  ,0.95055  ,5
106  ,2.246e+09   ,2.4  ,1.1476  ,5
107  ,3.589e+09   ,2.4  ,1.3447  ,5
108  ,5.166e+09   ,2.4  ,1.5418  ,5
109  ,7.232e+09   ,2.4  ,1.7389  ,5
110  ,1.329e+10   ,2.4  ,1.936  ,5
111  ,1.856e+10   ,2.2665  ,2.2665  ,5
112  ,1.342e+10   ,1.936  ,2.4  ,5
113  ,7.151e+09   ,1.7389  ,2.4  ,5
114  ,5.602e+09   ,1.5418  ,2.4  ,5
115  ,3.632e+09   ,1.3447  ,2.4  ,5
116  ,2.667e+09   ,1.1476  ,2.4  ,5
117  ,2.677e+09   ,0.95055  ,2.4  ,5
118  ,2.614e+09   ,0.75346  ,2.4  ,5
119  ,2.263e+09   ,0.55637  ,2.4  ,5
120  ,2.211e+09   ,0.35927  ,2.4  ,5
121  ,2.039e+09   ,0.16218  ,2.4  ,5
122  ,1.929e+09   ,-0.034907  ,2.4  ,5
123  ,2.029e+09   ,-0.232  ,2.4  ,5
124  ,1.437e+09   ,-0.42909  ,2.4  ,5
125  ,1.328e+09   ,-0.62618  ,2.4  ,5
126  ,1.481e+09   ,-0.82327  ,2.4  ,5
127  ,1.464e+09   ,-1.0204  ,2.4  ,5
128  ,1.266e+09   ,-1.2175  ,2.4  ,5
129  ,1.006e+09   ,-1.4145  ,2.4  ,5
130  ,6.718e+08   ,-1.6116  ,2.4  ,5
131  ,4.612e+08   ,-1.8087  ,2.4  ,5
132  ,3.294e+08   ,-2.0058  ,2.4  ,5
133  ,2.151e+08   ,-2.2029  ,2.4  ,5
294  ,8.540e+08   ,2.5  ,-2.2029  ,4.9
295  ,9.756e+08   ,2.5  ,-2.0058  ,4.9
296  ,7.395e+08   ,2.5  ,-1.8087  ,4.9
297  ,7.632e+08   ,2.5  ,-1.6116  ,4.9
298  ,6.924e+08   ,2.5  ,-1.4145  ,4.9
299  ,7.360e+08   ,2.5  ,-1.2175  ,4.9
300  ,9.170e+08   ,2.5  ,-1.0204  ,4.9
301  ,1.096e+09   ,2.5  ,-0.82327  ,4.9
302  ,1.207e+09   ,2.5  ,-0.62618  ,4.9
303  ,1.269e+09   ,2.5  ,-0.42909  ,4.9
304  ,1.419e+09   ,2.5  ,-0.232  ,4.9
305  ,1.582e+09   ,2.5  ,-0.034907  ,4.9
306  ,1.761e+09   ,2.5  ,0.16218  ,4.9
307  ,1.748e+09   ,2.5  ,0.35927  ,4.9
308  ,1.969e+09   ,2.5  ,0.55637  ,4.9
309  ,2.380e+09   ,2.5  ,0.75346  ,4.9
310  ,2.088e+09   ,2.5  ,0.95055  ,4.9
311  ,2.907e+09   ,2.5  ,1.1476  ,4.9
312  ,3.725e+09   ,2.5  ,1.3447  ,4.9
313  ,5.515e+09   ,2.5  ,1.5418  ,4.9
314  ,9.269e+09   ,2.5  ,1.7389  ,4.9
315  ,1.437e+10   ,2.5  ,1.936  ,4.9
316  ,1.298e+09   ,2.5  ,-2.4  ,4.7
317  ,1.173e+09   ,2.5  ,-2.4  ,4.5
318  ,1.918e+09   ,2.5  ,-2.4  ,4.3
319  ,2.320e+09   ,2.5  ,-2.4  ,4.1
320  ,1.989e+09   ,2.5  ,-2.4  ,3.9
321  ,1.626e+09   ,2.5  ,-2.4  ,3.7
322  ,1.315e+09   ,2.5  ,-2.4  ,3.5
323  ,1.079e+09   ,2.5  ,-2.4  ,3.3
324  ,8.127e+08   ,2.5  ,-2.4  ,3.1
325  ,9.177e+08   ,2.5  ,-2.4  ,2.9
326  ,9.614e+08   ,2.5  ,-2.4  ,2.7
327  ,9.813e+08   ,2.5  ,-2.4  ,2.5
328  ,9.085e+08   ,2.5  ,-2.4  ,2.3
329  ,9.099e+08   ,2.5  ,-2.4  ,2.1
330  ,5.594e+08   ,2.5  ,-2.4  ,1.9
331  ,3.038e+08   ,2.5  ,-2.4  ,1.7
332  ,2.167e+08   ,2.5  ,-2.4  ,1.5
333  ,2.461e+08   ,2.5  ,-2.4  ,1.3
334  ,1.311e+08   ,2.5  ,-2.4  ,1.1
335  ,2.166e+08   ,2.5  ,-2.4  ,0.9
336  ,3.841e+08   ,2.5  ,-2.4  ,0.7
337  ,5.158e+08   ,2.5  ,-2.4  ,0.5
338  ,8.985e+08   ,2.5  ,-2.4  ,0.3
339  ,4.434e+08   ,2.5  ,-2.2  ,0.1
340  ,4.651e+08   ,2.5  ,-2  ,0.1
341  ,3.253e+08   ,2.5  ,-1.8  ,0.1
342  ,3.766e+08   ,2.5  ,-1.6  ,0.1
343  ,3.534e+08   ,2.5  ,-1.4  ,0.1
344  ,4.505e+08   ,2.5  ,-1.2  ,0.1
345  ,4.844e+08   ,2.5  ,-1  ,0.1
346  ,4.248e+08   ,2.5  ,-0.8  ,0.1
347  ,5.135e+08   ,2.5  ,-0.6  ,0.1
348  ,4.696e+08   ,2.5  ,-0.4  ,0.1
349  ,5.816e+08   ,2.5  ,-0.2  ,0.1
350  ,6.948e+08   ,2.5  ,-1.7664E-15  ,0.1
351  ,7.959e+08   ,2.5  ,0.2  ,0.1
352  ,9.652e+08   ,2.5  ,0.4  ,0.1
353  ,9.369e+08   ,2.5  ,0.6  ,0.1
354  ,1.056e+09   ,2.5  ,0.8  ,0.1
355  ,7.804e+08   ,2.5  ,1  ,0.1
356  ,7.115e+08   ,2.5  ,1.2  ,0.1
357  ,6.920e+08   ,2.5  ,1.4  ,0.1
358  ,6.516e+08   ,2.5  ,1.6  ,0.1
359  ,6.041e+08   ,2.5  ,1.8  ,0.1
360  ,4.984e+08   ,2.5  ,2  ,0.1
361  ,2.557e+08   ,2.5  ,2.2  ,0.1
362  ,1.489e+10   ,2.5  ,2.4  ,4.436
363  ,9.094e+09   ,2.5  ,2.4  ,4.2389
364  ,5.348e+09   ,2.5  ,2.4  ,4.0418
365  ,4.079e+09   ,2.5  ,2.4  ,3.8447
366  ,2.737e+09   ,2.5  ,2.4  ,3.6476
367  ,2.421e+09   ,2.5  ,2.4  ,3.4505
368  ,2.316e+09   ,2.5  ,2.4  ,3.2535
369  ,2.229e+09   ,2.5  ,2.4  ,3.0564
370  ,2.098e+09   ,2.5  ,2.4  ,2.8593
371  ,2.065e+09   ,2.5  ,2.4  ,2.6622
372  ,2.140e+09   ,2.5  ,2.4  ,2.4651
373  ,1.777e+09   ,2.5  ,2.4  ,2.268
374  ,1.719e+09   ,2.5  ,2.4  ,2.0709
375  ,1.460e+09   ,2.5  ,2.4  ,1.8738
376  ,1.338e+09   ,2.5  ,2.4  ,1.6767
377  ,9.219e+08   ,2.5  ,2.4  ,1.4796
378  ,9.348e+08   ,2.5  ,2.4  ,1.2825
379  ,7.944e+08   ,2.5  ,2.4  ,1.0855
380  ,7.579e+08   ,2.5  ,2.4  ,0.88836
381  ,5.719e+08   ,2.5  ,2.4  ,0.69127
382  ,3.627e+08   ,2.5  ,2.4  ,0.49418
383  ,2.372e+08   ,2.5  ,2.4  ,0.29709
384  ,1.794e+10   ,2.5  ,2.2665  ,4.7665
544  ,3.348e+08   ,2.2  ,2.5  ,0.1
545  ,4.693e+08   ,2  ,2.5  ,0.1
546  ,5.308e+08   ,1.8  ,2.5  ,0.1
547  ,5.692e+08   ,1.6  ,2.5  ,0.1
548  ,5.997e+08   ,1.4  ,2.5  ,0.1
549  ,7.123e+08   ,1.2  ,2.5  ,0.1
550  ,7.752e+08   ,1  ,2.5  ,0.1
551  ,1.111e+09   ,0.8  ,2.5  ,0.1
552  ,1.059e+09   ,0.6  ,2.5  ,0.1
553  ,1.002e+09   ,0.4  ,2.5  ,0.1
554  ,1.055e+09   ,0.2  ,2.5  ,0.1
555  ,1.031e+09   ,5.8879E-16  ,2.5  ,0.1
556  ,9.059e+08   ,-0.2  ,2.5  ,0.1
557  ,8.445e+08   ,-0.4  ,2.5  ,0.1
558  ,7.615e+08   ,-0.6  ,2.5  ,0.1
559  ,6.175e+08   ,-0.8  ,2.5  ,0.1
560  ,7.433e+08   ,-1  ,2.5  ,0.1
561  ,7.238e+08   ,-1.2  ,2.5  ,0.1
562  ,5.939e+08   ,-1.4  ,2.5  ,0.1
563  ,5.170e+08   ,-1.6  ,2.5  ,0.1
564  ,4.644e+08   ,-1.8  ,2.5  ,0.1
565  ,4.584e+08   ,-2  ,2.5  ,0.1
566  ,6.564e+08   ,-2.2  ,2.5  ,0.1
567  ,3.230e+08   ,-2.4  ,2.5  ,4.7
568  ,4.954e+08   ,-2.4  ,2.5  ,4.5
569  ,5.436e+08   ,-2.4  ,2.5  ,4.3
570  ,5.541e+08   ,-2.4  ,2.5  ,4.1
571  ,5.575e+08   ,-2.4  ,2.5  ,3.9
572  ,5.861e+08   ,-2.4  ,2.5  ,3.7
573  ,6.931e+08   ,-2.4  ,2.5  ,3.5
574  ,1.203e+09   ,-2.4  ,2.5  ,3.3
575  ,1.064e+09   ,-2.4  ,2.5  ,3.1
576  ,9.470e+08   ,-2.4  ,2.5  ,2.9
577  ,8.090e+08   ,-2.4  ,2.5  ,2.7
578  ,8.540e+08   ,-2.4  ,2.5  ,2.5
579  ,8.391e+08   ,-2.4  ,2.5  ,2.3
580  ,8.606e+08   ,-2.4  ,2.5  ,2.1
581  ,6.996e+08   ,-2.4  ,2.5  ,1.9
582  ,5.380e+08   ,-2.4  ,2.5  ,1.7
583  ,6.848e+08   ,-2.4  ,2.5  ,1.5
584  ,6.230e+08   ,-2.4  ,2.5  ,1.3
585  ,5.944e+08   ,-2.4  ,2.5  ,1.1
586  ,5.363e+08   ,-2.4  ,2.5  ,0.9
587  ,5.119e+08   ,-2.4  ,2.5  ,0.7
588  ,5.656e+08   ,-2.4  ,2.5  ,0.5
589  ,6.477e+08   ,-2.4  ,2.5  ,0.3
590  ,1.441e+10   ,1.936  ,2.5  ,4.9
591  ,6.573e+09   ,1.7389  ,2.5  ,4.9
592  ,4.923e+09   ,1.5418  ,2.5  ,4.9
593  ,3.980e+09   ,1.3447  ,2.5  ,4.9
594  ,2.469e+09   ,1.1476  ,2.5  ,4.9
595  ,2.531e+09   ,0.95055  ,2.5  ,4.9
596  ,2.612e+09   ,0.75346  ,2.5  ,4.9
597  ,2.283e+09   ,0.55637  ,2.5  ,4.9
598  ,2.214e+09   ,0.35927  ,2.5  ,4.9
599  ,1.879e+09   ,0.16218  ,2.5  ,4.9
600  ,1.694e+09   ,-0.034907  ,2.5  ,4.9
601  ,1.577e+09   ,-0.232  ,2.5  ,4.9
602  ,1.702e+09   ,-0.42909  ,2.5  ,4.9
603  ,1.711e+09   ,-0.62618  ,2.5  ,4.9
604  ,1.535e+09   ,-0.82327  ,2.5  ,4.9
605  ,1.554e+09   ,-1.0204  ,2.5  ,4.9
606  ,1.453e+09   ,-1.2175  ,2.5  ,4.9
607  ,1.109e+09   ,-1.4145  ,2.5  ,4.9
608  ,8.117e+08   ,-1.6116  ,2.5  ,4.9
609  ,5.014e+08   ,-1.8087  ,2.5  ,4.9
610  ,2.815e+08   ,-2.0058  ,2.5  ,4.9
611  ,2.415e+08   ,-2.2029  ,2.5  ,4.9
612  ,1.851e+10   ,2.2665  ,2.5  ,4.7665
613  ,1.272e+10   ,2.4  ,2.5  ,4.436
614  ,7.923e+09   ,2.4  ,2.5  ,4.2389
615  ,5.311e+09   ,2.4  ,2.5  ,4.0418
616  ,3.791e+09   ,2.4  ,2.5  ,3.8447
617  ,2.839e+09   ,2.4  ,2.5  ,3.6476
618  ,2.353e+09   ,2.4  ,2.5  ,3.4505
619  ,2.287e+09   ,2.4  ,2.5  ,3.2535
620  ,2.139e+09   ,2.4  ,2.5  ,3.0564
621  ,2.153e+09   ,2.4  ,2.5  ,2.8593
622  ,2.143e+09   ,2.4  ,2.5  ,2.6622
623  ,1.900e+09   ,2.4  ,2.5  ,2.4651
624  ,1.758e+09   ,2.4  ,2.5  ,2.268
625  ,1.543e+09   ,2.4  ,2.5  ,2.0709
626  ,1.379e+09   ,2.4  ,2.5  ,1.8738
627  ,1.278e+09   ,2.4  ,2.5  ,1.6767
628  ,1.315e+09   ,2.4  ,2.5  ,1.4796
629  ,1.240e+09   ,2.4  ,2.5  ,1.2825
630  ,8.454e+08   ,2.4  ,2.5  ,1.0855
631  ,6.053e+08   ,2.4  ,2.5  ,0.88836
632  ,4.160e+08   ,2.4  ,2.5  ,0.69127
633  ,3.297e+08   ,2.4  ,2.5  ,0.49418
634  ,2.452e+08   ,2.4  ,2.5  ,0.29709
796  ,2.583e+08   ,-2.5  ,2.2  ,0.1
797  ,5.064e+08   ,-2.5  ,2  ,0.1
798  ,6.844e+08   ,-2.5  ,1.8  ,0.1
799  ,8.146e+08   ,-2.5  ,1.6  ,0.1
800  ,9.003e+08   ,-2.5  ,1.4  ,0.1
801  ,8.937e+08   ,-2.5  ,1.2  ,0.1
802  ,8.844e+08   ,-2.5  ,1  ,0.1
803  ,7.770e+08   ,-2.5  ,0.8  ,0.1
804  ,7.342e+08   ,-2.5  ,0.6  ,0.1
805  ,6.772e+08   ,-2.5  ,0.4  ,0.1
806  ,5.417e+08   ,-2.5  ,0.2  ,0.1
807  ,4.749e+08   ,-2.5  ,5.8879E-16  ,0.1
808  ,4.480e+08   ,-2.5  ,-0.2  ,0.1
809  ,4.238e+08   ,-2.5  ,-0.4  ,0.1
810  ,3.619e+08   ,-2.5  ,-0.6  ,0.1
811  ,3.485e+08   ,-2.5  ,-0.8  ,0.1
812  ,3.503e+08   ,-2.5  ,-1  ,0.1
813  ,3.266e+08   ,-2.5  ,-1.2  ,0.1
814  ,2.915e+08   ,-2.5  ,-1.4  ,0.1
815  ,2.223e+08   ,-2.5  ,-1.6  ,0.1
816  ,1.623e+08   ,-2.5  ,-1.8  ,0.1
817  ,1.629e+08   ,-2.5  ,-2  ,0.1
818  ,1.444e+08   ,-2.5  ,-2.2  ,0.1
819  ,6.500e+08   ,-2.5  ,-2.4  ,4.7
820  ,9.257e+08   ,-2.5  ,-2.4  ,4.5
821  ,1.232e+09   ,-2.5  ,-2.4  ,4.3
822  ,1.507e+09   ,-2.5  ,-2.4  ,4.1
823  ,1.369e+09   ,-2.5  ,-2.4  ,3.9
824  ,1.169e+09   ,-2.5  ,-2.4  ,3.7
825  ,9.428e+08   ,-2.5  ,-2.4  ,3.5
826  ,5.629e+08   ,-2.5  ,-2.4  ,3.3
827  ,2.329e+08   ,-2.5  ,-2.4  ,3.1
828  ,5.689e+07   ,-2.5  ,-2.4  ,2.9
829  ,3.465e+08   ,-2.5  ,-2.4  ,2.7
830  ,7.145e+08   ,-2.5  ,-2.4  ,2.5
831  ,7.231e+08   ,-2.5  ,-2.4  ,2.3
832  ,5.669e+08   ,-2.5  ,-2.4  ,2.1
833  ,3.907e+08   ,-2.5  ,-2.4  ,1.9
834  ,4.503e+08   ,-2.5  ,-2.4  ,1.7
835  ,4.467e+08   ,-2.5  ,-2.4  ,1.5
836  ,3.529e+08   ,-2.5  ,-2.4  ,1.3
837  ,3.263e+08   ,-2.5  ,-2.4  ,1.1
838  ,2.903e+08   ,-2.5  ,-2.4  ,0.9
839  ,2.318e+08   ,-2.5  ,-2.4  ,0.7
840  ,1.808e+08   ,-2.5  ,-2.4  ,0.5
841  ,6.430e+07   ,-2.5  ,-2.4  ,0.3
842  ,4.432e+08   ,-2.5  ,2.2  ,4.9
843  ,6.236e+08   ,-2.5  ,2  ,4.9
844  ,6.581e+08   ,-2.5  ,1.8  ,4.9
845  ,7.300e+08   ,-2.5  ,1.6  ,4.9
846  ,7.366e+08   ,-2.5  ,1.4  ,4.9
847  ,7.534e+08   ,-2.5  ,1.2  ,4.9
848  ,8.410e+08   ,-2.5  ,1  ,4.9
849  ,1.103e+09   ,-2.5  ,0.8  ,4.9
850  ,7.881e+08   ,-2.5  ,0.6  ,4.9
851  ,7.348e+08   ,-2.5  ,0.4  ,4.9
852  ,7.583e+08   ,-2.5  ,0.2  ,4.9
853  ,7.374e+08   ,-2.5  ,5.8879E-16  ,4.9
854  ,5.277e+08   ,-2.5  ,-0.2  ,4.9
855  ,4.526e+08   ,-2.5  ,-0.4  ,4.9
856  ,4.774e+08   ,-2.5  ,-0.6  ,4.9
857  ,4.925e+08   ,-2.5  ,-0.8  ,4.9
858  ,4.898e+08   ,-2.5  ,-1  ,4.9
859  ,4.070e+08   ,-2.5  ,-1.2  ,4.9
860  ,4.165e+08   ,-2.5  ,-1.4  ,4.9
861  ,4.437e+08   ,-2.5  ,-1.6  ,4.9
862  ,4.535e+08   ,-2.5  ,-1.8  ,4.9
863  ,4.182e+08   ,-2.5  ,-2  ,4.9
864  ,4.484e+08   ,-2.5  ,-2.2  ,4.9
865  ,4.160e+08   ,-2.5  ,2.4  ,4.7
866  ,5.953e+08   ,-2.5  ,2.4  ,4.5
867  ,6.915e+08   ,-2.5  ,2.4  ,4.3
868  ,6.329e+08   ,-2.5  ,2.4  ,4.1
869  ,7.455e+08   ,-2.5  ,2.4  ,3.9
870  ,7.643e+08   ,-2.5  ,2.4  ,3.7
871  ,8.751e+08   ,-2.5  ,2.4  ,3.5
872  ,1.118e+09   ,-2.5  ,2.4  ,3.3
873  ,1.029e+09   ,-2.5  ,2.4  ,3.1
874  ,9.058e+08   ,-2.5  ,2.4  ,2.9
875  ,8.073e+08   ,-2.5  ,2.4  ,2.7
876  ,8.185e+08   ,-2.5  ,2.4  ,2.5
877  ,6.967e+08   ,-2.5  ,2.4  ,2.3
878  ,6.418e+08   ,-2.5  ,2.4  ,2.1
879  ,5.430e+08   ,-2.5  ,2.4  ,1.9
880  ,5.312e+08   ,-2.5  ,2.4  ,1.7
881  ,4.974e+08   ,-2.5  ,2.4  ,1.5
882  ,5.214e+08   ,-2.5  ,2.4  ,1.3
883  ,5.189e+08   ,-2.5  ,2.4  ,1.1
884  ,5.106e+08   ,-2.5  ,2.4  ,0.9
885  ,4.766e+08   ,-2.5  ,2.4  ,0.7
886  ,4.845e+08   ,-2.5  ,2.4  ,0.5
887  ,4.203e+08   ,-2.5  ,2.4  ,0.3
1044  ,1.362e+08   ,-2.3  ,-2.5  ,0.44697
1045  ,1.819e+08   ,-2.3  ,-2.5  ,0.68705
1046  ,2.386e+08   ,-2.3  ,-2.5  ,0.92554
1047  ,1.504e+08   ,-2.3  ,-2.5  ,1.1682
1048  ,1.982e+08   ,-2.3  ,-2.5  ,1.4148
1049  ,4.590e+08   ,-2.3  ,-2.5  ,1.6581
1050  ,5.930e+08   ,-2.3  ,-2.5  ,1.8967
1051  ,5.234e+08   ,-2.3  ,-2.5  ,2.1357
1052  ,4.014e+08   ,-2.3  ,-2.5  ,2.3794
1053  ,6.369e+08   ,-2.3  ,-2.5  ,2.6206
1054  ,9.107e+08   ,-2.3  ,-2.5  ,2.8643
1055  ,6.861e+08   ,-2.3  ,-2.5  ,3.1033
1056  ,3.080e+08   ,-2.3  ,-2.5  ,3.342
1057  ,1.996e+08   ,-2.3  ,-2.5  ,3.5852
1058  ,4.400e+08   ,-2.3  ,-2.5  ,3.8318
1059  ,5.091e+08   ,-2.3  ,-2.5  ,4.0745
1060  ,4.146e+08   ,-2.3  ,-2.5  ,4.3129
1061  ,3.862e+08   ,-2.3  ,-2.5  ,4.553
1062  ,1.517e+09   ,-2.053  ,-2.5  ,4.8
1063  ,9.558e+08   ,-1.8129  ,-2.5  ,4.8
1064  ,4.845e+08   ,-1.5745  ,-2.5  ,4.8
1065  ,8.840e+07   ,-1.3318  ,-2.5  ,4.8
1066  ,4.665e+08   ,-1.0852  ,-2.5  ,4.8
1067  ,6.149e+08   ,-0.84195  ,-2.5  ,4.8
1068  ,6.563e+08   ,-0.60329  ,-2.5  ,4.8
1069  ,5.470e+08   ,-0.3643  ,-2.5  ,4.8
1070  ,4.021e+08   ,-0.12055  ,-2.5  ,4.8
1071  ,6.420e+08   ,0.12056  ,-2.5  ,4.8
1072  ,1.387e+09   ,0.3643  ,-2.5  ,4.8
1073  ,1.707e+09   ,0.6033  ,-2.5  ,4.8
1074  ,1.431e+09   ,0.84195  ,-2.5  ,4.8
1075  ,1.149e+09   ,1.0852  ,-2.5  ,4.8
1076  ,7.503e+08   ,1.3318  ,-2.5  ,4.8
1077  ,3.879e+08   ,1.5745  ,-2.5  ,4.8
1078  ,5.409e+08   ,1.8129  ,-2.5  ,4.8
1079  ,1.581e+09   ,2.053  ,-2.5  ,4.8
1080  ,1.674e+09   ,2.3  ,-2.5  ,4.553
1081  ,5.644e+08   ,2.3  ,-2.5  ,4.3129
1082  ,4.764e+08   ,2.3  ,-2.5  ,4.0745
1083  ,9.058e+08   ,2.3  ,-2.5  ,3.8318
1084  ,1.186e+09   ,2.3  ,-2.5  ,3.5852
1085  ,1.344e+09   ,2.3  ,-2.5  ,3.3419
1086  ,1.554e+09   ,2.3  ,-2.5  ,3.1033
1087  ,1.223e+09   ,2.3  ,-2.5  ,2.8643
1088  ,5.523e+08   ,2.3  ,-2.5  ,2.6206
1089  ,2.667e+08   ,2.3  ,-2.5  ,2.3794
1090  ,5.155e+08   ,2.3  ,-2.5  ,2.1357
1091  ,6.742e+08   ,2.3  ,-2.5  ,1.8967
1092  ,7.161e+08   ,2.3  ,-2.5  ,1.658
1093  ,5.145e+08   ,2.3  ,-2.5  ,1.4148
1094  ,8.135e+07   ,2.3  ,-2.5  ,1.1682
1095  ,4.921e+08   ,2.3  ,-2.5  ,0.92554
1096  ,9.355e+08   ,2.3  ,-2.5  ,0.68705
1097  ,1.465e+09   ,2.3  ,-2.5  ,0.44697
1098  ,1.326e+08   ,-2.053  ,-2.5  ,0.2
1099  ,1.643e+08   ,-1.8129  ,-2.5  ,0.2
1100  ,1.601e+08   ,-1.5745  ,-2.5  ,0.2
1101  ,1.826e+08   ,-1.3318  ,-2.5  ,0.2
1102  ,2.968e+08   ,-1.0852  ,-2.5  ,0.2
1103  ,4.284e+08   ,-0.84195  ,-2.5  ,0.2
1104  ,5.386e+08   ,-0.60329  ,-2.5  ,0.2
1105  ,5.254e+08   ,-0.3643  ,-2.5  ,0.2
1106  ,3.609e+08   ,-0.12055  ,-2.5  ,0.2
1107  ,5.893e+08   ,0.12056  ,-2.5  ,0.2
1108  ,8.715e+08   ,0.3643  ,-2.5  ,0.2
1109  ,6.697e+08   ,0.6033  ,-2.5  ,0.2
1110  ,3.924e+08   ,0.84195  ,-2.5  ,0.2
1111  ,2.343e+08   ,1.0852  ,-2.5  ,0.2
1112  ,5.408e+08   ,1.3318  ,-2.5  ,0.2
1113  ,5.591e+08   ,1.5745  ,-2.5  ,0.2
1114  ,3.736e+08   ,1.8129  ,-2.5  ,0.2
1115  ,4.069e+08   ,2.053  ,-2.5  ,0.2
1116  ,5.775e+08   ,-2.2  ,-2.5  ,4.9
1117  ,6.087e+08   ,-2  ,-2.5  ,4.9
1118  ,4.888e+08   ,-1.8  ,-2.5  ,4.9
1119  ,2.219e+08   ,-1.6  ,-2.5  ,4.9
1120  ,1.229e+08   ,-1.4  ,-2.5  ,4.9
1121  ,9.439e+07   ,-1.2  ,-2.5  ,4.9
1122  ,3.050e+08   ,-1  ,-2.5  ,4.9
1123  ,4.634e+08   ,-0.8  ,-2.5  ,4.9
1124  ,6.526e+08   ,-0.6  ,-2.5  ,4.9
1125  ,7.825e+08   ,-0.4  ,-2.5  ,4.9
1126  ,7.728e+08   ,-0.2  ,-2.5  ,4.9
1127  ,8.277e+08   ,-1.7664E-15  ,-2.5  ,4.9
1128  ,1.057e+09   ,0.2  ,-2.5  ,4.9
1129  ,1.277e+09   ,0.4  ,-2.5  ,4.9
1130  ,1.358e+09   ,0.6  ,-2.5  ,4.9
1131  ,1.392e+09   ,0.8  ,-2.5  ,4.9
1132  ,1.386e+09   ,1  ,-2.5  ,4.9
1133  ,1.416e+09   ,1.2  ,-2.5  ,4.9
1134  ,1.348e+09   ,1.4  ,-2.5  ,4.9
1135  ,1.305e+09   ,1.6  ,-2.5  ,4.9
1136  ,1.337e+09   ,1.8  ,-2.5  ,4.9
1137  ,1.221e+09   ,2  ,-2.5  ,4.9
1138  ,8.261e+08   ,2.2  ,-2.5  ,4.9
1139  ,9.903e+08   ,-2.4  ,-2.5  ,4.7
1140  ,8.127e+08   ,-2.4  ,-2.5  ,4.5
1141  ,6.479e+08   ,-2.4  ,-2.5  ,4.3
1142  ,4.917e+08   ,-2.4  ,-2.5  ,4.1
1143  ,5.352e+08   ,-2.4  ,-2.5  ,3.9
1144  ,6.208e+08   ,-2.4  ,-2.5  ,3.7
1145  ,5.305e+08   ,-2.4  ,-2.5  ,3.5
1146  ,5.431e+08   ,-2.4  ,-2.5  ,3.3
1147  ,4.951e+08   ,-2.4  ,-2.5  ,3.1
1148  ,3.738e+08   ,-2.4  ,-2.5  ,2.9
1149  ,5.786e+08   ,-2.4  ,-2.5  ,2.7
1150  ,7.108e+08   ,-2.4  ,-2.5  ,2.5
1151  ,6.887e+08   ,-2.4  ,-2.5  ,2.3
1152  ,5.947e+08   ,-2.4  ,-2.5  ,2.1
1153  ,4.480e+08   ,-2.4  ,-2.5  ,1.9
1154  ,4.497e+08   ,-2.4  ,-2.5  ,1.7
1155  ,3.654e+08   ,-2.4  ,-2.5  ,1.5
1156  ,2.768e+08   ,-2.4  ,-2.5  ,1.3
1157  ,2.584e+08   ,-2.4  ,-2.5  ,1.1
1158  ,2.392e+08   ,-2.4  ,-2.5  ,0.9
1159  ,1.726e+08   ,-2.4  ,-2.5  ,0.7
1160  ,1.517e+08   ,-2.4  ,-2.5  ,0.5
1161  ,7.576e+07   ,-2.4  ,-2.5  ,0.3
1162  ,1.215e+08   ,-2.2  ,-2.5  ,0.1
1163  ,1.910e+08   ,-2  ,-2.5  ,0.1
1164  ,2.375e+08   ,-1.8  ,-2.5  ,0.1
1165  ,2.172e+08   ,-1.6  ,-2.5  ,0.1
1166  ,2.191e+08   ,-1.4  ,-2.5  ,0.1
1167  ,2.744e+08   ,-1.2  ,-2.5  ,0.1
1168  ,3.268e+08   ,-1  ,-2.5  ,0.1
1169  ,3.990e+08   ,-0.8  ,-2.5  ,0.1
1170  ,4.316e+08   ,-0.6  ,-2.5  ,0.1
1171  ,5.399e+08   ,-0.4  ,-2.5  ,0.1
1172  ,6.284e+08   ,-0.2  ,-2.5  ,0.1
1173  ,6.998e+08   ,-1.7664E-15  ,-2.5  ,0.1
1174  ,5.578e+08   ,0.2  ,-2.5  ,0.1
1175  ,3.463e+08   ,0.4  ,-2.5  ,0.1
1176  ,4.355e+08   ,0.6  ,-2.5  ,0.1
1177  ,5.392e+08   ,0.8  ,-2.5  ,0.1
1178  ,6.093e+08   ,1  ,-2.5  ,0.1
1179  ,6.485e+08   ,1.2  ,-2.5  ,0.1
1180  ,5.080e+08   ,1.4  ,-2.5  ,0.1
1181  ,5.809e+08   ,1.6  ,-2.5  ,0.1
1182  ,6.557e+08   ,1.8  ,-2.5  ,0.1
1183  ,6.295e+08   ,2  ,-2.5  ,0.1
1184  ,7.699e+08   ,2.2  ,-2.5  ,0.1
1185  ,1.120e+09   ,2.4  ,-2.5  ,4.7
1186  ,1.348e+09   ,2.4  ,-2.5  ,4.5
1187  ,1.476e+09   ,2.4  ,-2.5  ,4.3
1188  ,1.395e+09   ,2.4  ,-2.5  ,4.1
1189  ,1.532e+09   ,2.4  ,-2.5  ,3.9
1190  ,1.392e+09   ,2.4  ,-2.5  ,3.7
1191  ,1.330e+09   ,2.4  ,-2.5  ,3.5
1192  ,1.315e+09   ,2.4  ,-2.5  ,3.3
1193  ,1.228e+09   ,2.4  ,-2.5  ,3.1
1194  ,1.103e+09   ,2.4  ,-2.5  ,2.9
1195  ,8.836e+08   ,2.4  ,-2.5  ,2.7
1196  ,6.649e+08   ,2.4  ,-2.5  ,2.5
1197  ,6.596e+08   ,2.4  ,-2.5  ,2.3
1198  ,7.445e+08   ,2.4  ,-2.5  ,2.1
1199  ,6.683e+08   ,2.4  ,-2.5  ,1.9
1200  ,4.995e+08   ,2.4  ,-2.5  ,1.7
1201  ,2.727e+08   ,2.4  ,-2.5  ,1.5
1202  ,5.122e+07   ,2.4  ,-2.5  ,1.3
1203  ,1.596e+08   ,2.4  ,-2.5  ,1.1
1204  ,2.347e+08   ,2.4  ,-2.5  ,0.9
1205  ,5.133e+08   ,2.4  ,-2.5  ,0.7
1206  ,6.307e+08   ,2.4  ,-2.5  ,0.5
1207  ,6.534e+08   ,2.4  ,-2.5  ,0.3
1208  ,4.395e+08   ,2.4  ,-2.2  ,0
1209  ,4.123e+08   ,2.4  ,-2  ,0
1210  ,3.946e+08   ,2.4  ,-1.8  ,0
1211  ,3.725e+08   ,2.4  ,-1.6  ,0
1212  ,4.132e+08   ,2.4  ,-1.4  ,0
1213  ,4.040e+08   ,2.4  ,-1.2  ,0
1214  ,4.825e+08   ,2.4  ,-1  ,0
1215  ,5.552e+08   ,2.4  ,-0.8  ,0
1216  ,4.789e+08   ,2.4  ,-0.6  ,0
1217  ,3.967e+08   ,2.4  ,-0.4  ,0
1218  ,4.711e+08   ,2.4  ,-0.2  ,0
1219  ,6.283e+08   ,2.4  ,-1.7664E-15  ,0
1220  ,7.919e+08   ,2.4  ,0.2  ,0
1221  ,7.447e+08   ,2.4  ,0.4  ,0
1222  ,7.592e+08   ,2.4  ,0.6  ,0
1223  ,1.005e+09   ,2.4  ,0.8  ,0
1224  ,8.444e+08   ,2.4  ,1  ,0
1225  ,7.839e+08   ,2.4  ,1.2  ,0
1226  ,7.549e+08   ,2.4  ,1.4  ,0
1227  ,6.473e+08   ,2.4  ,1.6  ,0
1228  ,6.151e+08   ,2.4  ,1.8  ,0
1229  ,5.559e+08   ,2.4  ,2  ,0
1230  ,4.223e+08   ,2.4  ,2.2  ,0
1231  ,6.594e+07   ,-2.2  ,-2.4  ,0
1232  ,1.969e+08   ,-2  ,-2.4  ,0
1233  ,3.101e+08   ,-1.8  ,-2.4  ,0
1234  ,2.806e+08   ,-1.6  ,-2.4  ,0
1235  ,2.581e+08   ,-1.4  ,-2.4  ,0
1236  ,3.044e+08   ,-1.2  ,-2.4  ,0
1237  ,3.624e+08   ,-1  ,-2.4  ,0
1238  ,3.667e+08   ,-0.8  ,-2.4  ,0
1239  ,3.289e+08   ,-0.6  ,-2.4  ,0
1240  ,4.990e+08   ,-0.4  ,-2.4  ,0
1241  ,6.955e+08   ,-0.2  ,-2.4  ,0
1242  ,6.677e+08   ,5.8879E-16  ,-2.4  ,0
1243  ,2.555e+08   ,0.2  ,-2.4  ,0
1244  ,7.651e+07   ,0.4  ,-2.4  ,0
1245  ,2.466e+08   ,0.6  ,-2.4  ,0
1246  ,5.317e+08   ,0.8  ,-2.4  ,0
1247  ,9.233e+08   ,1  ,-2.4  ,0
1248  ,1.335e+09   ,1.2  ,-2.4  ,0
1249  ,1.473e+09   ,1.4  ,-2.4  ,0
1250  ,1.408e+09   ,1.6  ,-2.4  ,0
1251  ,1.112e+09   ,1.8  ,-2.4  ,0
1252  ,9.154e+08   ,2  ,-2.4  ,0
1253  ,6.393e+08   ,2.2  ,-2.4  ,0
1254  ,2.847e+08   ,-2.4  ,2.2  ,0
1255  ,5.117e+08   ,-2.4  ,2  ,0
1256  ,7.028e+08   ,-2.4  ,1.8  ,0
1257  ,7.857e+08   ,-2.4  ,1.6  ,0
1258  ,8.848e+08   ,-2.4  ,1.4  ,0
1259  ,9.059e+08   ,-2.4  ,1.2  ,0
1260  ,8.518e+08   ,-2.4  ,1  ,0
1261  ,7.571e+08   ,-2.4  ,0.8  ,0
1262  ,7.057e+08   ,-2.4  ,0.6  ,0
1263  ,6.396e+08   ,-2.4  ,0.4  ,0
1264  ,5.641e+08   ,-2.4  ,0.2  ,0
1265  ,5.107e+08   ,-2.4  ,5.8879E-16  ,0
1266  ,4.428e+08   ,-2.4  ,-0.2  ,0
1267  ,4.335e+08   ,-2.4  ,-0.4  ,0
1268  ,3.710e+08   ,-2.4  ,-0.6  ,0
1269  ,3.633e+08   ,-2.4  ,-0.8  ,0
1270  ,3.697e+08   ,-2.4  ,-1  ,0
1271  ,3.280e+08   ,-2.4  ,-1.2  ,0
1272  ,2.587e+08   ,-2.4  ,-1.4  ,0
1273  ,1.885e+08   ,-2.4  ,-1.6  ,0
1274  ,1.749e+08   ,-2.4  ,-1.8  ,0
1275  ,1.869e+08   ,-2.4  ,-2  ,0
1276  ,1.788e+08   ,-2.4  ,-2.2  ,0
1277  ,3.844e+08   ,2.2  ,2.4  ,0
1278  ,5.139e+08   ,2  ,2.4  ,0
1279  ,6.107e+08   ,1.8  ,2.4  ,0
1280  ,6.245e+08   ,1.6  ,2.4  ,0
1281  ,6.688e+08   ,1.4  ,2.4  ,0
1282  ,8.400e+08   ,1.2  ,2.4  ,0
1283  ,9.561e+08   ,1  ,2.4  ,0
1284  ,1.057e+09   ,0.8  ,2.4  ,0
1285  ,9.614e+08   ,0.6  ,2.4  ,0
1286  ,7.855e+08   ,0.4  ,2.4  ,0
1287  ,8.139e+08   ,0.2  ,2.4  ,0
1288  ,8.619e+08   ,5.8879E-16  ,2.4  ,0
1289  ,1.038e+09   ,-0.2  ,2.4  ,0
1290  ,8.986e+08   ,-0.4  ,2.4  ,0
1291  ,7.230e+08   ,-0.6  ,2.4  ,0
1292  ,6.285e+08   ,-0.8  ,2.4  ,0
1293  ,5.185e+08   ,-1  ,2.4  ,0
1294  ,4.893e+08   ,-1.2  ,2.4  ,0
1295  ,4.456e+08   ,-1.4  ,2.4  ,0
1296  ,4.580e+08   ,-1.6  ,2.4  ,0
1297  ,4.881e+08   ,-1.8  ,2.4  ,0
1298  ,4.588e+08   ,-2  ,2.4  ,0
1299  ,4.330e+08   ,-2.2  ,2.4  ,0
1460  ,1.155e+10   ,2.3243  ,2.3243  ,4.9577
1461  ,1.000e+10   ,2.4577  ,2.3243  ,4.8243
1462  ,7.578e+09   ,2.3243  ,2.4577  ,4.8243
1463  ,5.625e+08   ,-2.3  ,-2.1759  ,4.8
1464  ,9.421e+08   ,-2.3  ,-1.7631  ,4.8
1465  ,1.386e+09   ,-2.3  ,-1.1827  ,4.8
1466  ,1.401e+09   ,-2.3  ,-0.34986  ,4.8
1467  ,1.555e+09   ,-2.3  ,0.80545  ,4.8
1468  ,1.751e+09   ,-0.81337  ,2.3  ,4.8
1469  ,4.064e+09   ,0.67326  ,2.3  ,4.8
1470  ,1.157e+09   ,2.3  ,-2.1824  ,4.8
1471  ,7.019e+08   ,2.3  ,-1.7784  ,4.8
1472  ,1.153e+09   ,2.3  ,-1.2138  ,4.8
1473  ,2.074e+09   ,2.3  ,-0.40752  ,4.8
1474  ,3.714e+09   ,2.3  ,0.70532  ,4.8
1516  ,1.728e+09   ,2.3  ,2.3  ,1.6866
1517  ,3.958e+09   ,2.3  ,2.3  ,3.1733
1518  ,6.192e+08   ,2.3  ,-2.1759  ,0.2
1519  ,8.812e+08   ,2.3  ,-1.7631  ,0.2
1520  ,1.459e+09   ,2.3  ,-1.1827  ,0.2
1521  ,1.481e+09   ,2.3  ,-0.34986  ,0.2
1522  ,1.575e+09   ,2.3  ,0.80545  ,0.2
1564  ,1.624e+09   ,-0.76667  ,2.3  ,0.2
1565  ,1.513e+09   ,0.76667  ,2.3  ,0.2
1566  ,1.635e+09   ,-2.3  ,2.3  ,1.7333
1567  ,1.591e+09   ,-2.3  ,2.3  ,3.2667
1574  ,2.009e+08   ,-2.3  ,-2.1759  ,0.2
1575  ,2.273e+08   ,-2.3  ,-1.7631  ,0.2
1576  ,2.826e+08   ,-2.3  ,-1.1827  ,0.2
1577  ,2.865e+08   ,-2.3  ,-0.34986  ,0.2
1578  ,3.482e+08   ,-2.3  ,0.80545  ,0.2
1777  ,1.714e+09   ,-0.52764  ,2.5  ,4.9
1801  ,6.620e+08   ,-2.3  ,1.5527  ,0.2
1825  ,1.570e+09   ,-1.5333  ,2.3  ,0.2
1841  ,1.829e+09   ,0.063638  ,2.5  ,4.9
1876  ,8.006e+08   ,-0.5  ,2.4  ,0
1894  ,1.718e+09   ,2.3  ,1.5527  ,0.2
1907  ,3.988e+08   ,2.1  ,2.5  ,0.1
1928  ,5.276e+08   ,1.9  ,2.4  ,0
1974  ,8.095e+08   ,2.4  ,1.1  ,0
1981  ,3.876e+08   ,2.4  ,2.5  ,0.59273
1987  ,7.280e+08   ,-2.5  ,2.4  ,4
2004  ,4.098e+08   ,-2.4  ,2.5  ,4.6
2009  ,7.432e+08   ,2.4  ,1.3  ,0
2020  ,7.411e+08   ,2.5  ,1.1  ,0.1
2035  ,2.873e+08   ,-2.3  ,-0.76628  ,0.2
2070  ,6.328e+09   ,1.6404  ,2.4  ,5
2081  ,1.468e+09   ,2.4  ,2.5  ,1.9724
2095  ,5.599e+08   ,2.4  ,2.5  ,0.78982
2138  ,4.761e+08   ,-2.4  ,-0.1  ,0
2146  ,1.424e+09   ,-0.92182  ,2.4  ,5
2174  ,9.866e+08   ,2.4  ,2.5  ,1.184
2190  ,7.689e+08   ,2.5  ,2.4  ,0.98691
2203  ,1.554e+09   ,2.5  ,-0.13345  ,4.9
2232  ,3.514e+09   ,2.3  ,0.1489  ,4.8
2242  ,2.223e+09   ,2.4  ,2.5  ,2.9578
2293  ,7.244e+08   ,-2.5  ,0.5  ,0.1
2311  ,4.292e+09   ,2.3  ,2.3  ,2.4299
2313  ,6.937e+08   ,2.5  ,2.4  ,0.78982
2329  ,1.621e+09   ,2.4  ,2.5  ,2.1695
2355  ,5.331e+08   ,-2.4  ,2.5  ,4.4
2380  ,2.583e+08   ,-2.5  ,-1.5  ,0.1
2383  ,2.175e+09   ,0.45782  ,2.5  ,4.9
2408  ,1.209e+09   ,2.3  ,-1.4961  ,4.8
2445  ,6.647e+08   ,2.5  ,-1.5131  ,4.9
2484  ,4.516e+08   ,-2.5  ,-2.4  ,1.6
2495  ,6.636e+08   ,-2.4  ,1.7  ,5
2508  ,7.758e+08   ,2.4  ,0.3  ,0
2514  ,1.882e+09   ,2.3  ,0.2278  ,0.2
2570  ,6.487e+08   ,-2.4  ,1.5  ,5
2580  ,6.135e+09   ,1.6404  ,2.5  ,4.9
2603  ,1.569e+09   ,-1.1189  ,2.5  ,4.9
2695  ,1.056e+09   ,2.3  ,2.3  ,0.94331
2705  ,1.301e+09   ,2.4  ,2.5  ,1.3811
2714  ,1.925e+09   ,2.5  ,0.45782  ,4.9
2734  ,4.981e+08   ,2.4  ,-0.9  ,0
2775  ,6.175e+08   ,2.5  ,-0.1  ,0.1
2779  ,5.219e+08   ,2.4  ,-0.1  ,0
2801  ,8.507e+09   ,1.4166  ,2.3  ,4.8
2814  ,4.494e+09   ,1.4433  ,2.5  ,4.9
2863  ,5.276e+08   ,-2.4  ,2.5  ,0.6
2884  ,5.273e+08   ,-2.4  ,2.5  ,0.8
2886  ,6.143e+08   ,-2.4  ,2.5  ,1.2
2967  ,6.061e+08   ,2.4  ,1.7  ,0
2973  ,6.689e+08   ,2.5  ,1.5  ,0.1
2987  ,8.440e+08   ,-0.3  ,2.5  ,0.1
3008  ,1.518e+09   ,-2.3  ,2.3  ,0.96667
3012  ,7.988e+08   ,-2.5  ,2.4  ,2.6
3021  ,8.202e+08   ,-2.5  ,2.4  ,2.8
3025  ,7.564e+08   ,-2.5  ,2.4  ,2.4
3030  ,8.419e+08   ,-2.4  ,2.5  ,2.4
3033  ,8.168e+08   ,-2.4  ,2.5  ,2.2
3047  ,1.799e+09   ,2.4  ,2.5  ,2.3665
3052  ,2.066e+09   ,2.5  ,2.4  ,2.5636
3061  ,2.027e+09   ,2.4  ,2.5  ,2.5636
3081  ,6.841e+08   ,-2.4  ,1.3  ,5
3088  ,3.571e+08   ,-1.9073  ,2.4  ,5
3099  ,6.215e+08   ,-2.4  ,1.9  ,5
3107  ,5.555e+08   ,-2.4  ,2.5  ,3.8
3139  ,8.326e+08   ,-1.5131  ,2.4  ,5
3145  ,9.596e+08   ,-1.5131  ,2.5  ,4.9
3148  ,6.708e+08   ,-1.7102  ,2.5  ,4.9
3168  ,8.432e+08   ,-2.4  ,1.5  ,0
3188  ,3.303e+08   ,-2.5  ,-2.4  ,1
3202  ,1.833e+09   ,0.26073  ,2.5  ,4.9
3212  ,6.344e+09   ,2.5  ,1.6404  ,4.9
3247  ,1.094e+10   ,2.5  ,1.8375  ,4.9
3265  ,8.802e+09   ,2.3  ,1.4326  ,4.8
3271  ,1.408e+10   ,2.2299  ,2.2299  ,4.8
3284  ,4.321e+09   ,2.4  ,1.4433  ,5
3291  ,4.566e+09   ,2.5  ,1.4433  ,4.9
3296  ,1.712e+09   ,-2.3  ,-0.76628  ,4.8
3303  ,5.582e+08   ,-2.4  ,-0.9  ,5
3311  ,5.172e+08   ,-2.4  ,-0.7  ,5
3315  ,4.954e+08   ,1.9  ,2.5  ,0.1
3336  ,5.984e+08   ,-2.4  ,0.3  ,0
3340  ,4.975e+08   ,-2.5  ,0.1  ,0.1
3344  ,5.284e+08   ,-2.4  ,0.1  ,0
3356  ,9.475e+08   ,-0.3  ,2.4  ,0
3361  ,1.561e+09   ,-0.33054  ,2.5  ,4.9
3364  ,1.653e+09   ,-0.13345  ,2.5  ,4.9
3383  ,2.632e+09   ,2.4  ,2.5  ,3.5491
3402  ,1.578e+10   ,2.4  ,2.5  ,4.5345
3421  ,1.218e+09   ,-1.316  ,2.5  ,4.9
3439  ,4.307e+09   ,2.5  ,2.4  ,3.9433
3447  ,4.584e+09   ,2.4  ,2.5  ,3.9433
3451  ,3.180e+09   ,2.4  ,2.5  ,3.7462
3468  ,4.355e+09   ,1.4433  ,2.4  ,5
3480  ,2.726e+09   ,1.0491  ,2.4  ,5
3519  ,6.917e+08   ,1.5  ,2.4  ,0
3527  ,1.373e+09   ,2.3  ,-1.4729  ,0.2
3550  ,4.633e+08   ,-1.7  ,2.4  ,0
3554  ,4.916e+08   ,-1.7  ,2.5  ,0.1
3558  ,4.388e+08   ,-1.5  ,2.4  ,0
3562  ,5.402e+08   ,-1.5  ,2.5  ,0.1
3574  ,4.366e+08   ,-2.4  ,2.1  ,5
3581  ,7.293e+08   ,-2.5  ,1.7  ,0.1
3583  ,6.166e+08   ,-2.5  ,1.9  ,0.1
3584  ,3.647e+08   ,-1.9073  ,2.5  ,4.9
3591  ,8.083e+08   ,2.5  ,0.3  ,0.1
3595  ,7.186e+08   ,2.5  ,0.1  ,0.1
3603  ,1.786e+10   ,2.4577  ,2.391  ,4.7576
3663  ,1.554e+08   ,-1.933  ,-2.5  ,0.2
3669  ,2.091e+08   ,-2.1765  ,-2.5  ,0.2
3672  ,2.089e+08   ,-2.3  ,-2.3379  ,0.2
3682  ,2.542e+08   ,-1.9  ,-2.4  ,0
3700  ,8.755e+08   ,2.3  ,-2.5  ,2.7424
3712  ,6.356e+08   ,-2.1  ,-2.5  ,4.9
3715  ,5.870e+08   ,-1.9  ,-2.5  ,4.9
3740  ,1.972e+08   ,-1.3  ,-2.4  ,5
3746  ,3.076e+08   ,-1.2085  ,-2.5  ,4.8
3755  ,1.021e+08   ,-1.5  ,-2.4  ,5
3760  ,3.860e+08   ,-1.7  ,-2.5  ,4.9
3786  ,1.273e+09   ,2.4  ,2.5  ,1.5782
3813  ,2.153e+09   ,0.26073  ,2.4  ,5
3858  ,3.166e+08   ,-0.9  ,-2.4  ,5
3863  ,1.017e+09   ,-2.5  ,0.9  ,4.9
3875  ,3.011e+08   ,-1.9  ,-2.4  ,5
3885  ,1.229e+09   ,2.4  ,-0.72473  ,5
3910  ,5.690e+08   ,-2.4  ,-2.5  ,3.4
3959  ,6.680e+09   ,2.5  ,2.4  ,4.1404
3969  ,2.467e+09   ,2.5  ,1.0491  ,4.9
3992  ,1.532e+10   ,2.391  ,2.2576  ,4.9577
3993  ,1.766e+10   ,2.4577  ,2.2576  ,4.891
4016  ,2.147e+08   ,-2.3015  ,2.5  ,4.9
4018  ,2.410e+08   ,-2.4  ,2.5  ,4.8
4021  ,3.059e+09   ,1.2462  ,2.4  ,5
4042  ,4.489e+08   ,2.4  ,-1.1  ,0
4046  ,5.543e+08   ,-0.9  ,2.4  ,0
4055  ,1.273e+09   ,1.7  ,-2.5  ,4.9
4087  ,6.303e+08   ,1.7  ,2.4  ,0
4114  ,1.361e+09   ,2.5  ,-0.33054  ,4.9
4120  ,5.454e+08   ,2.4  ,-2.5  ,1.8
4125  ,5.539e+08   ,2.4  ,2.5  ,0.98691
4144  ,1.028e+10   ,2.4  ,2.5  ,4.3375
4161  ,9.862e+08   ,-2.4  ,0.3  ,5
4201  ,2.969e+08   ,1.933  ,-2.5  ,0.2
4225  ,1.043e+08   ,-2.3  ,-2.4  ,0
4230  ,1.618e+08   ,-2.3  ,-2.5  ,0.56701
4269  ,4.283e+08   ,-0.9  ,-2.5  ,4.9
4277  ,3.177e+08   ,-1.1  ,-2.4  ,5
4288  ,3.620e+09   ,-0.070055  ,2.3  ,4.8
4328  ,1.353e+09   ,-2.5  ,-2.4  ,4.2
4336  ,1.117e+09   ,-2.5  ,-2.4  ,4.4
4342  ,5.071e+08   ,-2.5  ,-2.4  ,4.6
4348  ,8.062e+08   ,-2.4  ,-2.4707  ,4.9707
4352  ,1.393e+08   ,-2.3  ,-2.5  ,4.9
4354  ,1.867e+09   ,-2.1765  ,-2.5  ,4.8
4355  ,9.657e+08   ,-2.3  ,-2.3379  ,4.8
4362  ,3.986e+08   ,2.5  ,2.4  ,0.59273
4364  ,9.236e+08   ,2.5  ,-2.4  ,2.4
4366  ,9.841e+08   ,2.5  ,-2.4  ,2.2
4372  ,7.619e+08   ,2.4  ,-2.5  ,2.2
4385  ,1.689e+08   ,-2.5  ,-1.9  ,0.1
4399  ,3.355e+08   ,-2.5  ,2.1  ,0.1
4407  ,3.309e+08   ,-0.7  ,-2.4  ,0
4436  ,4.565e+08   ,-2.5  ,-0.1  ,0.1
4462  ,1.455e+09   ,-2.3  ,2.3  ,4.0333
4491  ,1.198e+09   ,2.5  ,-0.52764  ,4.9
4494  ,2.379e+08   ,2.5  ,-2.4  ,1.4
4503  ,1.710e+08   ,2.4  ,-2.5  ,1.4
4508  ,1.083e+08   ,2.4  ,-2.5  ,1.2
4515  ,3.784e+08   ,2.5  ,-2.4  ,1.8
4517  ,3.910e+08   ,2.4  ,-2.5  ,1.6
4522  ,3.313e+08   ,0.7  ,-2.4  ,0
4538  ,1.359e+09   ,-1.1189  ,2.4  ,5
4546  ,6.180e+09   ,2.4  ,2.5  ,4.1404
4559  ,1.251e+09   ,1.7  ,-2.4  ,0
4590  ,1.692e+08   ,0.5  ,-2.4  ,0
4631  ,7.921e+08   ,2.4  ,-2.5  ,2.6
4634  ,9.628e+08   ,2.5  ,-2.4  ,2.8
4657  ,4.138e+08   ,-2.5  ,-2.4  ,2
4660  ,3.898e+08   ,-2.5  ,-2.4  ,1.8
4664  ,6.002e+08   ,-0.3  ,-2.4  ,0
4675  ,4.657e+08   ,-2.4  ,-2.5  ,4.8
4681  ,4.420e+08   ,-2.5  ,-0.3  ,0.1
4684  ,1.924e+09   ,1.7  ,-2.4  ,5
4703  ,1.129e+09   ,-2.4  ,0.7  ,5
4707  ,7.579e+08   ,-2.5  ,0.3  ,4.9
4714  ,1.161e+09   ,2.4  ,-0.33054  ,5
4723  ,1.560e+09   ,-1.5567  ,2.3  ,4.8
4739  ,1.636e+08   ,-2.1044  ,2.5  ,4.9
4763  ,4.213e+08   ,-1.9  ,2.4  ,0
4780  ,1.143e+08   ,-2.3  ,-1.9695  ,0.2
4782  ,1.107e+08   ,-2.4707  ,-2.4  ,0.029289
4784  ,1.815e+08   ,-2.4  ,-1.9  ,0
4791  ,4.247e+08   ,-2.4  ,-2.5  ,1.8
4796  ,1.148e+09   ,2.4707  ,-2.4707  ,4.9
4799  ,1.037e+09   ,2.5  ,-2.4  ,4.8
4806  ,5.493e+08   ,2.3  ,-2.5  ,4.9
4809  ,8.833e+09   ,2.3  ,2.3  ,3.9166
4833  ,5.635e+08   ,-2.4  ,2.5  ,0.4
4841  ,8.249e+08   ,-2.4  ,2.5  ,2.6
4846  ,4.820e+08   ,-2.5  ,2.1  ,4.9
4848  ,3.333e+08   ,-2.5  ,2.3  ,4.9
4849  ,2.979e+08   ,-2.5  ,2.4  ,4.8
4893  ,5.605e+08   ,-2.4  ,2.5  ,4.2
4897  ,1.859e+10   ,2.3333  ,2.1998  ,5
4900  ,1.707e+10   ,2.391  ,2.4577  ,4.7576
4908  ,1.804e+10   ,2.2576  ,2.391  ,4.9577
4911  ,1.750e+10   ,2.2576  ,2.4577  ,4.891
4926  ,4.958e+08   ,-2.5  ,2.4  ,1
4932  ,6.217e+08   ,-2.4  ,2.5  ,1.6
4937  ,7.323e+08   ,-1.1  ,2.5  ,0.1
4939  ,1.434e+10   ,2.3  ,2.2299  ,4.7299
4944  ,8.257e+08   ,2.5  ,-1.9073  ,4.9
4987  ,1.674e+09   ,-2.3  ,1.5527  ,4.8
5010  ,4.413e+10   ,2.4973  ,2.1331  ,4.923
5013  ,1.512e+10   ,2.5  ,2.0345  ,4.9
5017  ,1.706e+10   ,2.4  ,2.0345  ,5
5035  ,1.382e+09   ,1.3  ,-2.4  ,0
5038  ,3.814e+08   ,1.2085  ,-2.5  ,0.2
5092  ,2.703e+08   ,-2.4  ,-2.5  ,1.2
5123  ,4.157e+08   ,2.5  ,-2.4  ,0.6
5151  ,3.834e+08   ,-2.5  ,-0.5  ,0.1
5160  ,3.548e+08   ,-2.5  ,-0.7  ,0.1
5164  ,9.614e+08   ,-2.4  ,0.9  ,5
5168  ,9.869e+08   ,-2.4  ,0.5  ,5
5176  ,4.561e+08   ,2.5  ,-0.7  ,0.1
5179  ,4.158e+08   ,2.4  ,-0.5  ,0
5189  ,6.191e+08   ,2.4  ,-2.5  ,2.4
5194  ,3.980e+08   ,2.3  ,-2.5  ,2.2576
5198  ,1.342e+08   ,-2.3  ,-2.5  ,0.32348
5205  ,5.801e+07   ,-2.4  ,-2.5  ,0.2
5207  ,1.393e+08   ,-2.1  ,-2.5  ,0.1
5246  ,1.082e+09   ,-2.5  ,2.4  ,3.2
5257  ,7.587e+08   ,-2.5  ,1.5  ,4.9
5263  ,4.481e+08   ,-2.3  ,0.2278  ,0.2
5272  ,5.867e+08   ,-2.5  ,0.3  ,0.1
5275  ,7.946e+08   ,-2.5  ,0.5  ,4.9
5281  ,7.856e+09   ,1.8375  ,2.5  ,4.9
5297  ,6.955e+08   ,-0.9  ,2.5  ,0.1
5306  ,6.526e+08   ,-0.7  ,2.4  ,0
5309  ,7.937e+08   ,-0.5  ,2.5  ,0.1
5324  ,2.107e+09   ,2.4  ,2.5  ,2.7607
5332  ,2.440e+08   ,2.5  ,-2.4  ,0.8
5334  ,1.768e+08   ,2.4  ,-2.5  ,1
5360  ,7.072e+08   ,2.4  ,-1.7102  ,5
5362  ,7.072e+08   ,2.4  ,-1.5131  ,5
5368  ,9.009e+09   ,2.4  ,1.8375  ,5
5371  ,3.726e+10   ,2.4325  ,2.4888  ,4.6656
5372  ,2.303e+10   ,2.3333  ,2.5  ,4.6998
5376  ,3.042e+10   ,2.4707  ,2.4707  ,4.6331
5377  ,1.879e+10   ,2.5  ,2.4  ,4.5345
5379  ,1.602e+08   ,-1.5  ,-2.5  ,4.9
5406  ,6.911e+08   ,-2.5  ,-2.4  ,3.4
5420  ,5.036e+08   ,-2.3  ,-2.5  ,3.2226
5423  ,1.442e+09   ,1.5  ,-2.4  ,0
5502  ,1.225e+08   ,-2.5  ,-2.3  ,0.1
5504  ,6.514e+07   ,-2.5  ,-2.4  ,0.2
5506  ,1.468e+08   ,-2.4  ,-2.3  ,0
5511  ,1.598e+08   ,-2.5  ,-2.1  ,0.1
5513  ,6.619e+08   ,-2.4  ,0.5  ,0
5517  ,3.704e+08   ,-0.9  ,-2.5  ,0.1
5532  ,1.397e+08   ,-2.4707  ,2.4707  ,4.9
5534  ,4.921e+08   ,2.4  ,-0.7  ,0
5551  ,1.818e+09   ,2.5  ,-2.4  ,3.8
5566  ,1.023e+09   ,2.5  ,2.4  ,1.3811
5603  ,4.030e+08   ,2.4  ,-0.3  ,0
5617  ,5.181e+08   ,-2.1  ,2.5  ,0.1
5637  ,7.033e+08   ,-2.3  ,-1.9695  ,4.8
5641  ,1.279e+09   ,2.3  ,-2.5  ,3.4636
5645  ,5.208e+08   ,-2.4  ,-2.5  ,2
5649  ,6.589e+08   ,-2.4  ,-2.5  ,2.2
5659  ,5.500e+08   ,-2.3  ,-2.5  ,1.7774
5662  ,2.283e+09   ,2.1765  ,-2.5  ,4.8
5666  ,5.606e+08   ,2.4  ,-2.5  ,4.8
5669  ,1.617e+09   ,2.3  ,-2.3412  ,4.8
5695  ,7.135e+08   ,-2.4  ,0.7  ,0
5701  ,4.848e+08   ,-2.5  ,2.4  ,1.6
5715  ,5.857e+08   ,-2.4  ,2.5  ,1.8
5726  ,6.924e+08   ,-0.7  ,2.5  ,0.1
5727  ,5.337e+08   ,-1.1  ,2.4  ,0
5730  ,7.076e+08   ,2.3  ,-2.5  ,1.7774
5746  ,1.383e+09   ,2.5  ,2.4  ,1.7753
5755  ,1.516e+09   ,2.5  ,-2.4  ,4.4
5763  ,1.341e+09   ,2.4  ,-2.5  ,4.4
5773  ,2.572e+09   ,1.0491  ,2.5  ,4.9
5791  ,1.409e+09   ,-0.72473  ,2.4  ,5
5795  ,8.719e+09   ,1.8375  ,2.4  ,5
5803  ,1.077e+09   ,-0.3  ,-2.4  ,5
5810  ,5.948e+09   ,2.4  ,1.6404  ,5
5836  ,7.121e+08   ,-2.5  ,1.3  ,4.9
5860  ,2.365e+08   ,2.5  ,-2.4  ,1.6
5866  ,5.407e+08   ,1.5  ,-2.5  ,0.1
5884  ,5.217e+08   ,-2.4  ,-0.3  ,5
5888  ,4.512e+08   ,-2.5  ,-0.5  ,4.9
5901  ,3.051e+08   ,2.3  ,-2.5  ,2.5
5908  ,1.525e+08   ,2.5  ,-2.4  ,1.2
5909  ,6.871e+08   ,2.5  ,-2.4  ,2
5934  ,1.230e+09   ,1.9  ,-2.5  ,4.9
5938  ,8.839e+08   ,1.933  ,-2.5  ,4.8
5948  ,8.486e+08   ,-2.4  ,-2.5  ,4.6
5950  ,5.869e+08   ,-2.4707  ,-2.4707  ,4.9
5951  ,4.859e+08   ,-2.5  ,-2.4  ,4.8
5952  ,4.906e+08   ,-2.5  ,-2.3  ,4.9
5986  ,1.070e+09   ,2.3  ,-2.5  ,3.7085
5990  ,1.452e+09   ,-0.92182  ,2.5  ,4.9
6019  ,5.365e+08   ,2.5  ,1.9  ,0.1
6025  ,3.825e+08   ,2.4  ,-1.3  ,0
6035  ,6.555e+08   ,-2.5  ,1.9  ,4.9
6044  ,1.158e+09   ,0.1  ,2.5  ,0.1
6054  ,6.967e+08   ,2.4  ,0.1  ,0
6070  ,2.131e+08   ,-2.4  ,2.3  ,0
6071  ,2.431e+08   ,-2.3  ,2.4  ,0
6076  ,4.056e+08   ,-2.4  ,2.1  ,0
6083  ,4.884e+08   ,2.1  ,-2.4  ,0
6084  ,2.779e+08   ,2.4  ,2.3  ,0
6087  ,2.697e+08   ,2.3  ,2.4  ,0
6092  ,1.003e+08   ,-2.4  ,-2.5  ,0.4
6096  ,6.367e+07   ,-2.3  ,-2.5  ,0.1
6099  ,5.019e+08   ,0.7  ,-2.5  ,0.1
6149  ,3.668e+08   ,-2.4  ,-0.9  ,0
6159  ,5.073e+08   ,-2.5  ,-2.4  ,2.6
6183  ,3.057e+09   ,1.2462  ,2.5  ,4.9
6224  ,2.156e+09   ,2.5  ,-2.4  ,4
6228  ,1.428e+09   ,2.4  ,-2.5  ,3.8
6237  ,9.818e+08   ,2.5  ,0.7  ,0.1
6241  ,2.294e+10   ,2.5  ,2.3333  ,4.6998
6245  ,1.105e+09   ,2.5  ,2.4  ,1.5782
6259  ,9.050e+08   ,2.5  ,-2.1044  ,4.9
6265  ,1.021e+09   ,2.3  ,-1.9804  ,4.8
6267  ,1.066e+09   ,2.5  ,-2.3015  ,4.9
6268  ,9.835e+08   ,2.4707  ,-2.4  ,4.9707
6270  ,9.917e+08   ,2.4  ,-2.1044  ,5
6317  ,1.519e+09   ,-2.3  ,0.2278  ,4.8
6349  ,1.558e+09   ,-0.52764  ,2.4  ,5
6391  ,1.295e+09   ,2.4  ,2.5  ,1.7753
6440  ,7.675e+08   ,-2.5  ,2.4  ,3.8
6471  ,1.010e+09   ,2.5  ,-0.92182  ,4.9
6489  ,3.287e+09   ,2.5  ,1.2462  ,4.9
6523  ,3.204e+08   ,-1.1  ,-2.4  ,0
6528  ,3.052e+08   ,-1.1  ,-2.5  ,0.1
6535  ,3.742e+08   ,-0.9  ,-2.4  ,0
6538  ,2.030e+09   ,1.5  ,-2.4  ,5
6541  ,1.337e+09   ,1.5  ,-2.5  ,4.9
6551  ,1.145e+09   ,2.5  ,-0.72473  ,4.9
6564  ,4.601e+10   ,2.1331  ,2.4973  ,4.923
6565  ,1.574e+10   ,2.0345  ,2.5  ,4.9
6572  ,3.813e+08   ,2.4  ,-1.7  ,0
6581  ,1.811e+09   ,0  ,2.3  ,0.2
6592  ,6.851e+08   ,2.3  ,-1.9695  ,0.2
6594  ,8.032e+08   ,0.3  ,2.4  ,0
6601  ,1.020e+09   ,0.5  ,2.5  ,0.1
6605  ,2.908e+08   ,-2.4  ,-1.3  ,0
6606  ,3.542e+08   ,-2.4  ,-1.1  ,0
6615  ,4.454e+08   ,-2.4  ,-0.3  ,0
6634  ,1.043e+09   ,2.1  ,-2.5  ,4.9
6635  ,1.171e+09   ,2.4  ,-2.4707  ,4.9707
6636  ,1.040e+09   ,2.3  ,-2.4  ,5
6647  ,4.024e+08   ,0.5  ,-2.5  ,0.1
6704  ,1.169e+08   ,-2.4707  ,2.4707  ,0.1
6708  ,2.297e+08   ,-2.5  ,2.4  ,0.2
6712  ,6.474e+08   ,-2.4  ,2.5  ,3.6
6715  ,9.020e+08   ,-2.4  ,2.5  ,3.4
6728  ,9.172e+08   ,-2.5  ,0.7  ,4.9
6753  ,2.937e+08   ,-2.1044  ,2.4  ,5
6788  ,1.116e+10   ,2.5  ,2.4  ,4.3375
6791  ,1.121e+09   ,-1.933  ,-2.5  ,4.8
6795  ,2.364e+10   ,2.1998  ,2.5  ,4.8333
6837  ,2.243e+08   ,-2.3  ,-2.5  ,0.8063
6869  ,7.276e+08   ,2.5  ,-1.7102  ,4.9
6873  ,9.119e+08   ,2.4  ,-1.9073  ,5
6880  ,1.017e+09   ,2.4  ,-0.92182  ,5
6885  ,1.275e+09   ,2.4  ,-0.52764  ,5
6893  ,2.989e+09   ,2.4  ,1.2462  ,5
6914  ,1.055e+09   ,0.7  ,2.5  ,0.1
6920  ,1.016e+09   ,0.9  ,2.4  ,0
6923  ,1.029e+09   ,0.7  ,2.4  ,0
6936  ,1.304e+09   ,2.4  ,-2.5  ,3.4
6939  ,1.467e+09   ,2.3  ,-2.5  ,3.2226
6961  ,7.809e+08   ,-0.1  ,-2.5  ,4.9
6967  ,4.158e+08   ,-2.5  ,-1.5  ,4.9
6975  ,7.264e+08   ,-2.4  ,1.1  ,5
6978  ,4.682e+08   ,-2.4  ,2.5  ,0.2
6987  ,7.316e+08   ,2.4  ,-1.316  ,5
6994  ,4.159e+08   ,2.4  ,-1.5  ,0
7004  ,1.352e+09   ,2.4  ,-2.5  ,3.6
7011  ,2.261e+09   ,2.4  ,0.65491  ,5
7016  ,1.983e+09   ,2.4  ,0.45782  ,5
7019  ,1.696e+09   ,2.5  ,2.4  ,2.1695
7021  ,1.533e+09   ,2.5  ,2.4  ,1.9724
7052  ,5.455e+08   ,-1.3  ,2.5  ,0.1
7054  ,2.093e+08   ,-2.4  ,-2.5  ,0.8
7057  ,3.993e+08   ,0.3  ,-2.5  ,0.1
7065  ,7.682e+08   ,0.24243  ,-2.5  ,0.2
7075  ,3.713e+10   ,2.4888  ,2.4325  ,4.6656
7113  ,6.880e+08   ,-2.4  ,-2.5  ,2.6
7121  ,4.788e+08   ,-2.4  ,-2.5  ,2.8
7126  ,1.496e+08   ,-2.5  ,-2.4  ,2.8
7128  ,1.173e+08   ,-2.4707  ,-2.4707  ,0.1
7129  ,1.161e+08   ,-2.4  ,-2.4707  ,0.029289
7141  ,1.771e+08   ,-1.7  ,-2.4  ,5
7145  ,8.862e+08   ,1.1  ,2.4  ,0
7163  ,5.167e+08   ,-1.7102  ,2.4  ,5
7172  ,9.210e+08   ,2.5  ,-2.4  ,3.2
7174  ,8.058e+08   ,-2.5  ,2.4  ,3.6
7183  ,2.120e+08   ,-1.4531  ,-2.5  ,4.8
7204  ,2.644e+09   ,2.3  ,-0.81068  ,4.8
7220  ,1.575e+09   ,2.5  ,0.063638  ,4.9
7227  ,3.859e+08   ,2.5  ,-1.9  ,0.1
7256  ,1.075e+09   ,-0.1  ,-2.4  ,5
7280  ,1.714e+09   ,-0.33054  ,2.4  ,5
7299  ,7.935e+08   ,2.5  ,-1.1189  ,4.9
7316  ,2.577e+08   ,-2.5  ,-2.4  ,0.8
7323  ,2.861e+08   ,-2.4  ,-2.5  ,1
7396  ,1.475e+09   ,1.1  ,-2.4  ,5
7400  ,7.487e+08   ,-2.5  ,0.7  ,0.1
7409  ,1.806e+09   ,1.3  ,-2.4  ,5
7420  ,3.561e+08   ,2.5  ,2.1  ,0.1
7429  ,5.838e+08   ,2.4  ,1.9  ,0
7436  ,3.406e+08   ,2.5  ,-1.7  ,0.1
7438  ,1.030e+09   ,2.4  ,-2.5  ,2.8
7445  ,3.436e+10   ,2.4325  ,2.1656  ,4.9888
7464  ,2.954e+08   ,2.5  ,-1.5  ,0.1
7480  ,7.607e+08   ,2.5  ,-2.4  ,0.2
7482  ,5.044e+08   ,1.9  ,-2.5  ,0.1
7483  ,5.617e+08   ,1.7  ,-2.5  ,0.1
7486  ,1.311e+09   ,1.9  ,-2.4  ,5
7488  ,4.438e+08   ,1.6937  ,-2.5  ,4.8
7492  ,4.856e+08   ,2.1  ,-2.4  ,5
7495  ,6.481e+08   ,0.1  ,-2.5  ,0.1
7504  ,4.559e+07   ,0.3  ,-2.4  ,0
7507  ,5.938e+08   ,0.9  ,-2.5  ,0.1
7533  ,8.108e+08   ,-2.5  ,0.9  ,0.1
7536  ,5.312e+08   ,-2.4  ,-2.5  ,3.2
7540  ,3.918e+08   ,-2.4  ,-2.5  ,3
7545  ,1.096e+08   ,-2.5  ,-2.4  ,3
7582  ,6.275e+08   ,1.3  ,2.5  ,0.1
7588  ,2.016e+09   ,2.5  ,2.4  ,2.3665
7598  ,7.089e+08   ,-2.5  ,2.4  ,4.2
7607  ,1.407e+09   ,1.5333  ,2.3  ,0.2
7627  ,7.559e+08   ,-2.5  ,1.1  ,4.9
7651  ,3.848e+08   ,2.4  ,-1.9  ,0
7656  ,3.251e+08   ,2.5  ,2.4  ,0.39564
7660  ,1.479e+10   ,2.2299  ,2.3  ,4.7299
7668  ,5.242e+08   ,1.4531  ,-2.5  ,4.8
7676  ,9.531e+08   ,0.1  ,-2.5  ,4.9
7683  ,1.153e+09   ,0.1  ,-2.4  ,5
7686  ,4.980e+08   ,-2.4  ,-1.1  ,5
7702  ,3.397e+08   ,-2.3  ,-2.5  ,4.433
7710  ,1.040e+09   ,-2.3  ,-2.5  ,4.6765
7752  ,1.250e+09   ,0.9  ,-2.4  ,5
7763  ,9.925e+08   ,0.24243  ,-2.5  ,4.8
7767  ,4.022e+08   ,-2.5  ,-2.4  ,3.2
7768  ,1.934e+08   ,-2.4  ,-2.1  ,0
7776  ,7.947e+08   ,-2.4  ,0.9  ,0
7786  ,5.992e+08   ,-0.4838  ,-2.5  ,4.8
7800  ,6.432e+08   ,2.5  ,-2.4  ,4.6
7805  ,3.957e+08   ,-2.5  ,-1.3  ,4.9
7811  ,4.400e+08   ,-2.5  ,-1.1  ,4.9
7820  ,4.303e+08   ,2.5  ,-2.1  ,0.1
7824  ,4.098e+08   ,2.4  ,-2.1  ,0
7828  ,1.433e+09   ,2.4  ,-2.5  ,4.2
7831  ,1.479e+09   ,2.4  ,-2.5  ,4
7838  ,2.156e+09   ,2.5  ,-2.4  ,4.2
7839  ,2.077e+09   ,2.5  ,2.4  ,2.7607
7840  ,2.156e+09   ,2.5  ,2.4  ,2.9578
7863  ,2.242e+08   ,-2.4  ,-1.5  ,0
7890  ,9.249e+08   ,2.4  ,0.9  ,0
7897  ,3.631e+08   ,-2.4  ,-0.7  ,0
7912  ,2.830e+08   ,-1.5  ,-2.4  ,0
7917  ,2.536e+08   ,-1.3  ,-2.5  ,0.1
7931  ,8.490e+08   ,0.5  ,2.4  ,0
7934  ,1.069e+09   ,1.1  ,-2.4  ,0
7937  ,3.975e+08   ,2.4  ,-2.5  ,0.8
7941  ,1.626e+08   ,-2.4  ,-2.5  ,0.6
7969  ,1.634e+08   ,-2.5  ,2.3  ,0.1
7971  ,5.915e+08   ,-2.4  ,1.9  ,0
7972  ,4.390e+08   ,-1.9  ,2.5  ,0.1
7978  ,8.608e+08   ,-2.4  ,1.1  ,0
7996  ,5.475e+08   ,-2.4  ,-0.5  ,5
8000  ,1.975e+08   ,-2.5  ,-2.4  ,0.6
8003  ,8.577e+07   ,-2.5  ,-2.4  ,0.4
8025  ,8.973e+08   ,0.9  ,2.5  ,0.1
8035  ,1.022e+09   ,0.3  ,2.5  ,0.1
8039  ,1.811e+09   ,2.3  ,-2.5  ,0.32348
8041  ,9.904e+08   ,2.3  ,-2.3379  ,0.2
8043  ,9.617e+08   ,2.1765  ,-2.5  ,0.2
8045  ,3.545e+08   ,-0.96359  ,-2.5  ,0.2
8054  ,7.678e+08   ,1.3  ,2.4  ,0
8058  ,7.821e+08   ,1.1  ,2.5  ,0.1
8062  ,5.160e+08   ,-2.5  ,2.4  ,1.4
8067  ,4.784e+08   ,-2.5  ,2.4  ,0.8
8087  ,8.389e+08   ,-2.5  ,1.5  ,0.1
8132  ,2.025e+09   ,-0.13345  ,2.4  ,5
8183  ,4.851e+08   ,2.5  ,-0.9  ,0.1
8184  ,4.660e+08   ,1.6937  ,-2.5  ,0.2
8214  ,5.081e+08   ,-2.4707  ,-2.4  ,4.9707
8217  ,6.994e+08   ,-2.1  ,-2.4  ,5
8219  ,6.202e+08   ,-2.4  ,-2.5  ,4.4
8227  ,2.320e+09   ,2.5  ,2.4  ,3.1549
8242  ,1.356e+09   ,0.7  ,-2.5  ,4.9
8248  ,1.424e+09   ,2.5  ,-2.4  ,3.6
8254  ,5.292e+08   ,2.5  ,-0.3  ,0.1
8256  ,4.540e+08   ,2.5  ,-0.5  ,0.1
8258  ,8.332e+08   ,-0.3  ,-2.5  ,4.9
8263  ,7.404e+08   ,-0.5  ,-2.5  ,4.9
8268  ,3.239e+08   ,-2.3  ,-2.5  ,3.7085
8277  ,6.543e+08   ,-0.1  ,-2.5  ,0.1
8285  ,1.374e+09   ,1.1  ,-2.5  ,4.9
8307  ,8.078e+08   ,0.1  ,2.4  ,0
8308  ,9.969e+08   ,-0.1  ,2.5  ,0.1
8309  ,9.185e+08   ,-0.1  ,2.4  ,0
8313  ,5.190e+08   ,2.5  ,-2.3  ,0.1
8318  ,8.181e+08   ,2.5  ,-2.4  ,3
8338  ,2.199e+09   ,2.5  ,2.4  ,3.352
8339  ,2.229e+09   ,2.4  ,2.5  ,3.1549
8344  ,9.957e+08   ,-2.5  ,2.4  ,3.4
8357  ,3.373e+10   ,2.4888  ,2.1656  ,4.9325
8358  ,2.287e+10   ,2.5  ,2.1998  ,4.8333
8383  ,3.155e+08   ,-1.7  ,-2.4  ,0
8396  ,6.090e+08   ,1.1  ,-2.5  ,0.1
8399  ,4.260e+10   ,2.4526  ,2.1331  ,4.9851
8405  ,1.796e+08   ,2.5  ,-2.4  ,1
8412  ,7.270e+08   ,2.3  ,-2.5  ,0.8063
8417  ,5.127e+08   ,-2.3  ,-2.5  ,2.5
8434  ,1.306e+09   ,0.9636  ,-2.5  ,4.8
8438  ,6.192e+08   ,-0.3  ,-2.5  ,0.1
8452  ,6.105e+08   ,-2.4  ,-0.1  ,5
8468  ,3.282e+09   ,2.5  ,2.4  ,3.7462
8471  ,7.698e+07   ,-1.3  ,-2.5  ,4.9
8493  ,2.193e+08   ,-1.1  ,-2.5  ,4.9
8509  ,1.861e+08   ,-2.5  ,-1.7  ,0.1
8517  ,9.932e+08   ,-2.4  ,2.5  ,3
8531  ,7.364e+08   ,-2.4  ,1.7  ,0
8556  ,2.854e+09   ,2.5  ,2.4  ,3.5491
8573  ,1.078e+09   ,-1.316  ,2.4  ,5
8576  ,8.729e+08   ,-2.4  ,1.3  ,0
8611  ,3.142e+08   ,2.3  ,-2.5  ,1.2915
8618  ,5.315e+08   ,-2.4  ,2.5  ,4
8646  ,8.986e+08   ,-2.5  ,1.1  ,0.1
8656  ,4.680e+08   ,2.5  ,-1.3  ,0.1
8657  ,4.834e+08   ,2.4  ,2.1  ,0
8673  ,4.438e+08   ,-1.3  ,2.4  ,0
8692  ,1.593e+09   ,0.72263  ,-2.5  ,4.8
8696  ,2.096e+08   ,2.3  ,-2.5  ,1.0469
8706  ,2.150e+09   ,2.5  ,0.65491  ,4.9
8721  ,4.376e+08   ,-2.4  ,-2.5  ,1.6
8725  ,2.612e+09   ,0.65491  ,2.4  ,5
8739  ,3.428e+10   ,2.1656  ,2.4325  ,4.9888
8741  ,2.310e+10   ,2.1998  ,2.3333  ,5
8746  ,1.171e+08   ,-2.1  ,-2.4  ,0
8748  ,3.429e+08   ,-2.5  ,-2.4  ,1.2
8752  ,4.405e+10   ,2.1331  ,2.4526  ,4.9851
8759  ,2.127e+08   ,-2.3  ,-2.5  ,1.0469
8787  ,7.323e+08   ,-0.1  ,-2.4  ,0
8793  ,4.409e+08   ,-2.3  ,-2.5  ,2.2576
8795  ,6.931e+08   ,-2.4  ,-2.5  ,2.4
8798  ,4.773e+08   ,-2.3  ,-2.5  ,4.1937
8808  ,4.899e+08   ,-2.3  ,-2.5  ,3.9531
8814  ,5.607e+08   ,-2.4  ,-1.5  ,5
8849  ,1.670e+09   ,0.4838  ,-2.5  ,4.8
8851  ,5.502e+08   ,-2.4  ,-2.5  ,4.2
8868  ,1.171e+09   ,2.4  ,-2.5  ,3
8874  ,2.522e+09   ,0.852  ,2.4  ,5
8883  ,7.524e+08   ,-0.5  ,-2.4  ,5
8886  ,6.543e+08   ,-0.72262  ,-2.5  ,4.8
8893  ,5.698e+08   ,-0.7  ,-2.5  ,4.9
8897  ,1.051e+09   ,-2.5  ,-2.4  ,3.6
8899  ,1.754e+08   ,-2.3  ,-2.5  ,3.4636
8900  ,2.890e+08   ,-2.3  ,-1.4729  ,0.2
8906  ,3.069e+08   ,-2.5  ,-1.3  ,0.1
8910  ,2.577e+09   ,0.852  ,2.5  ,4.9
8925  ,5.613e+08   ,-2.4  ,2.5  ,1.4
8941  ,1.461e+08   ,2.4707  ,2.4  ,0.029289
8942  ,2.159e+08   ,2.5  ,2.3  ,0.1
8945  ,6.501e+08   ,-2.5  ,0.1  ,4.9
8950  ,1.077e+08   ,2.4707  ,2.4707  ,0.1
8951  ,1.256e+08   ,2.4  ,2.4707  ,0.029289
8959  ,1.611e+09   ,2.4  ,0.26073  ,5
8965  ,2.233e+09   ,0.45782  ,2.4  ,5
8978  ,2.162e+09   ,2.4  ,0.852  ,5
8983  ,4.610e+08   ,2.5  ,-1.1  ,0.1
8991  ,4.688e+08   ,-2.5  ,2.4  ,0.6
9008  ,2.044e+09   ,2.5  ,0.852  ,4.9
9011  ,3.819e+08   ,-2.4  ,-0.5  ,0
9025  ,2.308e+08   ,-1.5  ,-2.5  ,0.1
9038  ,7.285e+08   ,2.4  ,-2.5  ,2
9041  ,8.857e+08   ,2.5  ,0.9  ,0.1
9050  ,9.195e+08   ,2.5  ,0.5  ,0.1
9054  ,6.776e+08   ,0.9  ,-2.4  ,0
9060  ,7.275e+08   ,2.4  ,-2.5  ,0.4
9062  ,1.148e+09   ,2.3  ,-2.5  ,0.56701
9064  ,6.613e+08   ,2.5  ,-2.4  ,0.4
9069  ,6.090e+08   ,2.4  ,-2.5  ,0.6
9071  ,5.949e+08   ,1.4531  ,-2.5  ,0.2
9082  ,1.296e+08   ,-2.3  ,-2.5  ,1.2915
9086  ,3.319e+08   ,-2.4  ,-2.5  ,1.4
9091  ,3.893e+08   ,-2.5  ,-2.4  ,1.4
9094  ,1.383e+09   ,1.3  ,-2.5  ,4.9
9097  ,3.949e+08   ,-0.7  ,-2.5  ,0.1
9137  ,4.890e+08   ,-2.5  ,-0.7  ,4.9
9143  ,6.264e+08   ,-2.5  ,-0.1  ,4.9
9146  ,4.435e+08   ,-2.1  ,2.4  ,0
9148  ,6.824e+08   ,-2.5  ,1.7  ,4.9
9173  ,8.916e+08   ,-2.5  ,2.4  ,3
9192  ,4.498e+08   ,-0.7  ,-2.4  ,5
9195  ,5.266e+08   ,0.72263  ,-2.5  ,0.2
9209  ,1.151e+09   ,2.5  ,-2.4  ,3.4
9215  ,2.606e+08   ,0.9636  ,-2.5  ,0.2
9217  ,1.284e+09   ,2.4  ,-2.5  ,3.2
9218  ,5.588e+08   ,-0.96359  ,-2.5  ,4.8
9229  ,8.793e+08   ,-2.4  ,2.5  ,2.8
9248  ,8.676e+08   ,2.3  ,-2.5  ,4.433
9255  ,7.005e+08   ,2.5  ,1.3  ,0.1
9257  ,6.864e+08   ,2.4  ,1.5  ,0
9262  ,9.408e+08   ,0.5  ,-2.4  ,5
9264  ,1.292e+09   ,2.4  ,-0.13345  ,5
9272  ,1.823e+09   ,0.063638  ,2.4  ,5
9277  ,4.858e+08   ,-2.5  ,2.4  ,1.2
9279  ,1.740e+09   ,2.5  ,0.26073  ,4.9
9282  ,9.699e+08   ,1.2085  ,-2.5  ,4.8
9286  ,1.395e+09   ,0.9  ,-2.5  ,4.9
9292  ,1.639e+08   ,-2.4  ,2.4707  ,4.9707
9293  ,1.915e+08   ,-2.3015  ,2.4  ,5
9296  ,4.414e+08   ,-2.4  ,-2.1  ,5
9303  ,3.880e+08   ,-2.4  ,-1.9  ,5
9311  ,3.020e+08   ,-2.4  ,2.3  ,5
9313  ,7.296e+08   ,-2.4  ,0.1  ,5
9319  ,3.628e+08   ,-0.5  ,-2.4  ,0
9328  ,3.122e+08   ,-2.3  ,-2.5  ,1.5364
9334  ,4.830e+08   ,-2.3  ,2.5  ,0.1
9338  ,7.685e+08   ,-2.5  ,-2.4  ,2.4
9339  ,8.869e+08   ,-2.5  ,1.3  ,0.1
9341  ,8.062e+08   ,-2.3  ,-2.5  ,2.7424
9344  ,6.784e+08   ,-2.5  ,-2.4  ,2.2
9358  ,2.870e+09   ,-2.3  ,2.3  ,2.5
9364  ,4.393e+08   ,-2.5  ,-2.1  ,4.9
9367  ,5.925e+08   ,-2.4  ,-2.3  ,5
9374  ,5.171e+08   ,-2.4  ,-1.3  ,5
9378  ,5.380e+08   ,-2.5  ,2.4  ,1.8
9384  ,6.010e+08   ,2.3  ,-2.5  ,2.0162
9385  ,6.178e+08   ,-2.5  ,2.4  ,4.4
9389  ,5.659e+08   ,-2.5  ,2.4  ,2
9395  ,1.021e+09   ,2.4  ,-2.3015  ,5
9396  ,1.696e+08   ,-2.4  ,-1.7  ,0
9407  ,1.313e+09   ,-2.3  ,-1.4729  ,4.8
9411  ,4.633e+08   ,-2.5  ,-1.7  ,4.9
9423  ,5.419e+08   ,-2.4  ,-2.5  ,3.6
9432  ,9.720e+08   ,0.7  ,-2.4  ,5
9438  ,4.792e+08   ,-2.5  ,-0.9  ,4.9
9443  ,4.850e+08   ,-2.5  ,-0.3  ,4.9
9445  ,1.808e+08   ,-2.4707  ,2.4  ,4.9707
9448  ,7.802e+08   ,2.4  ,-1.1189  ,5
9453  ,8.602e+08   ,2.4  ,0.7  ,0
9455  ,9.534e+08   ,2.5  ,-2.4  ,2.6
9457  ,1.495e+09   ,2.3  ,-2.5  ,2.9838
9494  ,5.524e+08   ,-2.4  ,2.5  ,1
9500  ,1.236e+09   ,0.3  ,-2.5  ,4.9
9504  ,1.138e+09   ,0.3  ,-2.4  ,5
9506  ,6.820e+08   ,2.1  ,-2.5  ,0.1
9518  ,2.140e+08   ,-1.9  ,-2.5  ,0.1
9528  ,4.336e+08   ,2.3  ,-2.5  ,0.1
9531  ,8.056e+08   ,2.4707  ,-2.4707  ,0.1
9533  ,5.136e+08   ,2.4707  ,-2.4  ,0.029289
9534  ,6.068e+08   ,2.4  ,-2.4707  ,0.029289
9541  ,1.324e+09   ,0.5  ,-2.5  ,4.9
9544  ,4.710e+08   ,-0.5  ,-2.5  ,0.1
9559  ,3.963e+08   ,-2.5  ,-1.9  ,4.9
9562  ,4.786e+08   ,-2.5  ,2.4  ,4.6
9565  ,7.485e+08   ,-2.4  ,2.5  ,2
9571  ,1.283e+09   ,-2.5  ,-2.4  ,3.8
9574  ,5.355e+08   ,-2.4  ,-2.5  ,3.8
9577  ,5.252e+08   ,1.3  ,-2.5  ,0.1
9582  ,3.446e+08   ,-2.5  ,-0.9  ,0.1
9596  ,4.331e+08   ,2.1  ,2.4  ,0
9598  ,1.136e+09   ,-2.4  ,2.5  ,3.2
9602  ,5.733e+08   ,1.5  ,2.5  ,0.1
9610  ,2.668e+08   ,2.4  ,2.5  ,0.39564
9612  ,1.591e+09   ,-0.72473  ,2.5  ,4.9
9614  ,5.459e+08   ,1.7  ,2.5  ,0.1
9635  ,6.157e+08   ,2.5  ,1.7  ,0.1
9646  ,2.703e+08   ,2.3  ,2.5  ,0.1
9651  ,3.484e+10   ,2.1656  ,2.4888  ,4.9325
9653  ,7.331e+08   ,2.5  ,-1.316  ,4.9
9656  ,3.348e+08   ,-2.4  ,-1.7  ,5
9659  ,2.362e+09   ,2.3  ,-2.5  ,4.6765
9661  ,6.879e+08   ,2.3  ,-2.5  ,3.9531
9664  ,7.684e+08   ,-2.3  ,-2.4  ,5
9666  ,9.947e+08   ,1.9  ,-2.4  ,0
9677  ,7.793e+08   ,2.4  ,0.5  ,0
9678  ,3.463e+08   ,-2.5  ,-1.1  ,0.1
9680  ,8.429e+08   ,2.5  ,2.4  ,1.184
9681  ,1.266e+08   ,2.5  ,2.4  ,0.19855
9696  ,5.934e+08   ,-2.3  ,-2.5  ,2.0162
9698  ,5.323e+08   ,2.4  ,-2.3  ,0
9699  ,4.393e+08   ,-0.24243  ,-2.5  ,0.2
9701  ,4.833e+08   ,0.1  ,-2.4  ,0
9704  ,5.679e+08   ,-0.4838  ,-2.5  ,0.2
9718  ,4.974e+08   ,-0.72262  ,-2.5  ,0.2
9726  ,2.044e+09   ,2.3  ,-0.76628  ,0.2
9727  ,4.497e+08   ,-2.5  ,2.4  ,0.4
9730  ,4.492e+08   ,1.9433E-06  ,-2.5  ,4.8
9731  ,4.702e+08   ,-0.24243  ,-2.5  ,4.8
9732  ,6.910e+08   ,-2.5  ,2.4  ,2.2
9738  ,1.399e+09   ,-2.5  ,-2.4  ,4
9743  ,7.493e+08   ,-1.6937  ,-2.5  ,4.8
9744  ,5.128e+08   ,-2.4  ,-2.5  ,4
9750  ,2.365e+08   ,-1.7  ,-2.5  ,0.1
9752  ,1.796e+08   ,-1.6937  ,-2.5  ,0.2
9754  ,2.750e+08   ,-1.3  ,-2.4  ,0
9759  ,1.014e+08   ,-2.4707  ,2.4  ,0.029289
9760  ,9.529e+07   ,-2.4  ,2.4707  ,0.029289
9768  ,4.669e+08   ,2.3  ,-2.5  ,4.1937
9770  ,4.512e+08   ,1.9433E-06  ,-2.5  ,0.2
9771  ,8.008e+08   ,0.4838  ,-2.5  ,0.2
9772  ,1.475e+08   ,2.4  ,-2.5  ,0.2
9773  ,1.308e+09   ,2.4  ,-2.5  ,4.6
9776  ,1.322e+09   ,2.4  ,0.063638  ,5
9780  ,2.388e+09   ,0.65491  ,2.5  ,4.9
9781  ,1.980e+08   ,2.4  ,2.5  ,0.19855
9782  ,8.308e+08   ,-2.3  ,-2.5  ,2.9838
9786  ,2.355e+08   ,-1.2085  ,-2.5  ,0.2
9787  ,1.406e+08   ,-1.4531  ,-2.5  ,0.2
9790  ,4.581e+08   ,2.3  ,-2.4  ,0
9793  ,1.767e+10   ,2.0345  ,2.4  ,5
9797  ,6.388e+08   ,2.3  ,-2.5  ,1.5364
9798  ,2.509e+09   ,2.4  ,1.0491  ,5
9809  ,2.214e+09   ,2.4  ,2.5  ,3.352
