Date:  12:56, Monday, July 10, 2023
Model name: Hollow_DropBox
Study name: DropTest_300fts(-Default-)
Plot type:  Stress1
Plot step: 23   time : 120.703 Microseconds
Result Type: von Mises 


Node  ,Value (N/m^2)  ,X (in)  ,Y (in)  ,Z (in)
1  ,4.031e+09   ,2.5  ,2.1331  ,4.9
2  ,1.540e+10   ,2.4577  ,2.1908  ,4.9577
3  ,4.937e+09   ,2.4894  ,2.1331  ,4.9447
4  ,2.583e+10   ,2.1331  ,2.5  ,4.9
5  ,4.558e+10   ,2.1331  ,2.4894  ,4.9447
6  ,2.323e+10   ,2.1908  ,2.4577  ,4.9577
7  ,2.910e+08   ,-2.4  ,2.4  ,5
8  ,3.215e+09   ,-2.4  ,-2.4  ,5
9  ,5.591e+09   ,2.4  ,-2.4  ,5
10  ,4.033e+09   ,2.4  ,2.1331  ,5
11  ,1.461e+10   ,2.1331  ,2.4  ,5
12  ,6.066e+09   ,2.5  ,-2.4  ,4.9
13  ,2.922e+09   ,2.5  ,-2.4  ,0.1
14  ,3.149e+08   ,2.5  ,2.4  ,0.1
15  ,1.461e+10   ,2.5  ,2.4  ,4.6331
16  ,4.385e+08   ,2.4  ,2.5  ,0.1
17  ,8.784e+08   ,-2.4  ,2.5  ,0.1
18  ,4.248e+08   ,-2.4  ,2.5  ,4.9
19  ,2.533e+10   ,2.4  ,2.5  ,4.6331
20  ,5.042e+08   ,-2.5  ,2.4  ,0.1
21  ,5.116e+08   ,-2.5  ,-2.4  ,0.1
22  ,2.093e+09   ,-2.5  ,-2.4  ,4.9
23  ,4.871e+08   ,-2.5  ,2.4  ,4.9
24  ,1.856e+09   ,-2.3  ,-2.5  ,0.2
25  ,2.135e+09   ,-2.3  ,-2.5  ,4.8
26  ,5.084e+09   ,2.3  ,-2.5  ,4.8
27  ,2.110e+09   ,2.3  ,-2.5  ,0.2
28  ,2.843e+09   ,-2.4  ,-2.5  ,4.9
29  ,5.551e+09   ,2.4  ,-2.5  ,4.9
30  ,2.937e+08   ,-2.4  ,-2.5  ,0.1
31  ,2.911e+09   ,2.4  ,-2.5  ,0.1
32  ,2.250e+09   ,2.4  ,-2.4  ,0
33  ,5.609e+08   ,2.4  ,2.4  ,0
34  ,3.286e+08   ,-2.4  ,-2.4  ,0
35  ,6.025e+08   ,-2.4  ,2.4  ,0
36  ,3.082e+10   ,2.4577  ,2.4577  ,4.6908
37  ,9.127e+08   ,-2.3  ,2.3  ,4.8
38  ,1.142e+10   ,2.1599  ,2.3  ,4.8
39  ,9.736e+09   ,2.3  ,2.1599  ,4.8
40  ,1.136e+10   ,2.3  ,2.3  ,4.6599
41  ,1.039e+09   ,2.3  ,2.3  ,0.2
42  ,1.300e+09   ,-2.3  ,2.3  ,0.2
43  ,8.305e+08   ,-2.4  ,2.2  ,5
44  ,1.246e+09   ,-2.4  ,2  ,5
45  ,1.315e+09   ,-2.4  ,1.8  ,5
46  ,1.279e+09   ,-2.4  ,1.6  ,5
47  ,1.295e+09   ,-2.4  ,1.4  ,5
48  ,1.467e+09   ,-2.4  ,1.2  ,5
49  ,1.847e+09   ,-2.4  ,1  ,5
50  ,2.129e+09   ,-2.4  ,0.8  ,5
51  ,1.375e+09   ,-2.4  ,0.6  ,5
52  ,1.286e+09   ,-2.4  ,0.4  ,5
53  ,1.517e+09   ,-2.4  ,0.2  ,5
54  ,1.605e+09   ,-2.4  ,5.8879E-16  ,5
55  ,1.368e+09   ,-2.4  ,-0.2  ,5
56  ,8.942e+08   ,-2.4  ,-0.4  ,5
57  ,4.380e+08   ,-2.4  ,-0.6  ,5
58  ,3.929e+08   ,-2.4  ,-0.8  ,5
59  ,7.768e+08   ,-2.4  ,-1  ,5
60  ,8.807e+08   ,-2.4  ,-1.2  ,5
61  ,1.255e+09   ,-2.4  ,-1.4  ,5
62  ,1.109e+09   ,-2.4  ,-1.6  ,5
63  ,1.156e+09   ,-2.4  ,-1.8  ,5
64  ,1.833e+09   ,-2.4  ,-2  ,5
65  ,1.763e+09   ,-2.4  ,-2.2  ,5
66  ,3.843e+09   ,-2.2  ,-2.4  ,5
67  ,2.817e+09   ,-2  ,-2.4  ,5
68  ,2.362e+09   ,-1.8  ,-2.4  ,5
69  ,1.748e+09   ,-1.6  ,-2.4  ,5
70  ,1.443e+09   ,-1.4  ,-2.4  ,5
71  ,1.296e+09   ,-1.2  ,-2.4  ,5
72  ,1.241e+09   ,-1  ,-2.4  ,5
73  ,1.545e+09   ,-0.8  ,-2.4  ,5
74  ,1.780e+09   ,-0.6  ,-2.4  ,5
75  ,2.333e+09   ,-0.4  ,-2.4  ,5
76  ,2.658e+09   ,-0.2  ,-2.4  ,5
77  ,3.643e+09   ,-5.8879E-16  ,-2.4  ,5
78  ,3.847e+09   ,0.2  ,-2.4  ,5
79  ,3.989e+09   ,0.4  ,-2.4  ,5
80  ,4.386e+09   ,0.6  ,-2.4  ,5
81  ,3.521e+09   ,0.8  ,-2.4  ,5
82  ,2.936e+09   ,1  ,-2.4  ,5
83  ,2.719e+09   ,1.2  ,-2.4  ,5
84  ,1.945e+09   ,1.4  ,-2.4  ,5
85  ,1.205e+09   ,1.6  ,-2.4  ,5
86  ,3.340e+09   ,1.8  ,-2.4  ,5
87  ,4.834e+09   ,2  ,-2.4  ,5
88  ,9.440e+09   ,2.2  ,-2.4  ,5
89  ,5.193e+09   ,2.4  ,-2.2029  ,5
90  ,6.036e+09   ,2.4  ,-2.0058  ,5
91  ,4.643e+09   ,2.4  ,-1.8087  ,5
92  ,4.355e+09   ,2.4  ,-1.6116  ,5
93  ,4.922e+09   ,2.4  ,-1.4145  ,5
94  ,4.276e+09   ,2.4  ,-1.2175  ,5
95  ,4.571e+09   ,2.4  ,-1.0204  ,5
96  ,4.323e+09   ,2.4  ,-0.82327  ,5
97  ,4.234e+09   ,2.4  ,-0.62618  ,5
98  ,3.673e+09   ,2.4  ,-0.42909  ,5
99  ,3.376e+09   ,2.4  ,-0.232  ,5
100  ,2.674e+09   ,2.4  ,-0.034907  ,5
101  ,2.444e+09   ,2.4  ,0.16218  ,5
102  ,2.071e+09   ,2.4  ,0.35927  ,5
103  ,2.465e+09   ,2.4  ,0.55637  ,5
104  ,2.189e+09   ,2.4  ,0.75346  ,5
105  ,2.003e+09   ,2.4  ,0.95055  ,5
106  ,2.409e+09   ,2.4  ,1.1476  ,5
107  ,2.886e+09   ,2.4  ,1.3447  ,5
108  ,3.641e+09   ,2.4  ,1.5418  ,5
109  ,4.159e+09   ,2.4  ,1.7389  ,5
110  ,4.996e+09   ,2.4  ,1.936  ,5
111  ,8.229e+09   ,2.2665  ,2.2665  ,5
112  ,9.663e+09   ,1.936  ,2.4  ,5
113  ,5.503e+09   ,1.7389  ,2.4  ,5
114  ,4.241e+09   ,1.5418  ,2.4  ,5
115  ,2.866e+09   ,1.3447  ,2.4  ,5
116  ,2.591e+09   ,1.1476  ,2.4  ,5
117  ,2.269e+09   ,0.95055  ,2.4  ,5
118  ,2.294e+09   ,0.75346  ,2.4  ,5
119  ,2.119e+09   ,0.55637  ,2.4  ,5
120  ,1.660e+09   ,0.35927  ,2.4  ,5
121  ,1.759e+09   ,0.16218  ,2.4  ,5
122  ,2.294e+09   ,-0.034907  ,2.4  ,5
123  ,2.884e+09   ,-0.232  ,2.4  ,5
124  ,2.995e+09   ,-0.42909  ,2.4  ,5
125  ,2.777e+09   ,-0.62618  ,2.4  ,5
126  ,3.962e+09   ,-0.82327  ,2.4  ,5
127  ,4.235e+09   ,-1.0204  ,2.4  ,5
128  ,4.087e+09   ,-1.2175  ,2.4  ,5
129  ,3.317e+09   ,-1.4145  ,2.4  ,5
130  ,2.388e+09   ,-1.6116  ,2.4  ,5
131  ,1.591e+09   ,-1.8087  ,2.4  ,5
132  ,1.143e+09   ,-2.0058  ,2.4  ,5
133  ,7.099e+08   ,-2.2029  ,2.4  ,5
294  ,4.382e+09   ,2.5  ,-2.2029  ,4.9
295  ,5.836e+09   ,2.5  ,-2.0058  ,4.9
296  ,4.688e+09   ,2.5  ,-1.8087  ,4.9
297  ,4.976e+09   ,2.5  ,-1.6116  ,4.9
298  ,4.204e+09   ,2.5  ,-1.4145  ,4.9
299  ,4.271e+09   ,2.5  ,-1.2175  ,4.9
300  ,4.690e+09   ,2.5  ,-1.0204  ,4.9
301  ,3.526e+09   ,2.5  ,-0.82327  ,4.9
302  ,4.078e+09   ,2.5  ,-0.62618  ,4.9
303  ,3.805e+09   ,2.5  ,-0.42909  ,4.9
304  ,4.162e+09   ,2.5  ,-0.232  ,4.9
305  ,4.351e+09   ,2.5  ,-0.034907  ,4.9
306  ,3.015e+09   ,2.5  ,0.16218  ,4.9
307  ,2.340e+09   ,2.5  ,0.35927  ,4.9
308  ,2.430e+09   ,2.5  ,0.55637  ,4.9
309  ,2.211e+09   ,2.5  ,0.75346  ,4.9
310  ,2.493e+09   ,2.5  ,0.95055  ,4.9
311  ,2.737e+09   ,2.5  ,1.1476  ,4.9
312  ,3.029e+09   ,2.5  ,1.3447  ,4.9
313  ,3.557e+09   ,2.5  ,1.5418  ,4.9
314  ,4.239e+09   ,2.5  ,1.7389  ,4.9
315  ,5.376e+09   ,2.5  ,1.936  ,4.9
316  ,9.530e+09   ,2.5  ,-2.4  ,4.7
317  ,4.697e+09   ,2.5  ,-2.4  ,4.5
318  ,3.381e+09   ,2.5  ,-2.4  ,4.3
319  ,8.270e+08   ,2.5  ,-2.4  ,4.1
320  ,1.872e+09   ,2.5  ,-2.4  ,3.9
321  ,2.752e+09   ,2.5  ,-2.4  ,3.7
322  ,3.080e+09   ,2.5  ,-2.4  ,3.5
323  ,3.382e+09   ,2.5  ,-2.4  ,3.3
324  ,3.833e+09   ,2.5  ,-2.4  ,3.1
325  ,3.799e+09   ,2.5  ,-2.4  ,2.9
326  ,3.869e+09   ,2.5  ,-2.4  ,2.7
327  ,3.618e+09   ,2.5  ,-2.4  ,2.5
328  ,2.551e+09   ,2.5  ,-2.4  ,2.3
329  ,2.194e+09   ,2.5  ,-2.4  ,2.1
330  ,1.809e+09   ,2.5  ,-2.4  ,1.9
331  ,1.664e+09   ,2.5  ,-2.4  ,1.7
332  ,1.523e+09   ,2.5  ,-2.4  ,1.5
333  ,1.553e+09   ,2.5  ,-2.4  ,1.3
334  ,1.530e+09   ,2.5  ,-2.4  ,1.1
335  ,1.605e+09   ,2.5  ,-2.4  ,0.9
336  ,2.197e+09   ,2.5  ,-2.4  ,0.7
337  ,2.649e+09   ,2.5  ,-2.4  ,0.5
338  ,3.633e+09   ,2.5  ,-2.4  ,0.3
339  ,1.767e+09   ,2.5  ,-2.2  ,0.1
340  ,1.933e+09   ,2.5  ,-2  ,0.1
341  ,1.203e+09   ,2.5  ,-1.8  ,0.1
342  ,1.145e+09   ,2.5  ,-1.6  ,0.1
343  ,7.787e+08   ,2.5  ,-1.4  ,0.1
344  ,8.127e+08   ,2.5  ,-1.2  ,0.1
345  ,7.020e+08   ,2.5  ,-1  ,0.1
346  ,3.695e+08   ,2.5  ,-0.8  ,0.1
347  ,4.041e+08   ,2.5  ,-0.6  ,0.1
348  ,5.745e+08   ,2.5  ,-0.4  ,0.1
349  ,9.895e+08   ,2.5  ,-0.2  ,0.1
350  ,1.099e+09   ,2.5  ,-1.7664E-15  ,0.1
351  ,1.220e+09   ,2.5  ,0.2  ,0.1
352  ,1.405e+09   ,2.5  ,0.4  ,0.1
353  ,1.887e+09   ,2.5  ,0.6  ,0.1
354  ,2.525e+09   ,2.5  ,0.8  ,0.1
355  ,2.003e+09   ,2.5  ,1  ,0.1
356  ,1.789e+09   ,2.5  ,1.2  ,0.1
357  ,1.440e+09   ,2.5  ,1.4  ,0.1
358  ,1.287e+09   ,2.5  ,1.6  ,0.1
359  ,1.053e+09   ,2.5  ,1.8  ,0.1
360  ,1.058e+09   ,2.5  ,2  ,0.1
361  ,9.712e+08   ,2.5  ,2.2  ,0.1
362  ,1.005e+10   ,2.5  ,2.4  ,4.436
363  ,6.544e+09   ,2.5  ,2.4  ,4.2389
364  ,4.069e+09   ,2.5  ,2.4  ,4.0418
365  ,3.386e+09   ,2.5  ,2.4  ,3.8447
366  ,2.825e+09   ,2.5  ,2.4  ,3.6476
367  ,2.371e+09   ,2.5  ,2.4  ,3.4505
368  ,2.270e+09   ,2.5  ,2.4  ,3.2535
369  ,2.242e+09   ,2.5  ,2.4  ,3.0564
370  ,2.129e+09   ,2.5  ,2.4  ,2.8593
371  ,2.046e+09   ,2.5  ,2.4  ,2.6622
372  ,2.568e+09   ,2.5  ,2.4  ,2.4651
373  ,2.812e+09   ,2.5  ,2.4  ,2.268
374  ,3.126e+09   ,2.5  ,2.4  ,2.0709
375  ,3.142e+09   ,2.5  ,2.4  ,1.8738
376  ,3.663e+09   ,2.5  ,2.4  ,1.6767
377  ,3.317e+09   ,2.5  ,2.4  ,1.4796
378  ,3.544e+09   ,2.5  ,2.4  ,1.2825
379  ,3.307e+09   ,2.5  ,2.4  ,1.0855
380  ,2.957e+09   ,2.5  ,2.4  ,0.88836
381  ,2.346e+09   ,2.5  ,2.4  ,0.69127
382  ,1.201e+09   ,2.5  ,2.4  ,0.49418
383  ,7.407e+08   ,2.5  ,2.4  ,0.29709
384  ,8.074e+09   ,2.5  ,2.2665  ,4.7665
544  ,1.219e+09   ,2.2  ,2.5  ,0.1
545  ,1.690e+09   ,2  ,2.5  ,0.1
546  ,1.760e+09   ,1.8  ,2.5  ,0.1
547  ,1.988e+09   ,1.6  ,2.5  ,0.1
548  ,1.725e+09   ,1.4  ,2.5  ,0.1
549  ,2.026e+09   ,1.2  ,2.5  ,0.1
550  ,2.317e+09   ,1  ,2.5  ,0.1
551  ,2.938e+09   ,0.8  ,2.5  ,0.1
552  ,2.166e+09   ,0.6  ,2.5  ,0.1
553  ,1.020e+09   ,0.4  ,2.5  ,0.1
554  ,7.998e+08   ,0.2  ,2.5  ,0.1
555  ,4.701e+08   ,5.8879E-16  ,2.5  ,0.1
556  ,1.344e+09   ,-0.2  ,2.5  ,0.1
557  ,1.209e+09   ,-0.4  ,2.5  ,0.1
558  ,1.115e+09   ,-0.6  ,2.5  ,0.1
559  ,1.910e+09   ,-0.8  ,2.5  ,0.1
560  ,1.974e+09   ,-1  ,2.5  ,0.1
561  ,2.158e+09   ,-1.2  ,2.5  ,0.1
562  ,2.056e+09   ,-1.4  ,2.5  ,0.1
563  ,2.062e+09   ,-1.6  ,2.5  ,0.1
564  ,2.004e+09   ,-1.8  ,2.5  ,0.1
565  ,1.889e+09   ,-2  ,2.5  ,0.1
566  ,1.494e+09   ,-2.2  ,2.5  ,0.1
567  ,1.189e+09   ,-2.4  ,2.5  ,4.7
568  ,1.756e+09   ,-2.4  ,2.5  ,4.5
569  ,1.820e+09   ,-2.4  ,2.5  ,4.3
570  ,2.006e+09   ,-2.4  ,2.5  ,4.1
571  ,1.722e+09   ,-2.4  ,2.5  ,3.9
572  ,1.775e+09   ,-2.4  ,2.5  ,3.7
573  ,2.132e+09   ,-2.4  ,2.5  ,3.5
574  ,2.823e+09   ,-2.4  ,2.5  ,3.3
575  ,1.911e+09   ,-2.4  ,2.5  ,3.1
576  ,1.218e+09   ,-2.4  ,2.5  ,2.9
577  ,1.157e+09   ,-2.4  ,2.5  ,2.7
578  ,8.978e+08   ,-2.4  ,2.5  ,2.5
579  ,9.439e+08   ,-2.4  ,2.5  ,2.3
580  ,1.242e+09   ,-2.4  ,2.5  ,2.1
581  ,1.229e+09   ,-2.4  ,2.5  ,1.9
582  ,1.724e+09   ,-2.4  ,2.5  ,1.7
583  ,1.893e+09   ,-2.4  ,2.5  ,1.5
584  ,2.155e+09   ,-2.4  ,2.5  ,1.3
585  ,2.130e+09   ,-2.4  ,2.5  ,1.1
586  ,2.227e+09   ,-2.4  ,2.5  ,0.9
587  ,1.978e+09   ,-2.4  ,2.5  ,0.7
588  ,1.810e+09   ,-2.4  ,2.5  ,0.5
589  ,1.534e+09   ,-2.4  ,2.5  ,0.3
590  ,1.213e+10   ,1.936  ,2.5  ,4.9
591  ,4.820e+09   ,1.7389  ,2.5  ,4.9
592  ,3.612e+09   ,1.5418  ,2.5  ,4.9
593  ,2.798e+09   ,1.3447  ,2.5  ,4.9
594  ,2.308e+09   ,1.1476  ,2.5  ,4.9
595  ,2.298e+09   ,0.95055  ,2.5  ,4.9
596  ,2.461e+09   ,0.75346  ,2.5  ,4.9
597  ,2.023e+09   ,0.55637  ,2.5  ,4.9
598  ,2.082e+09   ,0.35927  ,2.5  ,4.9
599  ,1.759e+09   ,0.16218  ,2.5  ,4.9
600  ,1.953e+09   ,-0.034907  ,2.5  ,4.9
601  ,2.107e+09   ,-0.232  ,2.5  ,4.9
602  ,3.925e+09   ,-0.42909  ,2.5  ,4.9
603  ,4.182e+09   ,-0.62618  ,2.5  ,4.9
604  ,4.336e+09   ,-0.82327  ,2.5  ,4.9
605  ,4.776e+09   ,-1.0204  ,2.5  ,4.9
606  ,4.247e+09   ,-1.2175  ,2.5  ,4.9
607  ,3.363e+09   ,-1.4145  ,2.5  ,4.9
608  ,2.654e+09   ,-1.6116  ,2.5  ,4.9
609  ,1.875e+09   ,-1.8087  ,2.5  ,4.9
610  ,1.324e+09   ,-2.0058  ,2.5  ,4.9
611  ,6.690e+08   ,-2.2029  ,2.5  ,4.9
612  ,1.641e+10   ,2.2665  ,2.5  ,4.7665
613  ,1.042e+10   ,2.4  ,2.5  ,4.436
614  ,6.061e+09   ,2.4  ,2.5  ,4.2389
615  ,3.882e+09   ,2.4  ,2.5  ,4.0418
616  ,3.041e+09   ,2.4  ,2.5  ,3.8447
617  ,2.509e+09   ,2.4  ,2.5  ,3.6476
618  ,2.213e+09   ,2.4  ,2.5  ,3.4505
619  ,2.328e+09   ,2.4  ,2.5  ,3.2535
620  ,2.317e+09   ,2.4  ,2.5  ,3.0564
621  ,1.842e+09   ,2.4  ,2.5  ,2.8593
622  ,2.019e+09   ,2.4  ,2.5  ,2.6622
623  ,2.018e+09   ,2.4  ,2.5  ,2.4651
624  ,2.195e+09   ,2.4  ,2.5  ,2.268
625  ,2.559e+09   ,2.4  ,2.5  ,2.0709
626  ,3.061e+09   ,2.4  ,2.5  ,1.8738
627  ,3.905e+09   ,2.4  ,2.5  ,1.6767
628  ,4.629e+09   ,2.4  ,2.5  ,1.4796
629  ,4.849e+09   ,2.4  ,2.5  ,1.2825
630  ,3.462e+09   ,2.4  ,2.5  ,1.0855
631  ,2.659e+09   ,2.4  ,2.5  ,0.88836
632  ,1.942e+09   ,2.4  ,2.5  ,0.69127
633  ,1.566e+09   ,2.4  ,2.5  ,0.49418
634  ,7.776e+08   ,2.4  ,2.5  ,0.29709
796  ,9.649e+08   ,-2.5  ,2.2  ,0.1
797  ,1.252e+09   ,-2.5  ,2  ,0.1
798  ,1.623e+09   ,-2.5  ,1.8  ,0.1
799  ,1.671e+09   ,-2.5  ,1.6  ,0.1
800  ,1.850e+09   ,-2.5  ,1.4  ,0.1
801  ,2.004e+09   ,-2.5  ,1.2  ,0.1
802  ,1.834e+09   ,-2.5  ,1  ,0.1
803  ,1.777e+09   ,-2.5  ,0.8  ,0.1
804  ,1.814e+09   ,-2.5  ,0.6  ,0.1
805  ,1.895e+09   ,-2.5  ,0.4  ,0.1
806  ,1.651e+09   ,-2.5  ,0.2  ,0.1
807  ,1.664e+09   ,-2.5  ,5.8879E-16  ,0.1
808  ,1.678e+09   ,-2.5  ,-0.2  ,0.1
809  ,1.728e+09   ,-2.5  ,-0.4  ,0.1
810  ,1.780e+09   ,-2.5  ,-0.6  ,0.1
811  ,1.583e+09   ,-2.5  ,-0.8  ,0.1
812  ,1.785e+09   ,-2.5  ,-1  ,0.1
813  ,1.622e+09   ,-2.5  ,-1.2  ,0.1
814  ,1.706e+09   ,-2.5  ,-1.4  ,0.1
815  ,1.396e+09   ,-2.5  ,-1.6  ,0.1
816  ,1.092e+09   ,-2.5  ,-1.8  ,0.1
817  ,9.580e+08   ,-2.5  ,-2  ,0.1
818  ,5.421e+08   ,-2.5  ,-2.2  ,0.1
819  ,3.202e+09   ,-2.5  ,-2.4  ,4.7
820  ,2.004e+09   ,-2.5  ,-2.4  ,4.5
821  ,1.531e+09   ,-2.5  ,-2.4  ,4.3
822  ,2.457e+09   ,-2.5  ,-2.4  ,4.1
823  ,3.196e+09   ,-2.5  ,-2.4  ,3.9
824  ,3.716e+09   ,-2.5  ,-2.4  ,3.7
825  ,4.335e+09   ,-2.5  ,-2.4  ,3.5
826  ,3.899e+09   ,-2.5  ,-2.4  ,3.3
827  ,4.384e+09   ,-2.5  ,-2.4  ,3.1
828  ,4.205e+09   ,-2.5  ,-2.4  ,2.9
829  ,3.792e+09   ,-2.5  ,-2.4  ,2.7
830  ,3.964e+09   ,-2.5  ,-2.4  ,2.5
831  ,3.182e+09   ,-2.5  ,-2.4  ,2.3
832  ,2.730e+09   ,-2.5  ,-2.4  ,2.1
833  ,1.425e+09   ,-2.5  ,-2.4  ,1.9
834  ,5.939e+08   ,-2.5  ,-2.4  ,1.7
835  ,2.356e+08   ,-2.5  ,-2.4  ,1.5
836  ,9.152e+08   ,-2.5  ,-2.4  ,1.3
837  ,1.755e+09   ,-2.5  ,-2.4  ,1.1
838  ,2.522e+09   ,-2.5  ,-2.4  ,0.9
839  ,2.980e+09   ,-2.5  ,-2.4  ,0.7
840  ,2.919e+09   ,-2.5  ,-2.4  ,0.5
841  ,1.805e+09   ,-2.5  ,-2.4  ,0.3
842  ,8.379e+08   ,-2.5  ,2.2  ,4.9
843  ,1.245e+09   ,-2.5  ,2  ,4.9
844  ,1.310e+09   ,-2.5  ,1.8  ,4.9
845  ,1.217e+09   ,-2.5  ,1.6  ,4.9
846  ,1.206e+09   ,-2.5  ,1.4  ,4.9
847  ,1.278e+09   ,-2.5  ,1.2  ,4.9
848  ,1.357e+09   ,-2.5  ,1  ,4.9
849  ,1.830e+09   ,-2.5  ,0.8  ,4.9
850  ,1.869e+09   ,-2.5  ,0.6  ,4.9
851  ,1.828e+09   ,-2.5  ,0.4  ,4.9
852  ,1.715e+09   ,-2.5  ,0.2  ,4.9
853  ,1.323e+09   ,-2.5  ,5.8879E-16  ,4.9
854  ,1.409e+09   ,-2.5  ,-0.2  ,4.9
855  ,9.885e+08   ,-2.5  ,-0.4  ,4.9
856  ,6.799e+08   ,-2.5  ,-0.6  ,4.9
857  ,6.459e+08   ,-2.5  ,-0.8  ,4.9
858  ,8.747e+08   ,-2.5  ,-1  ,4.9
859  ,9.270e+08   ,-2.5  ,-1.2  ,4.9
860  ,1.069e+09   ,-2.5  ,-1.4  ,4.9
861  ,9.981e+08   ,-2.5  ,-1.6  ,4.9
862  ,9.908e+08   ,-2.5  ,-1.8  ,4.9
863  ,1.508e+09   ,-2.5  ,-2  ,4.9
864  ,1.593e+09   ,-2.5  ,-2.2  ,4.9
865  ,1.091e+09   ,-2.5  ,2.4  ,4.7
866  ,1.670e+09   ,-2.5  ,2.4  ,4.5
867  ,1.829e+09   ,-2.5  ,2.4  ,4.3
868  ,1.416e+09   ,-2.5  ,2.4  ,4.1
869  ,1.626e+09   ,-2.5  ,2.4  ,3.9
870  ,1.659e+09   ,-2.5  ,2.4  ,3.7
871  ,1.850e+09   ,-2.5  ,2.4  ,3.5
872  ,2.408e+09   ,-2.5  ,2.4  ,3.3
873  ,1.971e+09   ,-2.5  ,2.4  ,3.1
874  ,1.064e+09   ,-2.5  ,2.4  ,2.9
875  ,9.816e+08   ,-2.5  ,2.4  ,2.7
876  ,1.041e+09   ,-2.5  ,2.4  ,2.5
877  ,1.045e+09   ,-2.5  ,2.4  ,2.3
878  ,1.140e+09   ,-2.5  ,2.4  ,2.1
879  ,8.520e+08   ,-2.5  ,2.4  ,1.9
880  ,1.502e+09   ,-2.5  ,2.4  ,1.7
881  ,2.254e+09   ,-2.5  ,2.4  ,1.5
882  ,2.451e+09   ,-2.5  ,2.4  ,1.3
883  ,2.181e+09   ,-2.5  ,2.4  ,1.1
884  ,2.232e+09   ,-2.5  ,2.4  ,0.9
885  ,1.982e+09   ,-2.5  ,2.4  ,0.7
886  ,1.941e+09   ,-2.5  ,2.4  ,0.5
887  ,1.581e+09   ,-2.5  ,2.4  ,0.3
1044  ,1.266e+09   ,-2.3  ,-2.5  ,0.44697
1045  ,1.599e+09   ,-2.3  ,-2.5  ,0.68705
1046  ,1.582e+09   ,-2.3  ,-2.5  ,0.92554
1047  ,1.253e+09   ,-2.3  ,-2.5  ,1.1682
1048  ,6.587e+08   ,-2.3  ,-2.5  ,1.4148
1049  ,5.206e+08   ,-2.3  ,-2.5  ,1.6581
1050  ,7.189e+08   ,-2.3  ,-2.5  ,1.8967
1051  ,1.752e+09   ,-2.3  ,-2.5  ,2.1357
1052  ,2.516e+09   ,-2.3  ,-2.5  ,2.3794
1053  ,2.960e+09   ,-2.3  ,-2.5  ,2.6206
1054  ,3.153e+09   ,-2.3  ,-2.5  ,2.8643
1055  ,3.052e+09   ,-2.3  ,-2.5  ,3.1033
1056  ,3.051e+09   ,-2.3  ,-2.5  ,3.342
1057  ,3.032e+09   ,-2.3  ,-2.5  ,3.5852
1058  ,2.324e+09   ,-2.3  ,-2.5  ,3.8318
1059  ,1.363e+09   ,-2.3  ,-2.5  ,4.0745
1060  ,9.497e+08   ,-2.3  ,-2.5  ,4.3129
1061  ,2.618e+09   ,-2.3  ,-2.5  ,4.553
1062  ,3.518e+09   ,-2.053  ,-2.5  ,4.8
1063  ,2.289e+09   ,-1.8129  ,-2.5  ,4.8
1064  ,1.785e+09   ,-1.5745  ,-2.5  ,4.8
1065  ,1.906e+09   ,-1.3318  ,-2.5  ,4.8
1066  ,1.893e+09   ,-1.0852  ,-2.5  ,4.8
1067  ,1.834e+09   ,-0.84195  ,-2.5  ,4.8
1068  ,2.014e+09   ,-0.60329  ,-2.5  ,4.8
1069  ,2.261e+09   ,-0.3643  ,-2.5  ,4.8
1070  ,2.753e+09   ,-0.12055  ,-2.5  ,4.8
1071  ,2.727e+09   ,0.12056  ,-2.5  ,4.8
1072  ,2.703e+09   ,0.3643  ,-2.5  ,4.8
1073  ,2.384e+09   ,0.6033  ,-2.5  ,4.8
1074  ,1.312e+09   ,0.84195  ,-2.5  ,4.8
1075  ,7.711e+08   ,1.0852  ,-2.5  ,4.8
1076  ,1.797e+08   ,1.3318  ,-2.5  ,4.8
1077  ,2.390e+09   ,1.5745  ,-2.5  ,4.8
1078  ,4.963e+09   ,1.8129  ,-2.5  ,4.8
1079  ,8.637e+09   ,2.053  ,-2.5  ,4.8
1080  ,8.578e+09   ,2.3  ,-2.5  ,4.553
1081  ,4.744e+09   ,2.3  ,-2.5  ,4.3129
1082  ,2.364e+09   ,2.3  ,-2.5  ,4.0745
1083  ,2.351e+08   ,2.3  ,-2.5  ,3.8318
1084  ,7.873e+08   ,2.3  ,-2.5  ,3.5852
1085  ,1.303e+09   ,2.3  ,-2.5  ,3.3419
1086  ,2.175e+09   ,2.3  ,-2.5  ,3.1033
1087  ,3.045e+09   ,2.3  ,-2.5  ,2.8643
1088  ,3.164e+09   ,2.3  ,-2.5  ,2.6206
1089  ,2.888e+09   ,2.3  ,-2.5  ,2.3794
1090  ,2.378e+09   ,2.3  ,-2.5  ,2.1357
1091  ,2.109e+09   ,2.3  ,-2.5  ,1.8967
1092  ,1.825e+09   ,2.3  ,-2.5  ,1.658
1093  ,1.910e+09   ,2.3  ,-2.5  ,1.4148
1094  ,1.792e+09   ,2.3  ,-2.5  ,1.1682
1095  ,1.662e+09   ,2.3  ,-2.5  ,0.92554
1096  ,2.027e+09   ,2.3  ,-2.5  ,0.68705
1097  ,3.168e+09   ,2.3  ,-2.5  ,0.44697
1098  ,1.021e+09   ,-2.053  ,-2.5  ,0.2
1099  ,1.676e+09   ,-1.8129  ,-2.5  ,0.2
1100  ,1.676e+09   ,-1.5745  ,-2.5  ,0.2
1101  ,1.567e+09   ,-1.3318  ,-2.5  ,0.2
1102  ,1.042e+09   ,-1.0852  ,-2.5  ,0.2
1103  ,5.055e+08   ,-0.84195  ,-2.5  ,0.2
1104  ,8.246e+08   ,-0.60329  ,-2.5  ,0.2
1105  ,1.831e+09   ,-0.3643  ,-2.5  ,0.2
1106  ,2.637e+09   ,-0.12055  ,-2.5  ,0.2
1107  ,2.951e+09   ,0.12056  ,-2.5  ,0.2
1108  ,2.978e+09   ,0.3643  ,-2.5  ,0.2
1109  ,2.722e+09   ,0.6033  ,-2.5  ,0.2
1110  ,3.083e+09   ,0.84195  ,-2.5  ,0.2
1111  ,3.089e+09   ,1.0852  ,-2.5  ,0.2
1112  ,2.456e+09   ,1.3318  ,-2.5  ,0.2
1113  ,1.376e+09   ,1.5745  ,-2.5  ,0.2
1114  ,8.703e+08   ,1.8129  ,-2.5  ,0.2
1115  ,2.804e+09   ,2.053  ,-2.5  ,0.2
1116  ,1.626e+09   ,-2.2  ,-2.5  ,4.9
1117  ,9.103e+08   ,-2  ,-2.5  ,4.9
1118  ,1.150e+09   ,-1.8  ,-2.5  ,4.9
1119  ,8.058e+08   ,-1.6  ,-2.5  ,4.9
1120  ,6.390e+08   ,-1.4  ,-2.5  ,4.9
1121  ,7.842e+08   ,-1.2  ,-2.5  ,4.9
1122  ,5.298e+08   ,-1  ,-2.5  ,4.9
1123  ,2.205e+08   ,-0.8  ,-2.5  ,4.9
1124  ,1.225e+08   ,-0.6  ,-2.5  ,4.9
1125  ,3.601e+08   ,-0.4  ,-2.5  ,4.9
1126  ,6.283e+08   ,-0.2  ,-2.5  ,4.9
1127  ,5.655e+08   ,-1.7664E-15  ,-2.5  ,4.9
1128  ,7.388e+08   ,0.2  ,-2.5  ,4.9
1129  ,1.116e+09   ,0.4  ,-2.5  ,4.9
1130  ,9.065e+08   ,0.6  ,-2.5  ,4.9
1131  ,1.226e+09   ,0.8  ,-2.5  ,4.9
1132  ,1.189e+09   ,1  ,-2.5  ,4.9
1133  ,1.474e+09   ,1.2  ,-2.5  ,4.9
1134  ,1.668e+09   ,1.4  ,-2.5  ,4.9
1135  ,2.075e+09   ,1.6  ,-2.5  ,4.9
1136  ,2.244e+09   ,1.8  ,-2.5  ,4.9
1137  ,1.796e+09   ,2  ,-2.5  ,4.9
1138  ,1.229e+09   ,2.2  ,-2.5  ,4.9
1139  ,1.702e+09   ,-2.4  ,-2.5  ,4.7
1140  ,1.959e+09   ,-2.4  ,-2.5  ,4.5
1141  ,1.641e+09   ,-2.4  ,-2.5  ,4.3
1142  ,1.178e+09   ,-2.4  ,-2.5  ,4.1
1143  ,1.121e+09   ,-2.4  ,-2.5  ,3.9
1144  ,1.308e+09   ,-2.4  ,-2.5  ,3.7
1145  ,5.855e+08   ,-2.4  ,-2.5  ,3.5
1146  ,8.994e+08   ,-2.4  ,-2.5  ,3.3
1147  ,4.961e+08   ,-2.4  ,-2.5  ,3.1
1148  ,8.353e+08   ,-2.4  ,-2.5  ,2.9
1149  ,9.904e+08   ,-2.4  ,-2.5  ,2.7
1150  ,8.618e+08   ,-2.4  ,-2.5  ,2.5
1151  ,9.928e+08   ,-2.4  ,-2.5  ,2.3
1152  ,1.060e+09   ,-2.4  ,-2.5  ,2.1
1153  ,1.102e+09   ,-2.4  ,-2.5  ,1.9
1154  ,6.542e+08   ,-2.4  ,-2.5  ,1.7
1155  ,3.286e+08   ,-2.4  ,-2.5  ,1.5
1156  ,2.801e+08   ,-2.4  ,-2.5  ,1.3
1157  ,3.230e+08   ,-2.4  ,-2.5  ,1.1
1158  ,7.232e+08   ,-2.4  ,-2.5  ,0.9
1159  ,1.343e+09   ,-2.4  ,-2.5  ,0.7
1160  ,1.667e+09   ,-2.4  ,-2.5  ,0.5
1161  ,2.278e+09   ,-2.4  ,-2.5  ,0.3
1162  ,1.806e+09   ,-2.2  ,-2.5  ,0.1
1163  ,1.489e+09   ,-2  ,-2.5  ,0.1
1164  ,1.271e+09   ,-1.8  ,-2.5  ,0.1
1165  ,8.476e+08   ,-1.6  ,-2.5  ,0.1
1166  ,5.422e+08   ,-1.4  ,-2.5  ,0.1
1167  ,2.071e+08   ,-1.2  ,-2.5  ,0.1
1168  ,5.017e+08   ,-1  ,-2.5  ,0.1
1169  ,8.470e+08   ,-0.8  ,-2.5  ,0.1
1170  ,1.027e+09   ,-0.6  ,-2.5  ,0.1
1171  ,1.045e+09   ,-0.4  ,-2.5  ,0.1
1172  ,9.930e+08   ,-0.2  ,-2.5  ,0.1
1173  ,1.054e+09   ,-1.7664E-15  ,-2.5  ,0.1
1174  ,9.089e+08   ,0.2  ,-2.5  ,0.1
1175  ,8.168e+08   ,0.4  ,-2.5  ,0.1
1176  ,1.074e+09   ,0.6  ,-2.5  ,0.1
1177  ,4.894e+08   ,0.8  ,-2.5  ,0.1
1178  ,9.315e+08   ,1  ,-2.5  ,0.1
1179  ,1.374e+09   ,1.2  ,-2.5  ,0.1
1180  ,1.354e+09   ,1.4  ,-2.5  ,0.1
1181  ,1.394e+09   ,1.6  ,-2.5  ,0.1
1182  ,1.484e+09   ,1.8  ,-2.5  ,0.1
1183  ,1.573e+09   ,2  ,-2.5  ,0.1
1184  ,1.552e+09   ,2.2  ,-2.5  ,0.1
1185  ,1.585e+09   ,2.4  ,-2.5  ,4.7
1186  ,1.811e+09   ,2.4  ,-2.5  ,4.5
1187  ,2.095e+09   ,2.4  ,-2.5  ,4.3
1188  ,2.122e+09   ,2.4  ,-2.5  ,4.1
1189  ,1.687e+09   ,2.4  ,-2.5  ,3.9
1190  ,1.429e+09   ,2.4  ,-2.5  ,3.7
1191  ,1.061e+09   ,2.4  ,-2.5  ,3.5
1192  ,1.046e+09   ,2.4  ,-2.5  ,3.3
1193  ,8.916e+08   ,2.4  ,-2.5  ,3.1
1194  ,8.513e+08   ,2.4  ,-2.5  ,2.9
1195  ,5.484e+08   ,2.4  ,-2.5  ,2.7
1196  ,7.401e+08   ,2.4  ,-2.5  ,2.5
1197  ,5.983e+08   ,2.4  ,-2.5  ,2.3
1198  ,4.095e+08   ,2.4  ,-2.5  ,2.1
1199  ,1.806e+08   ,2.4  ,-2.5  ,1.9
1200  ,3.078e+08   ,2.4  ,-2.5  ,1.7
1201  ,4.595e+08   ,2.4  ,-2.5  ,1.5
1202  ,5.837e+08   ,2.4  ,-2.5  ,1.3
1203  ,5.251e+08   ,2.4  ,-2.5  ,1.1
1204  ,6.855e+08   ,2.4  ,-2.5  ,0.9
1205  ,8.367e+08   ,2.4  ,-2.5  ,0.7
1206  ,9.764e+08   ,2.4  ,-2.5  ,0.5
1207  ,1.519e+09   ,2.4  ,-2.5  ,0.3
1208  ,1.575e+09   ,2.4  ,-2.2  ,0
1209  ,1.506e+09   ,2.4  ,-2  ,0
1210  ,1.023e+09   ,2.4  ,-1.8  ,0
1211  ,8.225e+08   ,2.4  ,-1.6  ,0
1212  ,9.214e+08   ,2.4  ,-1.4  ,0
1213  ,9.352e+08   ,2.4  ,-1.2  ,0
1214  ,7.883e+08   ,2.4  ,-1  ,0
1215  ,5.819e+08   ,2.4  ,-0.8  ,0
1216  ,5.919e+08   ,2.4  ,-0.6  ,0
1217  ,7.413e+08   ,2.4  ,-0.4  ,0
1218  ,1.169e+09   ,2.4  ,-0.2  ,0
1219  ,1.245e+09   ,2.4  ,-1.7664E-15  ,0
1220  ,1.373e+09   ,2.4  ,0.2  ,0
1221  ,1.582e+09   ,2.4  ,0.4  ,0
1222  ,1.915e+09   ,2.4  ,0.6  ,0
1223  ,2.040e+09   ,2.4  ,0.8  ,0
1224  ,1.671e+09   ,2.4  ,1  ,0
1225  ,1.548e+09   ,2.4  ,1.2  ,0
1226  ,1.354e+09   ,2.4  ,1.4  ,0
1227  ,1.217e+09   ,2.4  ,1.6  ,0
1228  ,1.490e+09   ,2.4  ,1.8  ,0
1229  ,1.446e+09   ,2.4  ,2  ,0
1230  ,1.199e+09   ,2.4  ,2.2  ,0
1231  ,1.228e+09   ,-2.2  ,-2.4  ,0
1232  ,2.434e+09   ,-2  ,-2.4  ,0
1233  ,2.723e+09   ,-1.8  ,-2.4  ,0
1234  ,2.481e+09   ,-1.6  ,-2.4  ,0
1235  ,1.961e+09   ,-1.4  ,-2.4  ,0
1236  ,1.285e+09   ,-1.2  ,-2.4  ,0
1237  ,2.260e+08   ,-1  ,-2.4  ,0
1238  ,9.182e+08   ,-0.8  ,-2.4  ,0
1239  ,1.763e+09   ,-0.6  ,-2.4  ,0
1240  ,2.698e+09   ,-0.4  ,-2.4  ,0
1241  ,3.394e+09   ,-0.2  ,-2.4  ,0
1242  ,3.975e+09   ,5.8879E-16  ,-2.4  ,0
1243  ,4.152e+09   ,0.2  ,-2.4  ,0
1244  ,4.235e+09   ,0.4  ,-2.4  ,0
1245  ,3.886e+09   ,0.6  ,-2.4  ,0
1246  ,4.492e+09   ,0.8  ,-2.4  ,0
1247  ,4.345e+09   ,1  ,-2.4  ,0
1248  ,4.023e+09   ,1.2  ,-2.4  ,0
1249  ,3.154e+09   ,1.4  ,-2.4  ,0
1250  ,2.148e+09   ,1.6  ,-2.4  ,0
1251  ,1.181e+09   ,1.8  ,-2.4  ,0
1252  ,1.598e+09   ,2  ,-2.4  ,0
1253  ,3.598e+09   ,2.2  ,-2.4  ,0
1254  ,9.337e+08   ,-2.4  ,2.2  ,0
1255  ,1.456e+09   ,-2.4  ,2  ,0
1256  ,1.436e+09   ,-2.4  ,1.8  ,0
1257  ,1.688e+09   ,-2.4  ,1.6  ,0
1258  ,1.921e+09   ,-2.4  ,1.4  ,0
1259  ,2.202e+09   ,-2.4  ,1.2  ,0
1260  ,2.008e+09   ,-2.4  ,1  ,0
1261  ,1.866e+09   ,-2.4  ,0.8  ,0
1262  ,1.691e+09   ,-2.4  ,0.6  ,0
1263  ,1.699e+09   ,-2.4  ,0.4  ,0
1264  ,1.703e+09   ,-2.4  ,0.2  ,0
1265  ,1.722e+09   ,-2.4  ,5.8879E-16  ,0
1266  ,1.997e+09   ,-2.4  ,-0.2  ,0
1267  ,1.599e+09   ,-2.4  ,-0.4  ,0
1268  ,1.793e+09   ,-2.4  ,-0.6  ,0
1269  ,1.590e+09   ,-2.4  ,-0.8  ,0
1270  ,1.792e+09   ,-2.4  ,-1  ,0
1271  ,1.732e+09   ,-2.4  ,-1.2  ,0
1272  ,1.629e+09   ,-2.4  ,-1.4  ,0
1273  ,1.578e+09   ,-2.4  ,-1.6  ,0
1274  ,1.258e+09   ,-2.4  ,-1.8  ,0
1275  ,8.610e+08   ,-2.4  ,-2  ,0
1276  ,1.951e+08   ,-2.4  ,-2.2  ,0
1277  ,1.084e+09   ,2.2  ,2.4  ,0
1278  ,1.598e+09   ,2  ,2.4  ,0
1279  ,1.723e+09   ,1.8  ,2.4  ,0
1280  ,1.396e+09   ,1.6  ,2.4  ,0
1281  ,1.225e+09   ,1.4  ,2.4  ,0
1282  ,1.579e+09   ,1.2  ,2.4  ,0
1283  ,1.826e+09   ,1  ,2.4  ,0
1284  ,2.427e+09   ,0.8  ,2.4  ,0
1285  ,2.063e+09   ,0.6  ,2.4  ,0
1286  ,1.037e+09   ,0.4  ,2.4  ,0
1287  ,7.716e+08   ,0.2  ,2.4  ,0
1288  ,7.362e+08   ,5.8879E-16  ,2.4  ,0
1289  ,9.784e+08   ,-0.2  ,2.4  ,0
1290  ,1.157e+09   ,-0.4  ,2.4  ,0
1291  ,6.597e+08   ,-0.6  ,2.4  ,0
1292  ,1.669e+09   ,-0.8  ,2.4  ,0
1293  ,2.257e+09   ,-1  ,2.4  ,0
1294  ,2.455e+09   ,-1.2  ,2.4  ,0
1295  ,2.099e+09   ,-1.4  ,2.4  ,0
1296  ,2.011e+09   ,-1.6  ,2.4  ,0
1297  ,1.948e+09   ,-1.8  ,2.4  ,0
1298  ,1.722e+09   ,-2  ,2.4  ,0
1299  ,1.637e+09   ,-2.2  ,2.4  ,0
1460  ,9.547e+09   ,2.3243  ,2.3243  ,4.9577
1461  ,9.043e+09   ,2.4577  ,2.3243  ,4.8243
1462  ,9.954e+09   ,2.3243  ,2.4577  ,4.8243
1463  ,1.369e+09   ,-2.3  ,-2.1759  ,4.8
1464  ,6.308e+08   ,-2.3  ,-1.7631  ,4.8
1465  ,9.368e+08   ,-2.3  ,-1.1827  ,4.8
1466  ,2.409e+09   ,-2.3  ,-0.34986  ,4.8
1467  ,2.883e+09   ,-2.3  ,0.80545  ,4.8
1468  ,3.012e+09   ,-0.81337  ,2.3  ,4.8
1469  ,3.379e+09   ,0.67326  ,2.3  ,4.8
1470  ,4.110e+09   ,2.3  ,-2.1824  ,4.8
1471  ,3.120e+09   ,2.3  ,-1.7784  ,4.8
1472  ,3.716e+09   ,2.3  ,-1.2138  ,4.8
1473  ,3.644e+09   ,2.3  ,-0.40752  ,4.8
1474  ,2.977e+09   ,2.3  ,0.70532  ,4.8
1516  ,3.026e+09   ,2.3  ,2.3  ,1.6866
1517  ,3.555e+09   ,2.3  ,2.3  ,3.1733
1518  ,1.417e+09   ,2.3  ,-2.1759  ,0.2
1519  ,6.899e+08   ,2.3  ,-1.7631  ,0.2
1520  ,8.542e+08   ,2.3  ,-1.1827  ,0.2
1521  ,2.229e+09   ,2.3  ,-0.34986  ,0.2
1522  ,3.082e+09   ,2.3  ,0.80545  ,0.2
1564  ,1.367e+09   ,-0.76667  ,2.3  ,0.2
1565  ,2.654e+09   ,0.76667  ,2.3  ,0.2
1566  ,1.346e+09   ,-2.3  ,2.3  ,1.7333
1567  ,2.664e+09   ,-2.3  ,2.3  ,3.2667
1574  ,8.430e+08   ,-2.3  ,-2.1759  ,0.2
1575  ,5.526e+08   ,-2.3  ,-1.7631  ,0.2
1576  ,3.350e+08   ,-2.3  ,-1.1827  ,0.2
1577  ,2.386e+08   ,-2.3  ,-0.34986  ,0.2
1578  ,3.867e+08   ,-2.3  ,0.80545  ,0.2
1777  ,4.224e+09   ,-0.52764  ,2.5  ,4.9
1801  ,2.559e+09   ,-2.3  ,1.5527  ,0.2
1825  ,2.207e+09   ,-1.5333  ,2.3  ,0.2
1841  ,1.897e+09   ,0.063638  ,2.5  ,4.9
1876  ,9.250e+08   ,-0.5  ,2.4  ,0
1894  ,2.516e+09   ,2.3  ,1.5527  ,0.2
1907  ,1.430e+09   ,2.1  ,2.5  ,0.1
1928  ,1.604e+09   ,1.9  ,2.4  ,0
1974  ,1.508e+09   ,2.4  ,1.1  ,0
1981  ,1.806e+09   ,2.4  ,2.5  ,0.59273
1987  ,1.574e+09   ,-2.5  ,2.4  ,4
2004  ,1.460e+09   ,-2.4  ,2.5  ,4.6
2009  ,1.404e+09   ,2.4  ,1.3  ,0
2020  ,1.763e+09   ,2.5  ,1.1  ,0.1
2035  ,1.230e+09   ,-2.3  ,-0.76628  ,0.2
2070  ,4.843e+09   ,1.6404  ,2.4  ,5
2081  ,2.790e+09   ,2.4  ,2.5  ,1.9724
2095  ,2.437e+09   ,2.4  ,2.5  ,0.78982
2138  ,1.574e+09   ,-2.4  ,-0.1  ,0
2146  ,4.128e+09   ,-0.92182  ,2.4  ,5
2174  ,3.916e+09   ,2.4  ,2.5  ,1.184
2190  ,3.020e+09   ,2.5  ,2.4  ,0.98691
2203  ,4.630e+09   ,2.5  ,-0.13345  ,4.9
2232  ,5.800e+09   ,2.3  ,0.1489  ,4.8
2242  ,2.119e+09   ,2.4  ,2.5  ,2.9578
2293  ,2.016e+09   ,-2.5  ,0.5  ,0.1
2311  ,5.973e+09   ,2.3  ,2.3  ,2.4299
2313  ,2.859e+09   ,2.5  ,2.4  ,0.78982
2329  ,2.329e+09   ,2.4  ,2.5  ,2.1695
2355  ,1.752e+09   ,-2.4  ,2.5  ,4.4
2380  ,1.502e+09   ,-2.5  ,-1.5  ,0.1
2383  ,1.964e+09   ,0.45782  ,2.5  ,4.9
2408  ,5.022e+09   ,2.3  ,-1.4961  ,4.8
2445  ,4.339e+09   ,2.5  ,-1.5131  ,4.9
2484  ,2.573e+08   ,-2.5  ,-2.4  ,1.6
2495  ,1.253e+09   ,-2.4  ,1.7  ,5
2508  ,1.421e+09   ,2.4  ,0.3  ,0
2514  ,3.915e+09   ,2.3  ,0.2278  ,0.2
2570  ,1.230e+09   ,-2.4  ,1.5  ,5
2580  ,4.299e+09   ,1.6404  ,2.5  ,4.9
2603  ,4.804e+09   ,-1.1189  ,2.5  ,4.9
2695  ,2.465e+09   ,2.3  ,2.3  ,0.94331
2705  ,4.970e+09   ,2.4  ,2.5  ,1.3811
2714  ,2.295e+09   ,2.5  ,0.45782  ,4.9
2734  ,6.633e+08   ,2.4  ,-0.9  ,0
2775  ,1.054e+09   ,2.5  ,-0.1  ,0.1
2779  ,1.171e+09   ,2.4  ,-0.1  ,0
2801  ,5.572e+09   ,1.4166  ,2.3  ,4.8
2814  ,3.180e+09   ,1.4433  ,2.5  ,4.9
2863  ,1.782e+09   ,-2.4  ,2.5  ,0.6
2884  ,2.112e+09   ,-2.4  ,2.5  ,0.8
2886  ,2.091e+09   ,-2.4  ,2.5  ,1.2
2967  ,1.238e+09   ,2.4  ,1.7  ,0
2973  ,1.315e+09   ,2.5  ,1.5  ,0.1
2987  ,1.173e+09   ,-0.3  ,2.5  ,0.1
3008  ,2.240e+09   ,-2.3  ,2.3  ,0.96667
3012  ,9.995e+08   ,-2.5  ,2.4  ,2.6
3021  ,1.059e+09   ,-2.5  ,2.4  ,2.8
3025  ,9.985e+08   ,-2.5  ,2.4  ,2.4
3030  ,8.765e+08   ,-2.4  ,2.5  ,2.4
3033  ,9.514e+08   ,-2.4  ,2.5  ,2.2
3047  ,2.016e+09   ,2.4  ,2.5  ,2.3665
3052  ,2.256e+09   ,2.5  ,2.4  ,2.5636
3061  ,1.989e+09   ,2.4  ,2.5  ,2.5636
3081  ,1.364e+09   ,-2.4  ,1.3  ,5
3088  ,1.331e+09   ,-1.9073  ,2.4  ,5
3099  ,1.281e+09   ,-2.4  ,1.9  ,5
3107  ,1.699e+09   ,-2.4  ,2.5  ,3.8
3139  ,2.839e+09   ,-1.5131  ,2.4  ,5
3145  ,3.008e+09   ,-1.5131  ,2.5  ,4.9
3148  ,2.268e+09   ,-1.7102  ,2.5  ,4.9
3168  ,1.725e+09   ,-2.4  ,1.5  ,0
3188  ,2.180e+09   ,-2.5  ,-2.4  ,1
3202  ,1.695e+09   ,0.26073  ,2.5  ,4.9
3212  ,3.960e+09   ,2.5  ,1.6404  ,4.9
3247  ,4.622e+09   ,2.5  ,1.8375  ,4.9
3265  ,5.220e+09   ,2.3  ,1.4326  ,4.8
3271  ,1.070e+10   ,2.2299  ,2.2299  ,4.8
3284  ,3.188e+09   ,2.4  ,1.4433  ,5
3291  ,3.080e+09   ,2.5  ,1.4433  ,4.9
3296  ,1.863e+09   ,-2.3  ,-0.76628  ,4.8
3303  ,5.914e+08   ,-2.4  ,-0.9  ,5
3311  ,3.922e+08   ,-2.4  ,-0.7  ,5
3315  ,1.687e+09   ,1.9  ,2.5  ,0.1
3336  ,1.685e+09   ,-2.4  ,0.3  ,0
3340  ,1.596e+09   ,-2.5  ,0.1  ,0.1
3344  ,1.697e+09   ,-2.4  ,0.1  ,0
3356  ,1.079e+09   ,-0.3  ,2.4  ,0
3361  ,2.520e+09   ,-0.33054  ,2.5  ,4.9
3364  ,1.949e+09   ,-0.13345  ,2.5  ,4.9
3383  ,2.347e+09   ,2.4  ,2.5  ,3.5491
3402  ,1.308e+10   ,2.4  ,2.5  ,4.5345
3421  ,3.729e+09   ,-1.316  ,2.5  ,4.9
3439  ,3.482e+09   ,2.5  ,2.4  ,3.9433
3447  ,3.461e+09   ,2.4  ,2.5  ,3.9433
3451  ,2.780e+09   ,2.4  ,2.5  ,3.7462
3468  ,3.348e+09   ,1.4433  ,2.4  ,5
3480  ,2.423e+09   ,1.0491  ,2.4  ,5
3519  ,1.459e+09   ,1.5  ,2.4  ,0
3527  ,6.994e+08   ,2.3  ,-1.4729  ,0.2
3550  ,1.946e+09   ,-1.7  ,2.4  ,0
3554  ,1.961e+09   ,-1.7  ,2.5  ,0.1
3558  ,2.082e+09   ,-1.5  ,2.4  ,0
3562  ,2.020e+09   ,-1.5  ,2.5  ,0.1
3574  ,9.630e+08   ,-2.4  ,2.1  ,5
3581  ,1.631e+09   ,-2.5  ,1.7  ,0.1
3583  ,1.415e+09   ,-2.5  ,1.9  ,0.1
3584  ,1.484e+09   ,-1.9073  ,2.5  ,4.9
3591  ,1.332e+09   ,2.5  ,0.3  ,0.1
3595  ,1.006e+09   ,2.5  ,0.1  ,0.1
3603  ,1.873e+10   ,2.4577  ,2.391  ,4.7576
3663  ,1.450e+09   ,-1.933  ,-2.5  ,0.2
3669  ,1.153e+09   ,-2.1765  ,-2.5  ,0.2
3672  ,1.347e+09   ,-2.3  ,-2.3379  ,0.2
3682  ,2.519e+09   ,-1.9  ,-2.4  ,0
3700  ,3.201e+09   ,2.3  ,-2.5  ,2.7424
3712  ,7.511e+08   ,-2.1  ,-2.5  ,4.9
3715  ,8.825e+08   ,-1.9  ,-2.5  ,4.9
3740  ,1.232e+09   ,-1.3  ,-2.4  ,5
3746  ,1.939e+09   ,-1.2085  ,-2.5  ,4.8
3755  ,1.375e+09   ,-1.5  ,-2.4  ,5
3760  ,9.067e+08   ,-1.7  ,-2.5  ,4.9
3786  ,4.034e+09   ,2.4  ,2.5  ,1.5782
3813  ,1.754e+09   ,0.26073  ,2.4  ,5
3858  ,1.251e+09   ,-0.9  ,-2.4  ,5
3863  ,1.544e+09   ,-2.5  ,0.9  ,4.9
3875  ,2.344e+09   ,-1.9  ,-2.4  ,5
3885  ,4.171e+09   ,2.4  ,-0.72473  ,5
3910  ,6.383e+08   ,-2.4  ,-2.5  ,3.4
3959  ,5.028e+09   ,2.5  ,2.4  ,4.1404
3969  ,2.645e+09   ,2.5  ,1.0491  ,4.9
3992  ,1.002e+10   ,2.391  ,2.2576  ,4.9577
3993  ,9.699e+09   ,2.4577  ,2.2576  ,4.891
4016  ,5.124e+08   ,-2.3015  ,2.5  ,4.9
4018  ,8.067e+08   ,-2.4  ,2.5  ,4.8
4021  ,2.600e+09   ,1.2462  ,2.4  ,5
4042  ,8.372e+08   ,2.4  ,-1.1  ,0
4046  ,1.958e+09   ,-0.9  ,2.4  ,0
4055  ,2.049e+09   ,1.7  ,-2.5  ,4.9
4087  ,1.636e+09   ,1.7  ,2.4  ,0
4114  ,3.930e+09   ,2.5  ,-0.33054  ,4.9
4120  ,2.509e+08   ,2.4  ,-2.5  ,1.8
4125  ,2.595e+09   ,2.4  ,2.5  ,0.98691
4144  ,8.464e+09   ,2.4  ,2.5  ,4.3375
4161  ,1.306e+09   ,-2.4  ,0.3  ,5
4201  ,1.271e+09   ,1.933  ,-2.5  ,0.2
4225  ,4.005e+08   ,-2.3  ,-2.4  ,0
4230  ,1.621e+09   ,-2.3  ,-2.5  ,0.56701
4269  ,4.578e+08   ,-0.9  ,-2.5  ,4.9
4277  ,1.152e+09   ,-1.1  ,-2.4  ,5
4288  ,4.441e+09   ,-0.070055  ,2.3  ,4.8
4328  ,1.735e+09   ,-2.5  ,-2.4  ,4.2
4336  ,1.529e+09   ,-2.5  ,-2.4  ,4.4
4342  ,2.361e+09   ,-2.5  ,-2.4  ,4.6
4348  ,3.107e+09   ,-2.4  ,-2.4707  ,4.9707
4352  ,1.626e+09   ,-2.3  ,-2.5  ,4.9
4354  ,3.895e+09   ,-2.1765  ,-2.5  ,4.8
4355  ,2.071e+09   ,-2.3  ,-2.3379  ,4.8
4362  ,1.549e+09   ,2.5  ,2.4  ,0.59273
4364  ,2.833e+09   ,2.5  ,-2.4  ,2.4
4366  ,2.166e+09   ,2.5  ,-2.4  ,2.2
4372  ,4.175e+08   ,2.4  ,-2.5  ,2.2
4385  ,1.055e+09   ,-2.5  ,-1.9  ,0.1
4399  ,1.111e+09   ,-2.5  ,2.1  ,0.1
4407  ,1.204e+09   ,-0.7  ,-2.4  ,0
4436  ,1.742e+09   ,-2.5  ,-0.1  ,0.1
4462  ,2.084e+09   ,-2.3  ,2.3  ,4.0333
4491  ,3.603e+09   ,2.5  ,-0.52764  ,4.9
4494  ,1.519e+09   ,2.5  ,-2.4  ,1.4
4503  ,5.647e+08   ,2.4  ,-2.5  ,1.4
4508  ,6.249e+08   ,2.4  ,-2.5  ,1.2
4515  ,1.634e+09   ,2.5  ,-2.4  ,1.8
4517  ,3.503e+08   ,2.4  ,-2.5  ,1.6
4522  ,4.130e+09   ,0.7  ,-2.4  ,0
4538  ,4.072e+09   ,-1.1189  ,2.4  ,5
4546  ,4.099e+09   ,2.4  ,2.5  ,4.1404
4559  ,1.442e+09   ,1.7  ,-2.4  ,0
4590  ,4.011e+09   ,0.5  ,-2.4  ,0
4631  ,5.427e+08   ,2.4  ,-2.5  ,2.6
4634  ,3.817e+09   ,2.5  ,-2.4  ,2.8
4657  ,1.919e+09   ,-2.5  ,-2.4  ,2
4660  ,9.398e+08   ,-2.5  ,-2.4  ,1.8
4664  ,2.858e+09   ,-0.3  ,-2.4  ,0
4675  ,1.501e+09   ,-2.4  ,-2.5  ,4.8
4681  ,1.657e+09   ,-2.5  ,-0.3  ,0.1
4684  ,1.676e+09   ,1.7  ,-2.4  ,5
4703  ,1.846e+09   ,-2.4  ,0.7  ,5
4707  ,1.630e+09   ,-2.5  ,0.3  ,4.9
4714  ,3.559e+09   ,2.4  ,-0.33054  ,5
4723  ,3.768e+09   ,-1.5567  ,2.3  ,4.8
4739  ,8.891e+08   ,-2.1044  ,2.5  ,4.9
4763  ,1.877e+09   ,-1.9  ,2.4  ,0
4780  ,5.043e+08   ,-2.3  ,-1.9695  ,0.2
4782  ,3.579e+08   ,-2.4707  ,-2.4  ,0.029289
4784  ,1.030e+09   ,-2.4  ,-1.9  ,0
4791  ,9.115e+08   ,-2.4  ,-2.5  ,1.8
4796  ,5.252e+09   ,2.4707  ,-2.4707  ,4.9
4799  ,6.845e+09   ,2.5  ,-2.4  ,4.8
4806  ,3.532e+09   ,2.3  ,-2.5  ,4.9
4809  ,5.653e+09   ,2.3  ,2.3  ,3.9166
4833  ,1.573e+09   ,-2.4  ,2.5  ,0.4
4841  ,9.608e+08   ,-2.4  ,2.5  ,2.6
4846  ,1.014e+09   ,-2.5  ,2.1  ,4.9
4848  ,6.224e+08   ,-2.5  ,2.3  ,4.9
4849  ,7.670e+08   ,-2.5  ,2.4  ,4.8
4893  ,1.811e+09   ,-2.4  ,2.5  ,4.2
4897  ,5.035e+09   ,2.3333  ,2.1998  ,5
4900  ,1.731e+10   ,2.391  ,2.4577  ,4.7576
4908  ,1.849e+10   ,2.2576  ,2.391  ,4.9577
4911  ,1.778e+10   ,2.2576  ,2.4577  ,4.891
4926  ,2.186e+09   ,-2.5  ,2.4  ,1
4932  ,1.874e+09   ,-2.4  ,2.5  ,1.6
4937  ,2.118e+09   ,-1.1  ,2.5  ,0.1
4939  ,1.035e+10   ,2.3  ,2.2299  ,4.7299
4944  ,5.039e+09   ,2.5  ,-1.9073  ,4.9
4987  ,2.243e+09   ,-2.3  ,1.5527  ,4.8
5010  ,4.582e+09   ,2.4973  ,2.1331  ,4.923
5013  ,4.821e+09   ,2.5  ,2.0345  ,4.9
5017  ,4.894e+09   ,2.4  ,2.0345  ,5
5035  ,3.432e+09   ,1.3  ,-2.4  ,0
5038  ,2.850e+09   ,1.2085  ,-2.5  ,0.2
5092  ,3.630e+08   ,-2.4  ,-2.5  ,1.2
5123  ,2.368e+09   ,2.5  ,-2.4  ,0.6
5151  ,1.703e+09   ,-2.5  ,-0.5  ,0.1
5160  ,1.612e+09   ,-2.5  ,-0.7  ,0.1
5164  ,1.905e+09   ,-2.4  ,0.9  ,5
5168  ,1.317e+09   ,-2.4  ,0.5  ,5
5176  ,3.599e+08   ,2.5  ,-0.7  ,0.1
5179  ,5.943e+08   ,2.4  ,-0.5  ,0
5189  ,8.264e+08   ,2.4  ,-2.5  ,2.4
5194  ,2.628e+09   ,2.3  ,-2.5  ,2.2576
5198  ,1.815e+09   ,-2.3  ,-2.5  ,0.32348
5205  ,1.245e+09   ,-2.4  ,-2.5  ,0.2
5207  ,1.633e+09   ,-2.1  ,-2.5  ,0.1
5246  ,2.207e+09   ,-2.5  ,2.4  ,3.2
5257  ,1.157e+09   ,-2.5  ,1.5  ,4.9
5263  ,1.599e+09   ,-2.3  ,0.2278  ,0.2
5272  ,1.586e+09   ,-2.5  ,0.3  ,0.1
5275  ,1.755e+09   ,-2.5  ,0.5  ,4.9
5281  ,6.000e+09   ,1.8375  ,2.5  ,4.9
5297  ,2.016e+09   ,-0.9  ,2.5  ,0.1
5306  ,1.038e+09   ,-0.7  ,2.4  ,0
5309  ,1.119e+09   ,-0.5  ,2.5  ,0.1
5324  ,1.823e+09   ,2.4  ,2.5  ,2.7607
5332  ,1.584e+09   ,2.5  ,-2.4  ,0.8
5334  ,6.501e+08   ,2.4  ,-2.5  ,1
5360  ,4.507e+09   ,2.4  ,-1.7102  ,5
5362  ,4.636e+09   ,2.4  ,-1.5131  ,5
5368  ,4.627e+09   ,2.4  ,1.8375  ,5
5371  ,3.840e+10   ,2.4325  ,2.4888  ,4.6656
5372  ,2.165e+10   ,2.3333  ,2.5  ,4.6998
5376  ,2.123e+10   ,2.4707  ,2.4707  ,4.6331
5377  ,1.187e+10   ,2.5  ,2.4  ,4.5345
5379  ,6.123e+08   ,-1.5  ,-2.5  ,4.9
5406  ,4.164e+09   ,-2.5  ,-2.4  ,3.4
5420  ,3.032e+09   ,-2.3  ,-2.5  ,3.2226
5423  ,2.484e+09   ,1.5  ,-2.4  ,0
5502  ,5.302e+08   ,-2.5  ,-2.3  ,0.1
5504  ,9.666e+08   ,-2.5  ,-2.4  ,0.2
5506  ,2.630e+08   ,-2.4  ,-2.3  ,0
5511  ,6.278e+08   ,-2.5  ,-2.1  ,0.1
5513  ,1.617e+09   ,-2.4  ,0.5  ,0
5517  ,7.602e+08   ,-0.9  ,-2.5  ,0.1
5532  ,3.010e+08   ,-2.4707  ,2.4707  ,4.9
5534  ,5.441e+08   ,2.4  ,-0.7  ,0
5551  ,2.440e+09   ,2.5  ,-2.4  ,3.8
5566  ,3.508e+09   ,2.5  ,2.4  ,1.3811
5603  ,9.529e+08   ,2.4  ,-0.3  ,0
5617  ,1.652e+09   ,-2.1  ,2.5  ,0.1
5637  ,7.724e+08   ,-2.3  ,-1.9695  ,4.8
5641  ,1.034e+09   ,2.3  ,-2.5  ,3.4636
5645  ,1.192e+09   ,-2.4  ,-2.5  ,2
5649  ,8.565e+08   ,-2.4  ,-2.5  ,2.2
5659  ,4.985e+08   ,-2.3  ,-2.5  ,1.7774
5662  ,9.204e+09   ,2.1765  ,-2.5  ,4.8
5666  ,3.471e+09   ,2.4  ,-2.5  ,4.8
5669  ,4.948e+09   ,2.3  ,-2.3412  ,4.8
5695  ,1.692e+09   ,-2.4  ,0.7  ,0
5701  ,1.893e+09   ,-2.5  ,2.4  ,1.6
5715  ,1.355e+09   ,-2.4  ,2.5  ,1.8
5726  ,1.380e+09   ,-0.7  ,2.5  ,0.1
5727  ,2.312e+09   ,-1.1  ,2.4  ,0
5730  ,1.944e+09   ,2.3  ,-2.5  ,1.7774
5746  ,3.400e+09   ,2.5  ,2.4  ,1.7753
5755  ,3.956e+09   ,2.5  ,-2.4  ,4.4
5763  ,1.776e+09   ,2.4  ,-2.5  ,4.4
5773  ,2.354e+09   ,1.0491  ,2.5  ,4.9
5791  ,3.339e+09   ,-0.72473  ,2.4  ,5
5795  ,6.817e+09   ,1.8375  ,2.4  ,5
5803  ,2.335e+09   ,-0.3  ,-2.4  ,5
5810  ,3.842e+09   ,2.4  ,1.6404  ,5
5836  ,1.184e+09   ,-2.5  ,1.3  ,4.9
5860  ,1.508e+09   ,2.5  ,-2.4  ,1.6
5866  ,1.387e+09   ,1.5  ,-2.5  ,0.1
5884  ,1.128e+09   ,-2.4  ,-0.3  ,5
5888  ,6.990e+08   ,-2.5  ,-0.5  ,4.9
5901  ,3.047e+09   ,2.3  ,-2.5  ,2.5
5908  ,1.443e+09   ,2.5  ,-2.4  ,1.2
5909  ,1.760e+09   ,2.5  ,-2.4  ,2
5934  ,1.931e+09   ,1.9  ,-2.5  ,4.9
5938  ,6.383e+09   ,1.933  ,-2.5  ,4.8
5948  ,1.954e+09   ,-2.4  ,-2.5  ,4.6
5950  ,2.280e+09   ,-2.4707  ,-2.4707  ,4.9
5951  ,2.535e+09   ,-2.5  ,-2.4  ,4.8
5952  ,1.693e+09   ,-2.5  ,-2.3  ,4.9
5986  ,3.507e+08   ,2.3  ,-2.5  ,3.7085
5990  ,4.285e+09   ,-0.92182  ,2.5  ,4.9
6019  ,1.068e+09   ,2.5  ,1.9  ,0.1
6025  ,8.441e+08   ,2.4  ,-1.3  ,0
6035  ,1.230e+09   ,-2.5  ,1.9  ,4.9
6044  ,5.416e+08   ,0.1  ,2.5  ,0.1
6054  ,1.256e+09   ,2.4  ,0.1  ,0
6070  ,6.745e+08   ,-2.4  ,2.3  ,0
6071  ,1.035e+09   ,-2.3  ,2.4  ,0
6076  ,1.174e+09   ,-2.4  ,2.1  ,0
6083  ,2.765e+09   ,2.1  ,-2.4  ,0
6084  ,8.019e+08   ,2.4  ,2.3  ,0
6087  ,8.352e+08   ,2.3  ,2.4  ,0
6092  ,1.862e+09   ,-2.4  ,-2.5  ,0.4
6096  ,8.096e+08   ,-2.3  ,-2.5  ,0.1
6099  ,7.628e+08   ,0.7  ,-2.5  ,0.1
6149  ,1.714e+09   ,-2.4  ,-0.9  ,0
6159  ,3.747e+09   ,-2.5  ,-2.4  ,2.6
6183  ,2.458e+09   ,1.2462  ,2.5  ,4.9
6224  ,1.309e+09   ,2.5  ,-2.4  ,4
6228  ,1.652e+09   ,2.4  ,-2.5  ,3.8
6237  ,2.151e+09   ,2.5  ,0.7  ,0.1
6241  ,9.169e+09   ,2.5  ,2.3333  ,4.6998
6245  ,3.365e+09   ,2.5  ,2.4  ,1.5782
6259  ,5.126e+09   ,2.5  ,-2.1044  ,4.9
6265  ,4.135e+09   ,2.3  ,-1.9804  ,4.8
6267  ,5.058e+09   ,2.5  ,-2.3015  ,4.9
6268  ,4.625e+09   ,2.4707  ,-2.4  ,4.9707
6270  ,5.198e+09   ,2.4  ,-2.1044  ,5
6317  ,2.875e+09   ,-2.3  ,0.2278  ,4.8
6349  ,3.372e+09   ,-0.52764  ,2.4  ,5
6391  ,3.434e+09   ,2.4  ,2.5  ,1.7753
6440  ,1.577e+09   ,-2.5  ,2.4  ,3.8
6471  ,4.133e+09   ,2.5  ,-0.92182  ,4.9
6489  ,2.871e+09   ,2.5  ,1.2462  ,4.9
6523  ,7.390e+08   ,-1.1  ,-2.4  ,0
6528  ,3.619e+08   ,-1.1  ,-2.5  ,0.1
6535  ,4.397e+08   ,-0.9  ,-2.4  ,0
6538  ,1.301e+09   ,1.5  ,-2.4  ,5
6541  ,2.119e+09   ,1.5  ,-2.5  ,4.9
6551  ,3.920e+09   ,2.5  ,-0.72473  ,4.9
6564  ,4.135e+10   ,2.1331  ,2.4973  ,4.923
6565  ,1.338e+10   ,2.0345  ,2.5  ,4.9
6572  ,8.505e+08   ,2.4  ,-1.7  ,0
6581  ,2.861e+09   ,0  ,2.3  ,0.2
6592  ,9.208e+08   ,2.3  ,-1.9695  ,0.2
6594  ,8.935e+08   ,0.3  ,2.4  ,0
6601  ,1.532e+09   ,0.5  ,2.5  ,0.1
6605  ,1.631e+09   ,-2.4  ,-1.3  ,0
6606  ,1.635e+09   ,-2.4  ,-1.1  ,0
6615  ,1.815e+09   ,-2.4  ,-0.3  ,0
6634  ,2.480e+09   ,2.1  ,-2.5  ,4.9
6635  ,5.257e+09   ,2.4  ,-2.4707  ,4.9707
6636  ,6.744e+09   ,2.3  ,-2.4  ,5
6647  ,6.435e+08   ,0.5  ,-2.5  ,0.1
6704  ,5.745e+08   ,-2.4707  ,2.4707  ,0.1
6708  ,9.803e+08   ,-2.5  ,2.4  ,0.2
6712  ,1.913e+09   ,-2.4  ,2.5  ,3.6
6715  ,2.397e+09   ,-2.4  ,2.5  ,3.4
6728  ,1.769e+09   ,-2.5  ,0.7  ,4.9
6753  ,8.902e+08   ,-2.1044  ,2.4  ,5
6788  ,7.731e+09   ,2.5  ,2.4  ,4.3375
6791  ,2.967e+09   ,-1.933  ,-2.5  ,4.8
6795  ,2.168e+10   ,2.1998  ,2.5  ,4.8333
6837  ,1.655e+09   ,-2.3  ,-2.5  ,0.8063
6869  ,4.738e+09   ,2.5  ,-1.7102  ,4.9
6873  ,5.477e+09   ,2.4  ,-1.9073  ,5
6880  ,4.287e+09   ,2.4  ,-0.92182  ,5
6885  ,3.739e+09   ,2.4  ,-0.52764  ,5
6893  ,2.802e+09   ,2.4  ,1.2462  ,5
6914  ,2.508e+09   ,0.7  ,2.5  ,0.1
6920  ,2.117e+09   ,0.9  ,2.4  ,0
6923  ,2.280e+09   ,0.7  ,2.4  ,0
6936  ,8.547e+08   ,2.4  ,-2.5  ,3.4
6939  ,1.720e+09   ,2.3  ,-2.5  ,3.2226
6961  ,7.111e+08   ,-0.1  ,-2.5  ,4.9
6967  ,1.226e+09   ,-2.5  ,-1.5  ,4.9
6975  ,1.594e+09   ,-2.4  ,1.1  ,5
6978  ,1.156e+09   ,-2.4  ,2.5  ,0.2
6987  ,4.477e+09   ,2.4  ,-1.316  ,5
6994  ,9.003e+08   ,2.4  ,-1.5  ,0
7004  ,1.323e+09   ,2.4  ,-2.5  ,3.6
7011  ,2.387e+09   ,2.4  ,0.65491  ,5
7016  ,2.148e+09   ,2.4  ,0.45782  ,5
7019  ,2.751e+09   ,2.5  ,2.4  ,2.1695
7021  ,2.941e+09   ,2.5  ,2.4  ,1.9724
7052  ,1.999e+09   ,-1.3  ,2.5  ,0.1
7054  ,8.339e+08   ,-2.4  ,-2.5  ,0.8
7057  ,6.793e+08   ,0.3  ,-2.5  ,0.1
7065  ,3.020e+09   ,0.24243  ,-2.5  ,0.2
7075  ,3.119e+10   ,2.4888  ,2.4325  ,4.6656
7113  ,7.667e+08   ,-2.4  ,-2.5  ,2.6
7121  ,9.606e+08   ,-2.4  ,-2.5  ,2.8
7126  ,4.049e+09   ,-2.5  ,-2.4  ,2.8
7128  ,3.291e+08   ,-2.4707  ,-2.4707  ,0.1
7129  ,1.646e+08   ,-2.4  ,-2.4707  ,0.029289
7141  ,1.831e+09   ,-1.7  ,-2.4  ,5
7145  ,1.637e+09   ,1.1  ,2.4  ,0
7163  ,1.803e+09   ,-1.7102  ,2.4  ,5
7172  ,3.354e+09   ,2.5  ,-2.4  ,3.2
7174  ,1.656e+09   ,-2.5  ,2.4  ,3.6
7183  ,1.833e+09   ,-1.4531  ,-2.5  ,4.8
7204  ,8.524e+09   ,2.3  ,-0.81068  ,4.8
7220  ,3.278e+09   ,2.5  ,0.063638  ,4.9
7227  ,1.541e+09   ,2.5  ,-1.9  ,0.1
7256  ,2.931e+09   ,-0.1  ,-2.4  ,5
7280  ,2.834e+09   ,-0.33054  ,2.4  ,5
7299  ,4.373e+09   ,2.5  ,-1.1189  ,4.9
7316  ,2.686e+09   ,-2.5  ,-2.4  ,0.8
7323  ,4.295e+08   ,-2.4  ,-2.5  ,1
7396  ,2.877e+09   ,1.1  ,-2.4  ,5
7400  ,1.736e+09   ,-2.5  ,0.7  ,0.1
7409  ,2.432e+09   ,1.3  ,-2.4  ,5
7420  ,1.062e+09   ,2.5  ,2.1  ,0.1
7429  ,1.463e+09   ,2.4  ,1.9  ,0
7436  ,1.209e+09   ,2.5  ,-1.7  ,0.1
7438  ,5.343e+08   ,2.4  ,-2.5  ,2.8
7445  ,1.049e+10   ,2.4325  ,2.1656  ,4.9888
7464  ,7.339e+08   ,2.5  ,-1.5  ,0.1
7480  ,2.860e+09   ,2.5  ,-2.4  ,0.2
7482  ,1.505e+09   ,1.9  ,-2.5  ,0.1
7483  ,1.295e+09   ,1.7  ,-2.5  ,0.1
7486  ,4.004e+09   ,1.9  ,-2.4  ,5
7488  ,3.991e+09   ,1.6937  ,-2.5  ,4.8
7492  ,7.839e+09   ,2.1  ,-2.4  ,5
7495  ,7.754e+08   ,0.1  ,-2.5  ,0.1
7504  ,4.114e+09   ,0.3  ,-2.4  ,0
7507  ,6.977e+08   ,0.9  ,-2.5  ,0.1
7533  ,1.763e+09   ,-2.5  ,0.9  ,0.1
7536  ,5.431e+08   ,-2.4  ,-2.5  ,3.2
7540  ,8.501e+08   ,-2.4  ,-2.5  ,3
7545  ,4.131e+09   ,-2.5  ,-2.4  ,3
7582  ,1.721e+09   ,1.3  ,2.5  ,0.1
7588  ,2.713e+09   ,2.5  ,2.4  ,2.3665
7598  ,1.700e+09   ,-2.5  ,2.4  ,4.2
7607  ,2.200e+09   ,1.5333  ,2.3  ,0.2
7627  ,1.262e+09   ,-2.5  ,1.1  ,4.9
7651  ,1.287e+09   ,2.4  ,-1.9  ,0
7656  ,1.015e+09   ,2.5  ,2.4  ,0.39564
7660  ,1.009e+10   ,2.2299  ,2.3  ,4.7299
7668  ,1.230e+09   ,1.4531  ,-2.5  ,4.8
7676  ,5.226e+08   ,0.1  ,-2.5  ,4.9
7683  ,3.553e+09   ,0.1  ,-2.4  ,5
7686  ,8.109e+08   ,-2.4  ,-1.1  ,5
7702  ,1.453e+09   ,-2.3  ,-2.5  ,4.433
7710  ,3.377e+09   ,-2.3  ,-2.5  ,4.6765
7752  ,3.253e+09   ,0.9  ,-2.4  ,5
7763  ,2.685e+09   ,0.24243  ,-2.5  ,4.8
7767  ,3.990e+09   ,-2.5  ,-2.4  ,3.2
7768  ,4.633e+08   ,-2.4  ,-2.1  ,0
7776  ,1.914e+09   ,-2.4  ,0.9  ,0
7786  ,2.113e+09   ,-0.4838  ,-2.5  ,4.8
7800  ,7.785e+09   ,2.5  ,-2.4  ,4.6
7805  ,9.540e+08   ,-2.5  ,-1.3  ,4.9
7811  ,8.898e+08   ,-2.5  ,-1.1  ,4.9
7820  ,1.867e+09   ,2.5  ,-2.1  ,0.1
7824  ,1.439e+09   ,2.4  ,-2.1  ,0
7828  ,2.039e+09   ,2.4  ,-2.5  ,4.2
7831  ,2.056e+09   ,2.4  ,-2.5  ,4
7838  ,1.663e+09   ,2.5  ,-2.4  ,4.2
7839  ,2.036e+09   ,2.5  ,2.4  ,2.7607
7840  ,2.169e+09   ,2.5  ,2.4  ,2.9578
7863  ,1.627e+09   ,-2.4  ,-1.5  ,0
7890  ,1.840e+09   ,2.4  ,0.9  ,0
7897  ,1.638e+09   ,-2.4  ,-0.7  ,0
7912  ,2.231e+09   ,-1.5  ,-2.4  ,0
7917  ,2.714e+08   ,-1.3  ,-2.5  ,0.1
7931  ,1.366e+09   ,0.5  ,2.4  ,0
7934  ,4.154e+09   ,1.1  ,-2.4  ,0
7937  ,8.760e+08   ,2.4  ,-2.5  ,0.8
7941  ,1.284e+09   ,-2.4  ,-2.5  ,0.6
7969  ,6.635e+08   ,-2.5  ,2.3  ,0.1
7971  ,1.416e+09   ,-2.4  ,1.9  ,0
7972  ,1.896e+09   ,-1.9  ,2.5  ,0.1
7978  ,1.937e+09   ,-2.4  ,1.1  ,0
7996  ,5.934e+08   ,-2.4  ,-0.5  ,5
8000  ,2.788e+09   ,-2.5  ,-2.4  ,0.6
8003  ,2.383e+09   ,-2.5  ,-2.4  ,0.4
8025  ,2.584e+09   ,0.9  ,2.5  ,0.1
8035  ,8.700e+08   ,0.3  ,2.5  ,0.1
8039  ,3.663e+09   ,2.3  ,-2.5  ,0.32348
8041  ,2.084e+09   ,2.3  ,-2.3379  ,0.2
8043  ,3.404e+09   ,2.1765  ,-2.5  ,0.2
8045  ,7.256e+08   ,-0.96359  ,-2.5  ,0.2
8054  ,1.336e+09   ,1.3  ,2.4  ,0
8058  ,2.099e+09   ,1.1  ,2.5  ,0.1
8062  ,2.415e+09   ,-2.5  ,2.4  ,1.4
8067  ,2.013e+09   ,-2.5  ,2.4  ,0.8
8087  ,1.740e+09   ,-2.5  ,1.5  ,0.1
8132  ,2.581e+09   ,-0.13345  ,2.4  ,5
8183  ,5.498e+08   ,2.5  ,-0.9  ,0.1
8184  ,1.033e+09   ,1.6937  ,-2.5  ,0.2
8214  ,1.925e+09   ,-2.4707  ,-2.4  ,4.9707
8217  ,3.282e+09   ,-2.1  ,-2.4  ,5
8219  ,1.812e+09   ,-2.4  ,-2.5  ,4.4
8227  ,2.247e+09   ,2.5  ,2.4  ,3.1549
8242  ,1.160e+09   ,0.7  ,-2.5  ,4.9
8248  ,2.910e+09   ,2.5  ,-2.4  ,3.6
8254  ,7.759e+08   ,2.5  ,-0.3  ,0.1
8256  ,3.240e+08   ,2.5  ,-0.5  ,0.1
8258  ,3.562e+08   ,-0.3  ,-2.5  ,4.9
8263  ,3.571e+08   ,-0.5  ,-2.5  ,4.9
8268  ,2.723e+09   ,-2.3  ,-2.5  ,3.7085
8277  ,7.963e+08   ,-0.1  ,-2.5  ,0.1
8285  ,1.354e+09   ,1.1  ,-2.5  ,4.9
8307  ,6.370e+08   ,0.1  ,2.4  ,0
8308  ,1.450e+09   ,-0.1  ,2.5  ,0.1
8309  ,8.140e+08   ,-0.1  ,2.4  ,0
8313  ,1.922e+09   ,2.5  ,-2.3  ,0.1
8318  ,3.711e+09   ,2.5  ,-2.4  ,3
8338  ,2.313e+09   ,2.5  ,2.4  ,3.352
8339  ,2.323e+09   ,2.4  ,2.5  ,3.1549
8344  ,2.099e+09   ,-2.5  ,2.4  ,3.4
8357  ,1.012e+10   ,2.4888  ,2.1656  ,4.9325
8358  ,4.864e+09   ,2.5  ,2.1998  ,4.8333
8383  ,2.492e+09   ,-1.7  ,-2.4  ,0
8396  ,1.161e+09   ,1.1  ,-2.5  ,0.1
8399  ,3.825e+09   ,2.4526  ,2.1331  ,4.9851
8405  ,1.395e+09   ,2.5  ,-2.4  ,1
8412  ,1.766e+09   ,2.3  ,-2.5  ,0.8063
8417  ,2.755e+09   ,-2.3  ,-2.5  ,2.5
8434  ,9.555e+08   ,0.9636  ,-2.5  ,4.8
8438  ,8.310e+08   ,-0.3  ,-2.5  ,0.1
8452  ,1.428e+09   ,-2.4  ,-0.1  ,5
8468  ,3.062e+09   ,2.5  ,2.4  ,3.7462
8471  ,7.056e+08   ,-1.3  ,-2.5  ,4.9
8493  ,7.236e+08   ,-1.1  ,-2.5  ,4.9
8509  ,1.267e+09   ,-2.5  ,-1.7  ,0.1
8517  ,1.494e+09   ,-2.4  ,2.5  ,3
8531  ,1.525e+09   ,-2.4  ,1.7  ,0
8556  ,2.635e+09   ,2.5  ,2.4  ,3.5491
8573  ,3.410e+09   ,-1.316  ,2.4  ,5
8576  ,1.914e+09   ,-2.4  ,1.3  ,0
8611  ,1.888e+09   ,2.3  ,-2.5  ,1.2915
8618  ,1.782e+09   ,-2.4  ,2.5  ,4
8646  ,2.013e+09   ,-2.5  ,1.1  ,0.1
8656  ,9.321e+08   ,2.5  ,-1.3  ,0.1
8657  ,1.323e+09   ,2.4  ,2.1  ,0
8673  ,2.186e+09   ,-1.3  ,2.4  ,0
8692  ,1.925e+09   ,0.72263  ,-2.5  ,4.8
8696  ,1.717e+09   ,2.3  ,-2.5  ,1.0469
8706  ,2.472e+09   ,2.5  ,0.65491  ,4.9
8721  ,4.946e+08   ,-2.4  ,-2.5  ,1.6
8725  ,2.248e+09   ,0.65491  ,2.4  ,5
8739  ,2.987e+10   ,2.1656  ,2.4325  ,4.9888
8741  ,9.915e+09   ,2.1998  ,2.3333  ,5
8746  ,1.808e+09   ,-2.1  ,-2.4  ,0
8748  ,1.365e+09   ,-2.5  ,-2.4  ,1.2
8752  ,3.403e+10   ,2.1331  ,2.4526  ,4.9851
8759  ,1.467e+09   ,-2.3  ,-2.5  ,1.0469
8787  ,3.530e+09   ,-0.1  ,-2.4  ,0
8793  ,2.132e+09   ,-2.3  ,-2.5  ,2.2576
8795  ,9.390e+08   ,-2.4  ,-2.5  ,2.4
8798  ,1.071e+09   ,-2.3  ,-2.5  ,4.1937
8808  ,1.809e+09   ,-2.3  ,-2.5  ,3.9531
8814  ,1.210e+09   ,-2.4  ,-1.5  ,5
8849  ,2.674e+09   ,0.4838  ,-2.5  ,4.8
8851  ,1.432e+09   ,-2.4  ,-2.5  ,4.2
8868  ,6.004e+08   ,2.4  ,-2.5  ,3
8874  ,2.320e+09   ,0.852  ,2.4  ,5
8883  ,1.849e+09   ,-0.5  ,-2.4  ,5
8886  ,1.966e+09   ,-0.72262  ,-2.5  ,4.8
8893  ,2.646e+08   ,-0.7  ,-2.5  ,4.9
8897  ,3.892e+09   ,-2.5  ,-2.4  ,3.6
8899  ,3.089e+09   ,-2.3  ,-2.5  ,3.4636
8900  ,8.442e+08   ,-2.3  ,-1.4729  ,0.2
8906  ,1.689e+09   ,-2.5  ,-1.3  ,0.1
8910  ,2.357e+09   ,0.852  ,2.5  ,4.9
8925  ,1.998e+09   ,-2.4  ,2.5  ,1.4
8941  ,3.396e+08   ,2.4707  ,2.4  ,0.029289
8942  ,6.491e+08   ,2.5  ,2.3  ,0.1
8945  ,1.540e+09   ,-2.5  ,0.1  ,4.9
8950  ,2.810e+08   ,2.4707  ,2.4707  ,0.1
8951  ,3.162e+08   ,2.4  ,2.4707  ,0.029289
8959  ,2.199e+09   ,2.4  ,0.26073  ,5
8965  ,1.985e+09   ,0.45782  ,2.4  ,5
8978  ,2.072e+09   ,2.4  ,0.852  ,5
8983  ,7.566e+08   ,2.5  ,-1.1  ,0.1
8991  ,1.861e+09   ,-2.5  ,2.4  ,0.6
9008  ,2.266e+09   ,2.5  ,0.852  ,4.9
9011  ,1.682e+09   ,-2.4  ,-0.5  ,0
9025  ,6.316e+08   ,-1.5  ,-2.5  ,0.1
9038  ,3.551e+08   ,2.4  ,-2.5  ,2
9041  ,2.227e+09   ,2.5  ,0.9  ,0.1
9050  ,1.612e+09   ,2.5  ,0.5  ,0.1
9054  ,4.214e+09   ,0.9  ,-2.4  ,0
9060  ,1.176e+09   ,2.4  ,-2.5  ,0.4
9062  ,2.524e+09   ,2.3  ,-2.5  ,0.56701
9064  ,3.025e+09   ,2.5  ,-2.4  ,0.4
9069  ,7.394e+08   ,2.4  ,-2.5  ,0.6
9071  ,1.945e+09   ,1.4531  ,-2.5  ,0.2
9082  ,9.647e+08   ,-2.3  ,-2.5  ,1.2915
9086  ,2.944e+08   ,-2.4  ,-2.5  ,1.4
9091  ,5.141e+08   ,-2.5  ,-2.4  ,1.4
9094  ,1.413e+09   ,1.3  ,-2.5  ,4.9
9097  ,9.340e+08   ,-0.7  ,-2.5  ,0.1
9137  ,6.394e+08   ,-2.5  ,-0.7  ,4.9
9143  ,1.438e+09   ,-2.5  ,-0.1  ,4.9
9146  ,1.681e+09   ,-2.1  ,2.4  ,0
9148  ,1.221e+09   ,-2.5  ,1.7  ,4.9
9173  ,1.426e+09   ,-2.5  ,2.4  ,3
9192  ,1.643e+09   ,-0.7  ,-2.4  ,5
9195  ,2.880e+09   ,0.72263  ,-2.5  ,0.2
9209  ,3.047e+09   ,2.5  ,-2.4  ,3.4
9215  ,3.131e+09   ,0.9636  ,-2.5  ,0.2
9217  ,7.577e+08   ,2.4  ,-2.5  ,3.2
9218  ,1.810e+09   ,-0.96359  ,-2.5  ,4.8
9229  ,1.144e+09   ,-2.4  ,2.5  ,2.8
9248  ,6.107e+09   ,2.3  ,-2.5  ,4.433
9255  ,1.584e+09   ,2.5  ,1.3  ,0.1
9257  ,1.186e+09   ,2.4  ,1.5  ,0
9262  ,4.032e+09   ,0.5  ,-2.4  ,5
9264  ,2.869e+09   ,2.4  ,-0.13345  ,5
9272  ,1.795e+09   ,0.063638  ,2.4  ,5
9277  ,2.251e+09   ,-2.5  ,2.4  ,1.2
9279  ,2.618e+09   ,2.5  ,0.26073  ,4.9
9282  ,4.661e+08   ,1.2085  ,-2.5  ,4.8
9286  ,1.157e+09   ,0.9  ,-2.5  ,4.9
9292  ,3.198e+08   ,-2.4  ,2.4707  ,4.9707
9293  ,3.682e+08   ,-2.3015  ,2.4  ,5
9296  ,1.756e+09   ,-2.4  ,-2.1  ,5
9303  ,1.535e+09   ,-2.4  ,-1.9  ,5
9311  ,5.006e+08   ,-2.4  ,2.3  ,5
9313  ,1.463e+09   ,-2.4  ,0.1  ,5
9319  ,2.045e+09   ,-0.5  ,-2.4  ,0
9328  ,5.617e+08   ,-2.3  ,-2.5  ,1.5364
9334  ,1.229e+09   ,-2.3  ,2.5  ,0.1
9338  ,3.404e+09   ,-2.5  ,-2.4  ,2.4
9339  ,1.839e+09   ,-2.5  ,1.3  ,0.1
9341  ,3.119e+09   ,-2.3  ,-2.5  ,2.7424
9344  ,2.889e+09   ,-2.5  ,-2.4  ,2.2
9358  ,4.322e+09   ,-2.3  ,2.3  ,2.5
9364  ,1.553e+09   ,-2.5  ,-2.1  ,4.9
9367  ,2.161e+09   ,-2.4  ,-2.3  ,5
9374  ,1.046e+09   ,-2.4  ,-1.3  ,5
9378  ,9.610e+08   ,-2.5  ,2.4  ,1.8
9384  ,2.256e+09   ,2.3  ,-2.5  ,2.0162
9385  ,1.681e+09   ,-2.5  ,2.4  ,4.4
9389  ,1.077e+09   ,-2.5  ,2.4  ,2
9395  ,4.748e+09   ,2.4  ,-2.3015  ,5
9396  ,1.399e+09   ,-2.4  ,-1.7  ,0
9407  ,5.958e+08   ,-2.3  ,-1.4729  ,4.8
9411  ,9.084e+08   ,-2.5  ,-1.7  ,4.9
9423  ,9.327e+08   ,-2.4  ,-2.5  ,3.6
9432  ,3.905e+09   ,0.7  ,-2.4  ,5
9438  ,7.162e+08   ,-2.5  ,-0.9  ,4.9
9443  ,1.133e+09   ,-2.5  ,-0.3  ,4.9
9445  ,2.699e+08   ,-2.4707  ,2.4  ,4.9707
9448  ,4.230e+09   ,2.4  ,-1.1189  ,5
9453  ,1.956e+09   ,2.4  ,0.7  ,0
9455  ,3.570e+09   ,2.5  ,-2.4  ,2.6
9457  ,2.676e+09   ,2.3  ,-2.5  ,2.9838
9494  ,2.105e+09   ,-2.4  ,2.5  ,1
9500  ,7.202e+08   ,0.3  ,-2.5  ,4.9
9504  ,3.880e+09   ,0.3  ,-2.4  ,5
9506  ,1.195e+09   ,2.1  ,-2.5  ,0.1
9518  ,1.146e+09   ,-1.9  ,-2.5  ,0.1
9528  ,1.634e+09   ,2.3  ,-2.5  ,0.1
9531  ,3.127e+09   ,2.4707  ,-2.4707  ,0.1
9533  ,1.888e+09   ,2.4707  ,-2.4  ,0.029289
9534  ,2.372e+09   ,2.4  ,-2.4707  ,0.029289
9541  ,7.645e+08   ,0.5  ,-2.5  ,4.9
9544  ,9.106e+08   ,-0.5  ,-2.5  ,0.1
9559  ,1.157e+09   ,-2.5  ,-1.9  ,4.9
9562  ,1.398e+09   ,-2.5  ,2.4  ,4.6
9565  ,1.345e+09   ,-2.4  ,2.5  ,2
9571  ,3.468e+09   ,-2.5  ,-2.4  ,3.8
9574  ,1.033e+09   ,-2.4  ,-2.5  ,3.8
9577  ,1.381e+09   ,1.3  ,-2.5  ,0.1
9582  ,1.657e+09   ,-2.5  ,-0.9  ,0.1
9596  ,1.341e+09   ,2.1  ,2.4  ,0
9598  ,2.380e+09   ,-2.4  ,2.5  ,3.2
9602  ,1.792e+09   ,1.5  ,2.5  ,0.1
9610  ,1.153e+09   ,2.4  ,2.5  ,0.39564
9612  ,4.036e+09   ,-0.72473  ,2.5  ,4.9
9614  ,1.729e+09   ,1.7  ,2.5  ,0.1
9635  ,1.260e+09   ,2.5  ,1.7  ,0.1
9646  ,8.018e+08   ,2.3  ,2.5  ,0.1
9651  ,3.144e+10   ,2.1656  ,2.4888  ,4.9325
9653  ,4.292e+09   ,2.5  ,-1.316  ,4.9
9656  ,1.144e+09   ,-2.4  ,-1.7  ,5
9659  ,9.150e+09   ,2.3  ,-2.5  ,4.6765
9661  ,1.320e+09   ,2.3  ,-2.5  ,3.9531
9664  ,2.935e+09   ,-2.3  ,-2.4  ,5
9666  ,1.160e+09   ,1.9  ,-2.4  ,0
9677  ,1.730e+09   ,2.4  ,0.5  ,0
9678  ,1.660e+09   ,-2.5  ,-1.1  ,0.1
9680  ,3.367e+09   ,2.5  ,2.4  ,1.184
9681  ,4.633e+08   ,2.5  ,2.4  ,0.19855
9696  ,1.233e+09   ,-2.3  ,-2.5  ,2.0162
9698  ,1.899e+09   ,2.4  ,-2.3  ,0
9699  ,2.258e+09   ,-0.24243  ,-2.5  ,0.2
9701  ,3.872e+09   ,0.1  ,-2.4  ,0
9704  ,1.310e+09   ,-0.4838  ,-2.5  ,0.2
9718  ,5.541e+08   ,-0.72262  ,-2.5  ,0.2
9726  ,1.867e+09   ,2.3  ,-0.76628  ,0.2
9727  ,1.801e+09   ,-2.5  ,2.4  ,0.4
9730  ,2.813e+09   ,1.9433E-06  ,-2.5  ,4.8
9731  ,2.480e+09   ,-0.24243  ,-2.5  ,4.8
9732  ,1.174e+09   ,-2.5  ,2.4  ,2.2
9738  ,2.733e+09   ,-2.5  ,-2.4  ,4
9743  ,2.018e+09   ,-1.6937  ,-2.5  ,4.8
9744  ,1.137e+09   ,-2.4  ,-2.5  ,4
9750  ,8.601e+08   ,-1.7  ,-2.5  ,0.1
9752  ,1.678e+09   ,-1.6937  ,-2.5  ,0.2
9754  ,1.657e+09   ,-1.3  ,-2.4  ,0
9759  ,4.031e+08   ,-2.4707  ,2.4  ,0.029289
9760  ,5.272e+08   ,-2.4  ,2.4707  ,0.029289
9768  ,3.822e+09   ,2.3  ,-2.5  ,4.1937
9770  ,2.805e+09   ,1.9433E-06  ,-2.5  ,0.2
9771  ,2.872e+09   ,0.4838  ,-2.5  ,0.2
9772  ,1.524e+09   ,2.4  ,-2.5  ,0.2
9773  ,2.714e+09   ,2.4  ,-2.5  ,4.6
9776  ,2.436e+09   ,2.4  ,0.063638  ,5
9780  ,2.258e+09   ,0.65491  ,2.5  ,4.9
9781  ,4.624e+08   ,2.4  ,2.5  ,0.19855
9782  ,3.108e+09   ,-2.3  ,-2.5  ,2.9838
9786  ,1.381e+09   ,-1.2085  ,-2.5  ,0.2
9787  ,1.632e+09   ,-1.4531  ,-2.5  ,0.2
9790  ,2.597e+09   ,2.3  ,-2.4  ,0
9793  ,1.129e+10   ,2.0345  ,2.4  ,5
9797  ,1.854e+09   ,2.3  ,-2.5  ,1.5364
9798  ,2.303e+09   ,2.4  ,1.0491  ,5
9809  ,2.293e+09   ,2.4  ,2.5  ,3.352
