Date:  12:57, Monday, July 10, 2023
Model name: Hollow_DropBox
Study name: DropTest_300fts(-Default-)
Plot type:  Stress1
Plot step: 24   time : 125.931 Microseconds
Result Type: von Mises 


Node  ,Value (N/m^2)  ,X (in)  ,Y (in)  ,Z (in)
1  ,2.738e+09   ,2.5  ,2.1331  ,4.9
2  ,6.062e+09   ,2.4577  ,2.1908  ,4.9577
3  ,2.505e+09   ,2.4894  ,2.1331  ,4.9447
4  ,2.479e+10   ,2.1331  ,2.5  ,4.9
5  ,4.348e+10   ,2.1331  ,2.4894  ,4.9447
6  ,2.345e+10   ,2.1908  ,2.4577  ,4.9577
7  ,3.057e+08   ,-2.4  ,2.4  ,5
8  ,2.790e+09   ,-2.4  ,-2.4  ,5
9  ,5.875e+09   ,2.4  ,-2.4  ,5
10  ,2.616e+09   ,2.4  ,2.1331  ,5
11  ,1.223e+10   ,2.1331  ,2.4  ,5
12  ,6.354e+09   ,2.5  ,-2.4  ,4.9
13  ,2.474e+09   ,2.5  ,-2.4  ,0.1
14  ,4.209e+08   ,2.5  ,2.4  ,0.1
15  ,1.184e+10   ,2.5  ,2.4  ,4.6331
16  ,4.015e+08   ,2.4  ,2.5  ,0.1
17  ,1.086e+09   ,-2.4  ,2.5  ,0.1
18  ,4.682e+08   ,-2.4  ,2.5  ,4.9
19  ,2.429e+10   ,2.4  ,2.5  ,4.6331
20  ,6.137e+08   ,-2.5  ,2.4  ,0.1
21  ,4.310e+08   ,-2.5  ,-2.4  ,0.1
22  ,1.943e+09   ,-2.5  ,-2.4  ,4.9
23  ,5.876e+08   ,-2.5  ,2.4  ,4.9
24  ,1.010e+09   ,-2.3  ,-2.5  ,0.2
25  ,1.854e+09   ,-2.3  ,-2.5  ,4.8
26  ,5.131e+09   ,2.3  ,-2.5  ,4.8
27  ,1.483e+09   ,2.3  ,-2.5  ,0.2
28  ,2.527e+09   ,-2.4  ,-2.5  ,4.9
29  ,5.753e+09   ,2.4  ,-2.5  ,4.9
30  ,6.013e+08   ,-2.4  ,-2.5  ,0.1
31  ,2.483e+09   ,2.4  ,-2.5  ,0.1
32  ,1.844e+09   ,2.4  ,-2.4  ,0
33  ,5.016e+08   ,2.4  ,2.4  ,0
34  ,5.557e+08   ,-2.4  ,-2.4  ,0
35  ,7.195e+08   ,-2.4  ,2.4  ,0
36  ,3.143e+10   ,2.4577  ,2.4577  ,4.6908
37  ,8.619e+08   ,-2.3  ,2.3  ,4.8
38  ,1.079e+10   ,2.1599  ,2.3  ,4.8
39  ,8.632e+09   ,2.3  ,2.1599  ,4.8
40  ,1.042e+10   ,2.3  ,2.3  ,4.6599
41  ,8.826e+08   ,2.3  ,2.3  ,0.2
42  ,1.583e+09   ,-2.3  ,2.3  ,0.2
43  ,9.051e+08   ,-2.4  ,2.2  ,5
44  ,1.438e+09   ,-2.4  ,2  ,5
45  ,1.549e+09   ,-2.4  ,1.8  ,5
46  ,1.549e+09   ,-2.4  ,1.6  ,5
47  ,1.482e+09   ,-2.4  ,1.4  ,5
48  ,1.633e+09   ,-2.4  ,1.2  ,5
49  ,2.038e+09   ,-2.4  ,1  ,5
50  ,2.480e+09   ,-2.4  ,0.8  ,5
51  ,1.641e+09   ,-2.4  ,0.6  ,5
52  ,1.532e+09   ,-2.4  ,0.4  ,5
53  ,1.839e+09   ,-2.4  ,0.2  ,5
54  ,1.723e+09   ,-2.4  ,5.8879E-16  ,5
55  ,1.291e+09   ,-2.4  ,-0.2  ,5
56  ,7.091e+08   ,-2.4  ,-0.4  ,5
57  ,7.096e+08   ,-2.4  ,-0.6  ,5
58  ,8.821e+08   ,-2.4  ,-0.8  ,5
59  ,9.699e+08   ,-2.4  ,-1  ,5
60  ,8.043e+08   ,-2.4  ,-1.2  ,5
61  ,1.032e+09   ,-2.4  ,-1.4  ,5
62  ,9.936e+08   ,-2.4  ,-1.6  ,5
63  ,1.099e+09   ,-2.4  ,-1.8  ,5
64  ,1.725e+09   ,-2.4  ,-2  ,5
65  ,1.527e+09   ,-2.4  ,-2.2  ,5
66  ,3.176e+09   ,-2.2  ,-2.4  ,5
67  ,2.355e+09   ,-2  ,-2.4  ,5
68  ,2.192e+09   ,-1.8  ,-2.4  ,5
69  ,2.027e+09   ,-1.6  ,-2.4  ,5
70  ,1.609e+09   ,-1.4  ,-2.4  ,5
71  ,1.616e+09   ,-1.2  ,-2.4  ,5
72  ,1.739e+09   ,-1  ,-2.4  ,5
73  ,1.939e+09   ,-0.8  ,-2.4  ,5
74  ,2.169e+09   ,-0.6  ,-2.4  ,5
75  ,3.004e+09   ,-0.4  ,-2.4  ,5
76  ,3.063e+09   ,-0.2  ,-2.4  ,5
77  ,3.880e+09   ,-5.8879E-16  ,-2.4  ,5
78  ,3.715e+09   ,0.2  ,-2.4  ,5
79  ,3.460e+09   ,0.4  ,-2.4  ,5
80  ,3.801e+09   ,0.6  ,-2.4  ,5
81  ,3.679e+09   ,0.8  ,-2.4  ,5
82  ,3.203e+09   ,1  ,-2.4  ,5
83  ,2.578e+09   ,1.2  ,-2.4  ,5
84  ,1.338e+09   ,1.4  ,-2.4  ,5
85  ,1.061e+09   ,1.6  ,-2.4  ,5
86  ,3.325e+09   ,1.8  ,-2.4  ,5
87  ,4.968e+09   ,2  ,-2.4  ,5
88  ,9.999e+09   ,2.2  ,-2.4  ,5
89  ,5.361e+09   ,2.4  ,-2.2029  ,5
90  ,6.277e+09   ,2.4  ,-2.0058  ,5
91  ,4.843e+09   ,2.4  ,-1.8087  ,5
92  ,4.753e+09   ,2.4  ,-1.6116  ,5
93  ,5.266e+09   ,2.4  ,-1.4145  ,5
94  ,4.595e+09   ,2.4  ,-1.2175  ,5
95  ,4.868e+09   ,2.4  ,-1.0204  ,5
96  ,4.501e+09   ,2.4  ,-0.82327  ,5
97  ,4.466e+09   ,2.4  ,-0.62618  ,5
98  ,3.634e+09   ,2.4  ,-0.42909  ,5
99  ,3.279e+09   ,2.4  ,-0.232  ,5
100  ,2.716e+09   ,2.4  ,-0.034907  ,5
101  ,2.283e+09   ,2.4  ,0.16218  ,5
102  ,1.983e+09   ,2.4  ,0.35927  ,5
103  ,2.111e+09   ,2.4  ,0.55637  ,5
104  ,1.629e+09   ,2.4  ,0.75346  ,5
105  ,1.489e+09   ,2.4  ,0.95055  ,5
106  ,2.008e+09   ,2.4  ,1.1476  ,5
107  ,2.457e+09   ,2.4  ,1.3447  ,5
108  ,2.998e+09   ,2.4  ,1.5418  ,5
109  ,3.557e+09   ,2.4  ,1.7389  ,5
110  ,3.918e+09   ,2.4  ,1.936  ,5
111  ,6.448e+09   ,2.2665  ,2.2665  ,5
112  ,8.662e+09   ,1.936  ,2.4  ,5
113  ,4.858e+09   ,1.7389  ,2.4  ,5
114  ,3.707e+09   ,1.5418  ,2.4  ,5
115  ,2.812e+09   ,1.3447  ,2.4  ,5
116  ,2.101e+09   ,1.1476  ,2.4  ,5
117  ,2.104e+09   ,0.95055  ,2.4  ,5
118  ,1.599e+09   ,0.75346  ,2.4  ,5
119  ,1.737e+09   ,0.55637  ,2.4  ,5
120  ,1.741e+09   ,0.35927  ,2.4  ,5
121  ,1.899e+09   ,0.16218  ,2.4  ,5
122  ,2.472e+09   ,-0.034907  ,2.4  ,5
123  ,3.069e+09   ,-0.232  ,2.4  ,5
124  ,3.243e+09   ,-0.42909  ,2.4  ,5
125  ,2.991e+09   ,-0.62618  ,2.4  ,5
126  ,4.192e+09   ,-0.82327  ,2.4  ,5
127  ,4.491e+09   ,-1.0204  ,2.4  ,5
128  ,4.125e+09   ,-1.2175  ,2.4  ,5
129  ,3.325e+09   ,-1.4145  ,2.4  ,5
130  ,2.357e+09   ,-1.6116  ,2.4  ,5
131  ,1.608e+09   ,-1.8087  ,2.4  ,5
132  ,1.146e+09   ,-2.0058  ,2.4  ,5
133  ,6.396e+08   ,-2.2029  ,2.4  ,5
294  ,4.651e+09   ,2.5  ,-2.2029  ,4.9
295  ,6.106e+09   ,2.5  ,-2.0058  ,4.9
296  ,4.896e+09   ,2.5  ,-1.8087  ,4.9
297  ,5.274e+09   ,2.5  ,-1.6116  ,4.9
298  ,4.466e+09   ,2.5  ,-1.4145  ,4.9
299  ,4.527e+09   ,2.5  ,-1.2175  ,4.9
300  ,4.974e+09   ,2.5  ,-1.0204  ,4.9
301  ,3.752e+09   ,2.5  ,-0.82327  ,4.9
302  ,4.068e+09   ,2.5  ,-0.62618  ,4.9
303  ,3.648e+09   ,2.5  ,-0.42909  ,4.9
304  ,4.187e+09   ,2.5  ,-0.232  ,4.9
305  ,4.331e+09   ,2.5  ,-0.034907  ,4.9
306  ,2.797e+09   ,2.5  ,0.16218  ,4.9
307  ,2.217e+09   ,2.5  ,0.35927  ,4.9
308  ,2.128e+09   ,2.5  ,0.55637  ,4.9
309  ,1.750e+09   ,2.5  ,0.75346  ,4.9
310  ,2.226e+09   ,2.5  ,0.95055  ,4.9
311  ,2.468e+09   ,2.5  ,1.1476  ,4.9
312  ,2.567e+09   ,2.5  ,1.3447  ,4.9
313  ,3.109e+09   ,2.5  ,1.5418  ,4.9
314  ,3.381e+09   ,2.5  ,1.7389  ,4.9
315  ,4.013e+09   ,2.5  ,1.936  ,4.9
316  ,1.008e+10   ,2.5  ,-2.4  ,4.7
317  ,5.084e+09   ,2.5  ,-2.4  ,4.5
318  ,3.579e+09   ,2.5  ,-2.4  ,4.3
319  ,1.155e+09   ,2.5  ,-2.4  ,4.1
320  ,1.192e+09   ,2.5  ,-2.4  ,3.9
321  ,2.225e+09   ,2.5  ,-2.4  ,3.7
322  ,3.041e+09   ,2.5  ,-2.4  ,3.5
323  ,3.464e+09   ,2.5  ,-2.4  ,3.3
324  ,3.688e+09   ,2.5  ,-2.4  ,3.1
325  ,3.545e+09   ,2.5  ,-2.4  ,2.9
326  ,3.832e+09   ,2.5  ,-2.4  ,2.7
327  ,4.039e+09   ,2.5  ,-2.4  ,2.5
328  ,3.183e+09   ,2.5  ,-2.4  ,2.3
329  ,3.019e+09   ,2.5  ,-2.4  ,2.1
330  ,2.296e+09   ,2.5  ,-2.4  ,1.9
331  ,2.027e+09   ,2.5  ,-2.4  ,1.7
332  ,1.672e+09   ,2.5  ,-2.4  ,1.5
333  ,1.519e+09   ,2.5  ,-2.4  ,1.3
334  ,1.606e+09   ,2.5  ,-2.4  ,1.1
335  ,1.962e+09   ,2.5  ,-2.4  ,0.9
336  ,2.343e+09   ,2.5  ,-2.4  ,0.7
337  ,2.470e+09   ,2.5  ,-2.4  ,0.5
338  ,3.268e+09   ,2.5  ,-2.4  ,0.3
339  ,1.528e+09   ,2.5  ,-2.2  ,0.1
340  ,1.798e+09   ,2.5  ,-2  ,0.1
341  ,1.195e+09   ,2.5  ,-1.8  ,0.1
342  ,1.164e+09   ,2.5  ,-1.6  ,0.1
343  ,7.381e+08   ,2.5  ,-1.4  ,0.1
344  ,7.049e+08   ,2.5  ,-1.2  ,0.1
345  ,7.311e+08   ,2.5  ,-1  ,0.1
346  ,6.546e+08   ,2.5  ,-0.8  ,0.1
347  ,6.081e+08   ,2.5  ,-0.6  ,0.1
348  ,7.124e+08   ,2.5  ,-0.4  ,0.1
349  ,8.488e+08   ,2.5  ,-0.2  ,0.1
350  ,1.229e+09   ,2.5  ,-1.7664E-15  ,0.1
351  ,1.533e+09   ,2.5  ,0.2  ,0.1
352  ,1.622e+09   ,2.5  ,0.4  ,0.1
353  ,2.213e+09   ,2.5  ,0.6  ,0.1
354  ,2.927e+09   ,2.5  ,0.8  ,0.1
355  ,2.231e+09   ,2.5  ,1  ,0.1
356  ,2.090e+09   ,2.5  ,1.2  ,0.1
357  ,1.654e+09   ,2.5  ,1.4  ,0.1
358  ,1.483e+09   ,2.5  ,1.6  ,0.1
359  ,1.272e+09   ,2.5  ,1.8  ,0.1
360  ,1.196e+09   ,2.5  ,2  ,0.1
361  ,1.023e+09   ,2.5  ,2.2  ,0.1
362  ,9.024e+09   ,2.5  ,2.4  ,4.436
363  ,5.976e+09   ,2.5  ,2.4  ,4.2389
364  ,3.764e+09   ,2.5  ,2.4  ,4.0418
365  ,3.005e+09   ,2.5  ,2.4  ,3.8447
366  ,2.652e+09   ,2.5  ,2.4  ,3.6476
367  ,2.133e+09   ,2.5  ,2.4  ,3.4505
368  ,1.806e+09   ,2.5  ,2.4  ,3.2535
369  ,2.051e+09   ,2.5  ,2.4  ,3.0564
370  ,2.266e+09   ,2.5  ,2.4  ,2.8593
371  ,2.126e+09   ,2.5  ,2.4  ,2.6622
372  ,2.733e+09   ,2.5  ,2.4  ,2.4651
373  ,2.926e+09   ,2.5  ,2.4  ,2.268
374  ,3.294e+09   ,2.5  ,2.4  ,2.0709
375  ,3.267e+09   ,2.5  ,2.4  ,1.8738
376  ,3.804e+09   ,2.5  ,2.4  ,1.6767
377  ,3.223e+09   ,2.5  ,2.4  ,1.4796
378  ,3.384e+09   ,2.5  ,2.4  ,1.2825
379  ,3.195e+09   ,2.5  ,2.4  ,1.0855
380  ,2.805e+09   ,2.5  ,2.4  ,0.88836
381  ,2.139e+09   ,2.5  ,2.4  ,0.69127
382  ,1.201e+09   ,2.5  ,2.4  ,0.49418
383  ,7.152e+08   ,2.5  ,2.4  ,0.29709
384  ,6.770e+09   ,2.5  ,2.2665  ,4.7665
544  ,1.251e+09   ,2.2  ,2.5  ,0.1
545  ,1.786e+09   ,2  ,2.5  ,0.1
546  ,1.906e+09   ,1.8  ,2.5  ,0.1
547  ,2.125e+09   ,1.6  ,2.5  ,0.1
548  ,1.914e+09   ,1.4  ,2.5  ,0.1
549  ,2.321e+09   ,1.2  ,2.5  ,0.1
550  ,2.653e+09   ,1  ,2.5  ,0.1
551  ,3.275e+09   ,0.8  ,2.5  ,0.1
552  ,2.229e+09   ,0.6  ,2.5  ,0.1
553  ,9.675e+08   ,0.4  ,2.5  ,0.1
554  ,7.670e+08   ,0.2  ,2.5  ,0.1
555  ,5.113e+08   ,5.8879E-16  ,2.5  ,0.1
556  ,1.118e+09   ,-0.2  ,2.5  ,0.1
557  ,9.952e+08   ,-0.4  ,2.5  ,0.1
558  ,8.671e+08   ,-0.6  ,2.5  ,0.1
559  ,1.768e+09   ,-0.8  ,2.5  ,0.1
560  ,1.825e+09   ,-1  ,2.5  ,0.1
561  ,1.991e+09   ,-1.2  ,2.5  ,0.1
562  ,1.933e+09   ,-1.4  ,2.5  ,0.1
563  ,1.953e+09   ,-1.6  ,2.5  ,0.1
564  ,2.022e+09   ,-1.8  ,2.5  ,0.1
565  ,2.052e+09   ,-2  ,2.5  ,0.1
566  ,1.775e+09   ,-2.2  ,2.5  ,0.1
567  ,1.347e+09   ,-2.4  ,2.5  ,4.7
568  ,2.008e+09   ,-2.4  ,2.5  ,4.5
569  ,2.022e+09   ,-2.4  ,2.5  ,4.3
570  ,2.267e+09   ,-2.4  ,2.5  ,4.1
571  ,1.934e+09   ,-2.4  ,2.5  ,3.9
572  ,1.949e+09   ,-2.4  ,2.5  ,3.7
573  ,2.243e+09   ,-2.4  ,2.5  ,3.5
574  ,2.865e+09   ,-2.4  ,2.5  ,3.3
575  ,1.845e+09   ,-2.4  ,2.5  ,3.1
576  ,1.190e+09   ,-2.4  ,2.5  ,2.9
577  ,1.061e+09   ,-2.4  ,2.5  ,2.7
578  ,6.759e+08   ,-2.4  ,2.5  ,2.5
579  ,7.154e+08   ,-2.4  ,2.5  ,2.3
580  ,9.516e+08   ,-2.4  ,2.5  ,2.1
581  ,9.935e+08   ,-2.4  ,2.5  ,1.9
582  ,1.454e+09   ,-2.4  ,2.5  ,1.7
583  ,1.688e+09   ,-2.4  ,2.5  ,1.5
584  ,1.982e+09   ,-2.4  ,2.5  ,1.3
585  ,1.995e+09   ,-2.4  ,2.5  ,1.1
586  ,2.168e+09   ,-2.4  ,2.5  ,0.9
587  ,2.058e+09   ,-2.4  ,2.5  ,0.7
588  ,2.008e+09   ,-2.4  ,2.5  ,0.5
589  ,1.913e+09   ,-2.4  ,2.5  ,0.3
590  ,1.098e+10   ,1.936  ,2.5  ,4.9
591  ,4.483e+09   ,1.7389  ,2.5  ,4.9
592  ,3.127e+09   ,1.5418  ,2.5  ,4.9
593  ,2.540e+09   ,1.3447  ,2.5  ,4.9
594  ,1.906e+09   ,1.1476  ,2.5  ,4.9
595  ,1.884e+09   ,0.95055  ,2.5  ,4.9
596  ,1.837e+09   ,0.75346  ,2.5  ,4.9
597  ,1.765e+09   ,0.55637  ,2.5  ,4.9
598  ,2.122e+09   ,0.35927  ,2.5  ,4.9
599  ,2.008e+09   ,0.16218  ,2.5  ,4.9
600  ,2.107e+09   ,-0.034907  ,2.5  ,4.9
601  ,2.407e+09   ,-0.232  ,2.5  ,4.9
602  ,4.222e+09   ,-0.42909  ,2.5  ,4.9
603  ,4.430e+09   ,-0.62618  ,2.5  ,4.9
604  ,4.381e+09   ,-0.82327  ,2.5  ,4.9
605  ,4.855e+09   ,-1.0204  ,2.5  ,4.9
606  ,4.444e+09   ,-1.2175  ,2.5  ,4.9
607  ,3.370e+09   ,-1.4145  ,2.5  ,4.9
608  ,2.560e+09   ,-1.6116  ,2.5  ,4.9
609  ,1.747e+09   ,-1.8087  ,2.5  ,4.9
610  ,1.183e+09   ,-2.0058  ,2.5  ,4.9
611  ,8.017e+08   ,-2.2029  ,2.5  ,4.9
612  ,1.596e+10   ,2.2665  ,2.5  ,4.7665
613  ,9.478e+09   ,2.4  ,2.5  ,4.436
614  ,5.675e+09   ,2.4  ,2.5  ,4.2389
615  ,3.531e+09   ,2.4  ,2.5  ,4.0418
616  ,2.625e+09   ,2.4  ,2.5  ,3.8447
617  ,2.145e+09   ,2.4  ,2.5  ,3.6476
618  ,2.012e+09   ,2.4  ,2.5  ,3.4505
619  ,1.744e+09   ,2.4  ,2.5  ,3.2535
620  ,2.062e+09   ,2.4  ,2.5  ,3.0564
621  ,1.811e+09   ,2.4  ,2.5  ,2.8593
622  ,2.143e+09   ,2.4  ,2.5  ,2.6622
623  ,2.222e+09   ,2.4  ,2.5  ,2.4651
624  ,2.459e+09   ,2.4  ,2.5  ,2.268
625  ,2.720e+09   ,2.4  ,2.5  ,2.0709
626  ,3.261e+09   ,2.4  ,2.5  ,1.8738
627  ,3.935e+09   ,2.4  ,2.5  ,1.6767
628  ,4.489e+09   ,2.4  ,2.5  ,1.4796
629  ,4.658e+09   ,2.4  ,2.5  ,1.2825
630  ,3.224e+09   ,2.4  ,2.5  ,1.0855
631  ,2.423e+09   ,2.4  ,2.5  ,0.88836
632  ,1.749e+09   ,2.4  ,2.5  ,0.69127
633  ,1.350e+09   ,2.4  ,2.5  ,0.49418
634  ,7.867e+08   ,2.4  ,2.5  ,0.29709
796  ,1.085e+09   ,-2.5  ,2.2  ,0.1
797  ,1.309e+09   ,-2.5  ,2  ,0.1
798  ,1.651e+09   ,-2.5  ,1.8  ,0.1
799  ,1.698e+09   ,-2.5  ,1.6  ,0.1
800  ,1.874e+09   ,-2.5  ,1.4  ,0.1
801  ,2.073e+09   ,-2.5  ,1.2  ,0.1
802  ,1.940e+09   ,-2.5  ,1  ,0.1
803  ,2.077e+09   ,-2.5  ,0.8  ,0.1
804  ,2.259e+09   ,-2.5  ,0.6  ,0.1
805  ,2.435e+09   ,-2.5  ,0.4  ,0.1
806  ,2.186e+09   ,-2.5  ,0.2  ,0.1
807  ,1.992e+09   ,-2.5  ,5.8879E-16  ,0.1
808  ,1.908e+09   ,-2.5  ,-0.2  ,0.1
809  ,1.915e+09   ,-2.5  ,-0.4  ,0.1
810  ,1.958e+09   ,-2.5  ,-0.6  ,0.1
811  ,1.738e+09   ,-2.5  ,-0.8  ,0.1
812  ,1.891e+09   ,-2.5  ,-1  ,0.1
813  ,1.525e+09   ,-2.5  ,-1.2  ,0.1
814  ,1.544e+09   ,-2.5  ,-1.4  ,0.1
815  ,1.238e+09   ,-2.5  ,-1.6  ,0.1
816  ,1.043e+09   ,-2.5  ,-1.8  ,0.1
817  ,1.135e+09   ,-2.5  ,-2  ,0.1
818  ,6.839e+08   ,-2.5  ,-2.2  ,0.1
819  ,3.050e+09   ,-2.5  ,-2.4  ,4.7
820  ,2.316e+09   ,-2.5  ,-2.4  ,4.5
821  ,1.545e+09   ,-2.5  ,-2.4  ,4.3
822  ,1.848e+09   ,-2.5  ,-2.4  ,4.1
823  ,2.584e+09   ,-2.5  ,-2.4  ,3.9
824  ,3.083e+09   ,-2.5  ,-2.4  ,3.7
825  ,3.872e+09   ,-2.5  ,-2.4  ,3.5
826  ,4.139e+09   ,-2.5  ,-2.4  ,3.3
827  ,5.161e+09   ,-2.5  ,-2.4  ,3.1
828  ,5.147e+09   ,-2.5  ,-2.4  ,2.9
829  ,4.836e+09   ,-2.5  ,-2.4  ,2.7
830  ,5.337e+09   ,-2.5  ,-2.4  ,2.5
831  ,3.945e+09   ,-2.5  ,-2.4  ,2.3
832  ,3.014e+09   ,-2.5  ,-2.4  ,2.1
833  ,1.770e+09   ,-2.5  ,-2.4  ,1.9
834  ,9.850e+08   ,-2.5  ,-2.4  ,1.7
835  ,3.338e+08   ,-2.5  ,-2.4  ,1.5
836  ,1.134e+09   ,-2.5  ,-2.4  ,1.3
837  ,1.731e+09   ,-2.5  ,-2.4  ,1.1
838  ,2.408e+09   ,-2.5  ,-2.4  ,0.9
839  ,2.673e+09   ,-2.5  ,-2.4  ,0.7
840  ,2.366e+09   ,-2.5  ,-2.4  ,0.5
841  ,1.299e+09   ,-2.5  ,-2.4  ,0.3
842  ,9.982e+08   ,-2.5  ,2.2  ,4.9
843  ,1.439e+09   ,-2.5  ,2  ,4.9
844  ,1.569e+09   ,-2.5  ,1.8  ,4.9
845  ,1.518e+09   ,-2.5  ,1.6  ,4.9
846  ,1.326e+09   ,-2.5  ,1.4  ,4.9
847  ,1.377e+09   ,-2.5  ,1.2  ,4.9
848  ,1.475e+09   ,-2.5  ,1  ,4.9
849  ,2.176e+09   ,-2.5  ,0.8  ,4.9
850  ,2.176e+09   ,-2.5  ,0.6  ,4.9
851  ,2.076e+09   ,-2.5  ,0.4  ,4.9
852  ,2.000e+09   ,-2.5  ,0.2  ,4.9
853  ,1.360e+09   ,-2.5  ,5.8879E-16  ,4.9
854  ,1.317e+09   ,-2.5  ,-0.2  ,4.9
855  ,1.065e+09   ,-2.5  ,-0.4  ,4.9
856  ,1.056e+09   ,-2.5  ,-0.6  ,4.9
857  ,1.116e+09   ,-2.5  ,-0.8  ,4.9
858  ,1.033e+09   ,-2.5  ,-1  ,4.9
859  ,8.603e+08   ,-2.5  ,-1.2  ,4.9
860  ,8.712e+08   ,-2.5  ,-1.4  ,4.9
861  ,7.918e+08   ,-2.5  ,-1.6  ,4.9
862  ,8.152e+08   ,-2.5  ,-1.8  ,4.9
863  ,1.184e+09   ,-2.5  ,-2  ,4.9
864  ,1.295e+09   ,-2.5  ,-2.2  ,4.9
865  ,1.332e+09   ,-2.5  ,2.4  ,4.7
866  ,2.028e+09   ,-2.5  ,2.4  ,4.5
867  ,2.055e+09   ,-2.5  ,2.4  ,4.3
868  ,1.689e+09   ,-2.5  ,2.4  ,4.1
869  ,1.928e+09   ,-2.5  ,2.4  ,3.9
870  ,1.936e+09   ,-2.5  ,2.4  ,3.7
871  ,2.103e+09   ,-2.5  ,2.4  ,3.5
872  ,2.590e+09   ,-2.5  ,2.4  ,3.3
873  ,2.095e+09   ,-2.5  ,2.4  ,3.1
874  ,1.079e+09   ,-2.5  ,2.4  ,2.9
875  ,9.069e+08   ,-2.5  ,2.4  ,2.7
876  ,9.247e+08   ,-2.5  ,2.4  ,2.5
877  ,8.455e+08   ,-2.5  ,2.4  ,2.3
878  ,1.014e+09   ,-2.5  ,2.4  ,2.1
879  ,7.703e+08   ,-2.5  ,2.4  ,1.9
880  ,1.420e+09   ,-2.5  ,2.4  ,1.7
881  ,2.165e+09   ,-2.5  ,2.4  ,1.5
882  ,2.354e+09   ,-2.5  ,2.4  ,1.3
883  ,2.120e+09   ,-2.5  ,2.4  ,1.1
884  ,2.238e+09   ,-2.5  ,2.4  ,0.9
885  ,2.123e+09   ,-2.5  ,2.4  ,0.7
886  ,2.177e+09   ,-2.5  ,2.4  ,0.5
887  ,1.818e+09   ,-2.5  ,2.4  ,0.3
1044  ,7.746e+08   ,-2.3  ,-2.5  ,0.44697
1045  ,1.885e+09   ,-2.3  ,-2.5  ,0.68705
1046  ,1.787e+09   ,-2.3  ,-2.5  ,0.92554
1047  ,1.506e+09   ,-2.3  ,-2.5  ,1.1682
1048  ,1.230e+09   ,-2.3  ,-2.5  ,1.4148
1049  ,3.881e+08   ,-2.3  ,-2.5  ,1.6581
1050  ,6.889e+08   ,-2.3  ,-2.5  ,1.8967
1051  ,1.637e+09   ,-2.3  ,-2.5  ,2.1357
1052  ,2.698e+09   ,-2.3  ,-2.5  ,2.3794
1053  ,3.198e+09   ,-2.3  ,-2.5  ,2.6206
1054  ,3.482e+09   ,-2.3  ,-2.5  ,2.8643
1055  ,3.542e+09   ,-2.3  ,-2.5  ,3.1033
1056  ,3.110e+09   ,-2.3  ,-2.5  ,3.342
1057  ,2.812e+09   ,-2.3  ,-2.5  ,3.5852
1058  ,2.591e+09   ,-2.3  ,-2.5  ,3.8318
1059  ,1.744e+09   ,-2.3  ,-2.5  ,4.0745
1060  ,9.843e+08   ,-2.3  ,-2.5  ,4.3129
1061  ,2.127e+09   ,-2.3  ,-2.5  ,4.553
1062  ,3.146e+09   ,-2.053  ,-2.5  ,4.8
1063  ,2.763e+09   ,-1.8129  ,-2.5  ,4.8
1064  ,2.420e+09   ,-1.5745  ,-2.5  ,4.8
1065  ,1.902e+09   ,-1.3318  ,-2.5  ,4.8
1066  ,2.176e+09   ,-1.0852  ,-2.5  ,4.8
1067  ,2.461e+09   ,-0.84195  ,-2.5  ,4.8
1068  ,2.931e+09   ,-0.60329  ,-2.5  ,4.8
1069  ,3.410e+09   ,-0.3643  ,-2.5  ,4.8
1070  ,3.736e+09   ,-0.12055  ,-2.5  ,4.8
1071  ,3.724e+09   ,0.12056  ,-2.5  ,4.8
1072  ,3.332e+09   ,0.3643  ,-2.5  ,4.8
1073  ,3.023e+09   ,0.6033  ,-2.5  ,4.8
1074  ,2.361e+09   ,0.84195  ,-2.5  ,4.8
1075  ,9.631e+08   ,1.0852  ,-2.5  ,4.8
1076  ,1.515e+09   ,1.3318  ,-2.5  ,4.8
1077  ,3.499e+09   ,1.5745  ,-2.5  ,4.8
1078  ,5.312e+09   ,1.8129  ,-2.5  ,4.8
1079  ,8.833e+09   ,2.053  ,-2.5  ,4.8
1080  ,9.117e+09   ,2.3  ,-2.5  ,4.553
1081  ,5.373e+09   ,2.3  ,-2.5  ,4.3129
1082  ,3.326e+09   ,2.3  ,-2.5  ,4.0745
1083  ,1.073e+09   ,2.3  ,-2.5  ,3.8318
1084  ,8.923e+08   ,2.3  ,-2.5  ,3.5852
1085  ,1.905e+09   ,2.3  ,-2.5  ,3.3419
1086  ,2.738e+09   ,2.3  ,-2.5  ,3.1033
1087  ,3.428e+09   ,2.3  ,-2.5  ,2.8643
1088  ,3.844e+09   ,2.3  ,-2.5  ,2.6206
1089  ,3.880e+09   ,2.3  ,-2.5  ,2.3794
1090  ,3.495e+09   ,2.3  ,-2.5  ,2.1357
1091  ,2.925e+09   ,2.3  ,-2.5  ,1.8967
1092  ,2.526e+09   ,2.3  ,-2.5  ,1.658
1093  ,2.003e+09   ,2.3  ,-2.5  ,1.4148
1094  ,1.753e+09   ,2.3  ,-2.5  ,1.1682
1095  ,2.234e+09   ,2.3  ,-2.5  ,0.92554
1096  ,2.537e+09   ,2.3  ,-2.5  ,0.68705
1097  ,2.943e+09   ,2.3  ,-2.5  ,0.44697
1098  ,1.086e+09   ,-2.053  ,-2.5  ,0.2
1099  ,1.729e+09   ,-1.8129  ,-2.5  ,0.2
1100  ,2.004e+09   ,-1.5745  ,-2.5  ,0.2
1101  ,1.724e+09   ,-1.3318  ,-2.5  ,0.2
1102  ,1.296e+09   ,-1.0852  ,-2.5  ,0.2
1103  ,5.412e+08   ,-0.84195  ,-2.5  ,0.2
1104  ,1.073e+09   ,-0.60329  ,-2.5  ,0.2
1105  ,2.169e+09   ,-0.3643  ,-2.5  ,0.2
1106  ,2.986e+09   ,-0.12055  ,-2.5  ,0.2
1107  ,3.097e+09   ,0.12056  ,-2.5  ,0.2
1108  ,3.342e+09   ,0.3643  ,-2.5  ,0.2
1109  ,3.623e+09   ,0.6033  ,-2.5  ,0.2
1110  ,3.371e+09   ,0.84195  ,-2.5  ,0.2
1111  ,2.882e+09   ,1.0852  ,-2.5  ,0.2
1112  ,2.621e+09   ,1.3318  ,-2.5  ,0.2
1113  ,1.760e+09   ,1.5745  ,-2.5  ,0.2
1114  ,9.612e+08   ,1.8129  ,-2.5  ,0.2
1115  ,2.352e+09   ,2.053  ,-2.5  ,0.2
1116  ,1.562e+09   ,-2.2  ,-2.5  ,4.9
1117  ,6.591e+08   ,-2  ,-2.5  ,4.9
1118  ,8.408e+08   ,-1.8  ,-2.5  ,4.9
1119  ,9.046e+08   ,-1.6  ,-2.5  ,4.9
1120  ,7.427e+08   ,-1.4  ,-2.5  ,4.9
1121  ,5.317e+08   ,-1.2  ,-2.5  ,4.9
1122  ,3.925e+08   ,-1  ,-2.5  ,4.9
1123  ,3.995e+08   ,-0.8  ,-2.5  ,4.9
1124  ,4.547e+08   ,-0.6  ,-2.5  ,4.9
1125  ,5.542e+08   ,-0.4  ,-2.5  ,4.9
1126  ,4.419e+08   ,-0.2  ,-2.5  ,4.9
1127  ,4.744e+08   ,-1.7664E-15  ,-2.5  ,4.9
1128  ,3.929e+08   ,0.2  ,-2.5  ,4.9
1129  ,4.704e+08   ,0.4  ,-2.5  ,4.9
1130  ,2.308e+08   ,0.6  ,-2.5  ,4.9
1131  ,7.491e+08   ,0.8  ,-2.5  ,4.9
1132  ,1.489e+09   ,1  ,-2.5  ,4.9
1133  ,1.996e+09   ,1.2  ,-2.5  ,4.9
1134  ,2.113e+09   ,1.4  ,-2.5  ,4.9
1135  ,1.958e+09   ,1.6  ,-2.5  ,4.9
1136  ,2.073e+09   ,1.8  ,-2.5  ,4.9
1137  ,1.870e+09   ,2  ,-2.5  ,4.9
1138  ,1.928e+09   ,2.2  ,-2.5  ,4.9
1139  ,1.500e+09   ,-2.4  ,-2.5  ,4.7
1140  ,1.561e+09   ,-2.4  ,-2.5  ,4.5
1141  ,1.655e+09   ,-2.4  ,-2.5  ,4.3
1142  ,1.636e+09   ,-2.4  ,-2.5  ,4.1
1143  ,1.109e+09   ,-2.4  ,-2.5  ,3.9
1144  ,8.887e+08   ,-2.4  ,-2.5  ,3.7
1145  ,5.763e+08   ,-2.4  ,-2.5  ,3.5
1146  ,1.071e+09   ,-2.4  ,-2.5  ,3.3
1147  ,6.194e+08   ,-2.4  ,-2.5  ,3.1
1148  ,9.277e+08   ,-2.4  ,-2.5  ,2.9
1149  ,1.345e+09   ,-2.4  ,-2.5  ,2.7
1150  ,1.360e+09   ,-2.4  ,-2.5  ,2.5
1151  ,1.714e+09   ,-2.4  ,-2.5  ,2.3
1152  ,1.364e+09   ,-2.4  ,-2.5  ,2.1
1153  ,1.021e+09   ,-2.4  ,-2.5  ,1.9
1154  ,7.947e+08   ,-2.4  ,-2.5  ,1.7
1155  ,5.669e+08   ,-2.4  ,-2.5  ,1.5
1156  ,1.632e+08   ,-2.4  ,-2.5  ,1.3
1157  ,3.733e+08   ,-2.4  ,-2.5  ,1.1
1158  ,8.821e+08   ,-2.4  ,-2.5  ,0.9
1159  ,1.314e+09   ,-2.4  ,-2.5  ,0.7
1160  ,1.112e+09   ,-2.4  ,-2.5  ,0.5
1161  ,1.078e+09   ,-2.4  ,-2.5  ,0.3
1162  ,1.406e+09   ,-2.2  ,-2.5  ,0.1
1163  ,1.252e+09   ,-2  ,-2.5  ,0.1
1164  ,1.315e+09   ,-1.8  ,-2.5  ,0.1
1165  ,6.221e+08   ,-1.6  ,-2.5  ,0.1
1166  ,1.094e+08   ,-1.4  ,-2.5  ,0.1
1167  ,1.942e+08   ,-1.2  ,-2.5  ,0.1
1168  ,4.702e+08   ,-1  ,-2.5  ,0.1
1169  ,9.947e+08   ,-0.8  ,-2.5  ,0.1
1170  ,1.299e+09   ,-0.6  ,-2.5  ,0.1
1171  ,1.439e+09   ,-0.4  ,-2.5  ,0.1
1172  ,1.252e+09   ,-0.2  ,-2.5  ,0.1
1173  ,1.181e+09   ,-1.7664E-15  ,-2.5  ,0.1
1174  ,8.769e+08   ,0.2  ,-2.5  ,0.1
1175  ,7.557e+08   ,0.4  ,-2.5  ,0.1
1176  ,1.010e+09   ,0.6  ,-2.5  ,0.1
1177  ,6.861e+08   ,0.8  ,-2.5  ,0.1
1178  ,8.995e+08   ,1  ,-2.5  ,0.1
1179  ,9.527e+08   ,1.2  ,-2.5  ,0.1
1180  ,1.241e+09   ,1.4  ,-2.5  ,0.1
1181  ,1.773e+09   ,1.6  ,-2.5  ,0.1
1182  ,1.795e+09   ,1.8  ,-2.5  ,0.1
1183  ,1.333e+09   ,2  ,-2.5  ,0.1
1184  ,1.399e+09   ,2.2  ,-2.5  ,0.1
1185  ,1.524e+09   ,2.4  ,-2.5  ,4.7
1186  ,1.850e+09   ,2.4  ,-2.5  ,4.5
1187  ,2.060e+09   ,2.4  ,-2.5  ,4.3
1188  ,2.171e+09   ,2.4  ,-2.5  ,4.1
1189  ,1.639e+09   ,2.4  ,-2.5  ,3.9
1190  ,1.627e+09   ,2.4  ,-2.5  ,3.7
1191  ,1.246e+09   ,2.4  ,-2.5  ,3.5
1192  ,8.971e+08   ,2.4  ,-2.5  ,3.3
1193  ,6.220e+08   ,2.4  ,-2.5  ,3.1
1194  ,4.842e+08   ,2.4  ,-2.5  ,2.9
1195  ,2.682e+08   ,2.4  ,-2.5  ,2.7
1196  ,3.355e+08   ,2.4  ,-2.5  ,2.5
1197  ,3.763e+08   ,2.4  ,-2.5  ,2.3
1198  ,5.949e+08   ,2.4  ,-2.5  ,2.1
1199  ,4.252e+08   ,2.4  ,-2.5  ,1.9
1200  ,3.421e+08   ,2.4  ,-2.5  ,1.7
1201  ,2.286e+08   ,2.4  ,-2.5  ,1.5
1202  ,3.708e+08   ,2.4  ,-2.5  ,1.3
1203  ,7.432e+08   ,2.4  ,-2.5  ,1.1
1204  ,8.595e+08   ,2.4  ,-2.5  ,0.9
1205  ,7.603e+08   ,2.4  ,-2.5  ,0.7
1206  ,8.279e+08   ,2.4  ,-2.5  ,0.5
1207  ,1.300e+09   ,2.4  ,-2.5  ,0.3
1208  ,1.284e+09   ,2.4  ,-2.2  ,0
1209  ,1.285e+09   ,2.4  ,-2  ,0
1210  ,9.655e+08   ,2.4  ,-1.8  ,0
1211  ,9.225e+08   ,2.4  ,-1.6  ,0
1212  ,9.087e+08   ,2.4  ,-1.4  ,0
1213  ,7.625e+08   ,2.4  ,-1.2  ,0
1214  ,8.253e+08   ,2.4  ,-1  ,0
1215  ,8.476e+08   ,2.4  ,-0.8  ,0
1216  ,8.941e+08   ,2.4  ,-0.6  ,0
1217  ,9.258e+08   ,2.4  ,-0.4  ,0
1218  ,1.173e+09   ,2.4  ,-0.2  ,0
1219  ,1.349e+09   ,2.4  ,-1.7664E-15  ,0
1220  ,1.635e+09   ,2.4  ,0.2  ,0
1221  ,1.815e+09   ,2.4  ,0.4  ,0
1222  ,2.251e+09   ,2.4  ,0.6  ,0
1223  ,2.412e+09   ,2.4  ,0.8  ,0
1224  ,1.838e+09   ,2.4  ,1  ,0
1225  ,1.802e+09   ,2.4  ,1.2  ,0
1226  ,1.584e+09   ,2.4  ,1.4  ,0
1227  ,1.396e+09   ,2.4  ,1.6  ,0
1228  ,1.655e+09   ,2.4  ,1.8  ,0
1229  ,1.594e+09   ,2.4  ,2  ,0
1230  ,1.087e+09   ,2.4  ,2.2  ,0
1231  ,1.674e+09   ,-2.2  ,-2.4  ,0
1232  ,2.323e+09   ,-2  ,-2.4  ,0
1233  ,2.633e+09   ,-1.8  ,-2.4  ,0
1234  ,2.404e+09   ,-1.6  ,-2.4  ,0
1235  ,1.691e+09   ,-1.4  ,-2.4  ,0
1236  ,1.130e+09   ,-1.2  ,-2.4  ,0
1237  ,3.842e+08   ,-1  ,-2.4  ,0
1238  ,1.017e+09   ,-0.8  ,-2.4  ,0
1239  ,2.306e+09   ,-0.6  ,-2.4  ,0
1240  ,3.380e+09   ,-0.4  ,-2.4  ,0
1241  ,4.260e+09   ,-0.2  ,-2.4  ,0
1242  ,4.911e+09   ,5.8879E-16  ,-2.4  ,0
1243  ,4.734e+09   ,0.2  ,-2.4  ,0
1244  ,4.838e+09   ,0.4  ,-2.4  ,0
1245  ,4.548e+09   ,0.6  ,-2.4  ,0
1246  ,4.574e+09   ,0.8  ,-2.4  ,0
1247  ,3.684e+09   ,1  ,-2.4  ,0
1248  ,3.230e+09   ,1.2  ,-2.4  ,0
1249  ,2.584e+09   ,1.4  ,-2.4  ,0
1250  ,1.763e+09   ,1.6  ,-2.4  ,0
1251  ,1.658e+09   ,1.8  ,-2.4  ,0
1252  ,2.196e+09   ,2  ,-2.4  ,0
1253  ,3.315e+09   ,2.2  ,-2.4  ,0
1254  ,1.069e+09   ,-2.4  ,2.2  ,0
1255  ,1.570e+09   ,-2.4  ,2  ,0
1256  ,1.461e+09   ,-2.4  ,1.8  ,0
1257  ,1.776e+09   ,-2.4  ,1.6  ,0
1258  ,2.049e+09   ,-2.4  ,1.4  ,0
1259  ,2.401e+09   ,-2.4  ,1.2  ,0
1260  ,2.163e+09   ,-2.4  ,1  ,0
1261  ,2.156e+09   ,-2.4  ,0.8  ,0
1262  ,2.054e+09   ,-2.4  ,0.6  ,0
1263  ,2.070e+09   ,-2.4  ,0.4  ,0
1264  ,2.067e+09   ,-2.4  ,0.2  ,0
1265  ,2.133e+09   ,-2.4  ,5.8879E-16  ,0
1266  ,2.364e+09   ,-2.4  ,-0.2  ,0
1267  ,1.843e+09   ,-2.4  ,-0.4  ,0
1268  ,2.028e+09   ,-2.4  ,-0.6  ,0
1269  ,1.775e+09   ,-2.4  ,-0.8  ,0
1270  ,1.929e+09   ,-2.4  ,-1  ,0
1271  ,1.724e+09   ,-2.4  ,-1.2  ,0
1272  ,1.392e+09   ,-2.4  ,-1.4  ,0
1273  ,1.249e+09   ,-2.4  ,-1.6  ,0
1274  ,1.082e+09   ,-2.4  ,-1.8  ,0
1275  ,1.122e+09   ,-2.4  ,-2  ,0
1276  ,7.965e+08   ,-2.4  ,-2.2  ,0
1277  ,1.231e+09   ,2.2  ,2.4  ,0
1278  ,1.789e+09   ,2  ,2.4  ,0
1279  ,2.007e+09   ,1.8  ,2.4  ,0
1280  ,1.650e+09   ,1.6  ,2.4  ,0
1281  ,1.462e+09   ,1.4  ,2.4  ,0
1282  ,1.830e+09   ,1.2  ,2.4  ,0
1283  ,2.115e+09   ,1  ,2.4  ,0
1284  ,2.882e+09   ,0.8  ,2.4  ,0
1285  ,2.327e+09   ,0.6  ,2.4  ,0
1286  ,1.065e+09   ,0.4  ,2.4  ,0
1287  ,8.295e+08   ,0.2  ,2.4  ,0
1288  ,8.583e+08   ,5.8879E-16  ,2.4  ,0
1289  ,1.024e+09   ,-0.2  ,2.4  ,0
1290  ,1.116e+09   ,-0.4  ,2.4  ,0
1291  ,6.364e+08   ,-0.6  ,2.4  ,0
1292  ,1.678e+09   ,-0.8  ,2.4  ,0
1293  ,2.213e+09   ,-1  ,2.4  ,0
1294  ,2.434e+09   ,-1.2  ,2.4  ,0
1295  ,2.072e+09   ,-1.4  ,2.4  ,0
1296  ,1.933e+09   ,-1.6  ,2.4  ,0
1297  ,1.957e+09   ,-1.8  ,2.4  ,0
1298  ,1.810e+09   ,-2  ,2.4  ,0
1299  ,1.738e+09   ,-2.2  ,2.4  ,0
1460  ,8.065e+09   ,2.3243  ,2.3243  ,4.9577
1461  ,7.449e+09   ,2.4577  ,2.3243  ,4.8243
1462  ,1.105e+10   ,2.3243  ,2.4577  ,4.8243
1463  ,9.832e+08   ,-2.3  ,-2.1759  ,4.8
1464  ,5.160e+08   ,-2.3  ,-1.7631  ,4.8
1465  ,7.978e+08   ,-2.3  ,-1.1827  ,4.8
1466  ,2.250e+09   ,-2.3  ,-0.34986  ,4.8
1467  ,2.716e+09   ,-2.3  ,0.80545  ,4.8
1468  ,3.190e+09   ,-0.81337  ,2.3  ,4.8
1469  ,3.177e+09   ,0.67326  ,2.3  ,4.8
1470  ,4.599e+09   ,2.3  ,-2.1824  ,4.8
1471  ,3.693e+09   ,2.3  ,-1.7784  ,4.8
1472  ,3.977e+09   ,2.3  ,-1.2138  ,4.8
1473  ,3.772e+09   ,2.3  ,-0.40752  ,4.8
1474  ,2.575e+09   ,2.3  ,0.70532  ,4.8
1516  ,3.087e+09   ,2.3  ,2.3  ,1.6866
1517  ,3.372e+09   ,2.3  ,2.3  ,3.1733
1518  ,1.050e+09   ,2.3  ,-2.1759  ,0.2
1519  ,5.229e+08   ,2.3  ,-1.7631  ,0.2
1520  ,6.622e+08   ,2.3  ,-1.1827  ,0.2
1521  ,2.138e+09   ,2.3  ,-0.34986  ,0.2
1522  ,2.977e+09   ,2.3  ,0.80545  ,0.2
1564  ,1.393e+09   ,-0.76667  ,2.3  ,0.2
1565  ,2.562e+09   ,0.76667  ,2.3  ,0.2
1566  ,1.512e+09   ,-2.3  ,2.3  ,1.7333
1567  ,2.628e+09   ,-2.3  ,2.3  ,3.2667
1574  ,5.917e+08   ,-2.3  ,-2.1759  ,0.2
1575  ,6.070e+08   ,-2.3  ,-1.7631  ,0.2
1576  ,4.397e+08   ,-2.3  ,-1.1827  ,0.2
1577  ,4.865e+08   ,-2.3  ,-0.34986  ,0.2
1578  ,6.206e+08   ,-2.3  ,0.80545  ,0.2
1777  ,4.478e+09   ,-0.52764  ,2.5  ,4.9
1801  ,2.933e+09   ,-2.3  ,1.5527  ,0.2
1825  ,2.662e+09   ,-1.5333  ,2.3  ,0.2
1841  ,2.147e+09   ,0.063638  ,2.5  ,4.9
1876  ,8.721e+08   ,-0.5  ,2.4  ,0
1894  ,2.217e+09   ,2.3  ,1.5527  ,0.2
1907  ,1.480e+09   ,2.1  ,2.5  ,0.1
1928  ,1.820e+09   ,1.9  ,2.4  ,0
1974  ,1.729e+09   ,2.4  ,1.1  ,0
1981  ,1.585e+09   ,2.4  ,2.5  ,0.59273
1987  ,1.852e+09   ,-2.5  ,2.4  ,4
2004  ,1.723e+09   ,-2.4  ,2.5  ,4.6
2009  ,1.642e+09   ,2.4  ,1.3  ,0
2020  ,2.009e+09   ,2.5  ,1.1  ,0.1
2035  ,1.468e+09   ,-2.3  ,-0.76628  ,0.2
2070  ,4.262e+09   ,1.6404  ,2.4  ,5
2081  ,2.911e+09   ,2.4  ,2.5  ,1.9724
2095  ,2.216e+09   ,2.4  ,2.5  ,0.78982
2138  ,1.920e+09   ,-2.4  ,-0.1  ,0
2146  ,4.332e+09   ,-0.92182  ,2.4  ,5
2174  ,3.719e+09   ,2.4  ,2.5  ,1.184
2190  ,2.914e+09   ,2.5  ,2.4  ,0.98691
2203  ,4.627e+09   ,2.5  ,-0.13345  ,4.9
2232  ,5.520e+09   ,2.3  ,0.1489  ,4.8
2242  ,2.010e+09   ,2.4  ,2.5  ,2.9578
2293  ,2.536e+09   ,-2.5  ,0.5  ,0.1
2311  ,6.120e+09   ,2.3  ,2.3  ,2.4299
2313  ,2.655e+09   ,2.5  ,2.4  ,0.78982
2329  ,2.500e+09   ,2.4  ,2.5  ,2.1695
2355  ,1.947e+09   ,-2.4  ,2.5  ,4.4
2380  ,1.352e+09   ,-2.5  ,-1.5  ,0.1
2383  ,1.875e+09   ,0.45782  ,2.5  ,4.9
2408  ,5.603e+09   ,2.3  ,-1.4961  ,4.8
2445  ,4.615e+09   ,2.5  ,-1.5131  ,4.9
2484  ,4.328e+08   ,-2.5  ,-2.4  ,1.6
2495  ,1.504e+09   ,-2.4  ,1.7  ,5
2508  ,1.665e+09   ,2.4  ,0.3  ,0
2514  ,3.990e+09   ,2.3  ,0.2278  ,0.2
2570  ,1.463e+09   ,-2.4  ,1.5  ,5
2580  ,4.003e+09   ,1.6404  ,2.5  ,4.9
2603  ,4.916e+09   ,-1.1189  ,2.5  ,4.9
2695  ,2.674e+09   ,2.3  ,2.3  ,0.94331
2705  ,4.838e+09   ,2.4  ,2.5  ,1.3811
2714  ,2.076e+09   ,2.5  ,0.45782  ,4.9
2734  ,8.315e+08   ,2.4  ,-0.9  ,0
2775  ,1.084e+09   ,2.5  ,-0.1  ,0.1
2779  ,1.273e+09   ,2.4  ,-0.1  ,0
2801  ,4.792e+09   ,1.4166  ,2.3  ,4.8
2814  ,2.782e+09   ,1.4433  ,2.5  ,4.9
2863  ,1.945e+09   ,-2.4  ,2.5  ,0.6
2884  ,2.124e+09   ,-2.4  ,2.5  ,0.8
2886  ,1.949e+09   ,-2.4  ,2.5  ,1.2
2967  ,1.513e+09   ,2.4  ,1.7  ,0
2973  ,1.451e+09   ,2.5  ,1.5  ,0.1
2987  ,9.831e+08   ,-0.3  ,2.5  ,0.1
3008  ,2.787e+09   ,-2.3  ,2.3  ,0.96667
3012  ,9.125e+08   ,-2.5  ,2.4  ,2.6
3021  ,1.042e+09   ,-2.5  ,2.4  ,2.8
3025  ,8.495e+08   ,-2.5  ,2.4  ,2.4
3030  ,6.292e+08   ,-2.4  ,2.5  ,2.4
3033  ,7.375e+08   ,-2.4  ,2.5  ,2.2
3047  ,2.259e+09   ,2.4  ,2.5  ,2.3665
3052  ,2.374e+09   ,2.5  ,2.4  ,2.5636
3061  ,2.182e+09   ,2.4  ,2.5  ,2.5636
3081  ,1.544e+09   ,-2.4  ,1.3  ,5
3088  ,1.344e+09   ,-1.9073  ,2.4  ,5
3099  ,1.502e+09   ,-2.4  ,1.9  ,5
3107  ,1.886e+09   ,-2.4  ,2.5  ,3.8
3139  ,2.841e+09   ,-1.5131  ,2.4  ,5
3145  ,2.932e+09   ,-1.5131  ,2.5  ,4.9
3148  ,2.144e+09   ,-1.7102  ,2.5  ,4.9
3168  ,1.814e+09   ,-2.4  ,1.5  ,0
3188  ,2.101e+09   ,-2.5  ,-2.4  ,1
3202  ,1.761e+09   ,0.26073  ,2.5  ,4.9
3212  ,3.315e+09   ,2.5  ,1.6404  ,4.9
3247  ,3.570e+09   ,2.5  ,1.8375  ,4.9
3265  ,4.341e+09   ,2.3  ,1.4326  ,4.8
3271  ,1.004e+10   ,2.2299  ,2.2299  ,4.8
3284  ,2.755e+09   ,2.4  ,1.4433  ,5
3291  ,2.750e+09   ,2.5  ,1.4433  ,4.9
3296  ,1.442e+09   ,-2.3  ,-0.76628  ,4.8
3303  ,9.209e+08   ,-2.4  ,-0.9  ,5
3311  ,7.854e+08   ,-2.4  ,-0.7  ,5
3315  ,1.806e+09   ,1.9  ,2.5  ,0.1
3336  ,2.042e+09   ,-2.4  ,0.3  ,0
3340  ,2.051e+09   ,-2.5  ,0.1  ,0.1
3344  ,2.066e+09   ,-2.4  ,0.1  ,0
3356  ,1.082e+09   ,-0.3  ,2.4  ,0
3361  ,2.834e+09   ,-0.33054  ,2.5  ,4.9
3364  ,2.197e+09   ,-0.13345  ,2.5  ,4.9
3383  ,2.003e+09   ,2.4  ,2.5  ,3.5491
3402  ,1.228e+10   ,2.4  ,2.5  ,4.5345
3421  ,3.853e+09   ,-1.316  ,2.5  ,4.9
3439  ,3.133e+09   ,2.5  ,2.4  ,3.9433
3447  ,3.206e+09   ,2.4  ,2.5  ,3.9433
3451  ,2.411e+09   ,2.4  ,2.5  ,3.7462
3468  ,3.001e+09   ,1.4433  ,2.4  ,5
3480  ,2.135e+09   ,1.0491  ,2.4  ,5
3519  ,1.732e+09   ,1.5  ,2.4  ,0
3527  ,4.501e+08   ,2.3  ,-1.4729  ,0.2
3550  ,1.881e+09   ,-1.7  ,2.4  ,0
3554  ,1.890e+09   ,-1.7  ,2.5  ,0.1
3558  ,2.026e+09   ,-1.5  ,2.4  ,0
3562  ,1.907e+09   ,-1.5  ,2.5  ,0.1
3574  ,1.063e+09   ,-2.4  ,2.1  ,5
3581  ,1.650e+09   ,-2.5  ,1.7  ,0.1
3583  ,1.451e+09   ,-2.5  ,1.9  ,0.1
3584  ,1.360e+09   ,-1.9073  ,2.5  ,4.9
3591  ,1.613e+09   ,2.5  ,0.3  ,0.1
3595  ,1.175e+09   ,2.5  ,0.1  ,0.1
3603  ,1.722e+10   ,2.4577  ,2.391  ,4.7576
3663  ,1.410e+09   ,-1.933  ,-2.5  ,0.2
3669  ,8.354e+08   ,-2.1765  ,-2.5  ,0.2
3672  ,5.602e+08   ,-2.3  ,-2.3379  ,0.2
3682  ,2.394e+09   ,-1.9  ,-2.4  ,0
3700  ,3.632e+09   ,2.3  ,-2.5  ,2.7424
3712  ,6.768e+08   ,-2.1  ,-2.5  ,4.9
3715  ,6.949e+08   ,-1.9  ,-2.5  ,4.9
3740  ,1.355e+09   ,-1.3  ,-2.4  ,5
3746  ,2.002e+09   ,-1.2085  ,-2.5  ,4.8
3755  ,1.618e+09   ,-1.5  ,-2.4  ,5
3760  ,7.716e+08   ,-1.7  ,-2.5  ,4.9
3786  ,3.989e+09   ,2.4  ,2.5  ,1.5782
3813  ,1.885e+09   ,0.26073  ,2.4  ,5
3858  ,1.740e+09   ,-0.9  ,-2.4  ,5
3863  ,1.748e+09   ,-2.5  ,0.9  ,4.9
3875  ,2.042e+09   ,-1.9  ,-2.4  ,5
3885  ,4.242e+09   ,2.4  ,-0.72473  ,5
3910  ,7.106e+08   ,-2.4  ,-2.5  ,3.4
3959  ,4.682e+09   ,2.5  ,2.4  ,4.1404
3969  ,2.357e+09   ,2.5  ,1.0491  ,4.9
3992  ,6.119e+09   ,2.391  ,2.2576  ,4.9577
3993  ,6.605e+09   ,2.4577  ,2.2576  ,4.891
4016  ,5.787e+08   ,-2.3015  ,2.5  ,4.9
4018  ,8.834e+08   ,-2.4  ,2.5  ,4.8
4021  ,2.493e+09   ,1.2462  ,2.4  ,5
4042  ,7.596e+08   ,2.4  ,-1.1  ,0
4046  ,1.923e+09   ,-0.9  ,2.4  ,0
4055  ,1.962e+09   ,1.7  ,-2.5  ,4.9
4087  ,1.911e+09   ,1.7  ,2.4  ,0
4114  ,3.906e+09   ,2.5  ,-0.33054  ,4.9
4120  ,5.458e+08   ,2.4  ,-2.5  ,1.8
4125  ,2.359e+09   ,2.4  ,2.5  ,0.98691
4144  ,7.787e+09   ,2.4  ,2.5  ,4.3375
4161  ,1.590e+09   ,-2.4  ,0.3  ,5
4201  ,1.275e+09   ,1.933  ,-2.5  ,0.2
4225  ,9.337e+08   ,-2.3  ,-2.4  ,0
4230  ,1.532e+09   ,-2.3  ,-2.5  ,0.56701
4269  ,5.325e+08   ,-0.9  ,-2.5  ,4.9
4277  ,1.543e+09   ,-1.1  ,-2.4  ,5
4288  ,4.741e+09   ,-0.070055  ,2.3  ,4.8
4328  ,1.454e+09   ,-2.5  ,-2.4  ,4.2
4336  ,1.867e+09   ,-2.5  ,-2.4  ,4.4
4342  ,2.435e+09   ,-2.5  ,-2.4  ,4.6
4348  ,2.770e+09   ,-2.4  ,-2.4707  ,4.9707
4352  ,1.285e+09   ,-2.3  ,-2.5  ,4.9
4354  ,3.412e+09   ,-2.1765  ,-2.5  ,4.8
4355  ,1.650e+09   ,-2.3  ,-2.3379  ,4.8
4362  ,1.457e+09   ,2.5  ,2.4  ,0.59273
4364  ,3.371e+09   ,2.5  ,-2.4  ,2.4
4366  ,2.945e+09   ,2.5  ,-2.4  ,2.2
4372  ,3.629e+08   ,2.4  ,-2.5  ,2.2
4385  ,1.162e+09   ,-2.5  ,-1.9  ,0.1
4399  ,1.207e+09   ,-2.5  ,2.1  ,0.1
4407  ,1.515e+09   ,-0.7  ,-2.4  ,0
4436  ,2.030e+09   ,-2.5  ,-0.1  ,0.1
4462  ,2.010e+09   ,-2.3  ,2.3  ,4.0333
4491  ,3.537e+09   ,2.5  ,-0.52764  ,4.9
4494  ,1.567e+09   ,2.5  ,-2.4  ,1.4
4503  ,3.682e+08   ,2.4  ,-2.5  ,1.4
4508  ,6.173e+08   ,2.4  ,-2.5  ,1.2
4515  ,2.004e+09   ,2.5  ,-2.4  ,1.8
4517  ,4.773e+08   ,2.4  ,-2.5  ,1.6
4522  ,4.620e+09   ,0.7  ,-2.4  ,0
4538  ,4.181e+09   ,-1.1189  ,2.4  ,5
4546  ,3.645e+09   ,2.4  ,2.5  ,4.1404
4559  ,1.484e+09   ,1.7  ,-2.4  ,0
4590  ,4.675e+09   ,0.5  ,-2.4  ,0
4631  ,3.108e+08   ,2.4  ,-2.5  ,2.6
4634  ,3.630e+09   ,2.5  ,-2.4  ,2.8
4657  ,2.145e+09   ,-2.5  ,-2.4  ,2
4660  ,1.320e+09   ,-2.5  ,-2.4  ,1.8
4664  ,3.661e+09   ,-0.3  ,-2.4  ,0
4675  ,1.450e+09   ,-2.4  ,-2.5  ,4.8
4681  ,1.854e+09   ,-2.5  ,-0.3  ,0.1
4684  ,1.671e+09   ,1.7  ,-2.4  ,5
4703  ,2.194e+09   ,-2.4  ,0.7  ,5
4707  ,1.895e+09   ,-2.5  ,0.3  ,4.9
4714  ,3.465e+09   ,2.4  ,-0.33054  ,5
4723  ,3.877e+09   ,-1.5567  ,2.3  ,4.8
4739  ,8.608e+08   ,-2.1044  ,2.5  ,4.9
4763  ,1.976e+09   ,-1.9  ,2.4  ,0
4780  ,5.299e+08   ,-2.3  ,-1.9695  ,0.2
4782  ,4.487e+08   ,-2.4707  ,-2.4  ,0.029289
4784  ,1.082e+09   ,-2.4  ,-1.9  ,0
4791  ,7.765e+08   ,-2.4  ,-2.5  ,1.8
4796  ,5.452e+09   ,2.4707  ,-2.4707  ,4.9
4799  ,7.224e+09   ,2.5  ,-2.4  ,4.8
4806  ,3.698e+09   ,2.3  ,-2.5  ,4.9
4809  ,4.940e+09   ,2.3  ,2.3  ,3.9166
4833  ,1.839e+09   ,-2.4  ,2.5  ,0.4
4841  ,8.243e+08   ,-2.4  ,2.5  ,2.6
4846  ,1.169e+09   ,-2.5  ,2.1  ,4.9
4848  ,7.609e+08   ,-2.5  ,2.3  ,4.9
4849  ,9.062e+08   ,-2.5  ,2.4  ,4.8
4893  ,2.064e+09   ,-2.4  ,2.5  ,4.2
4897  ,3.505e+09   ,2.3333  ,2.1998  ,5
4900  ,1.760e+10   ,2.391  ,2.4577  ,4.7576
4908  ,1.748e+10   ,2.2576  ,2.391  ,4.9577
4911  ,1.807e+10   ,2.2576  ,2.4577  ,4.891
4926  ,2.151e+09   ,-2.5  ,2.4  ,1
4932  ,1.593e+09   ,-2.4  ,2.5  ,1.6
4937  ,1.953e+09   ,-1.1  ,2.5  ,0.1
4939  ,9.550e+09   ,2.3  ,2.2299  ,4.7299
4944  ,5.306e+09   ,2.5  ,-1.9073  ,4.9
4987  ,2.061e+09   ,-2.3  ,1.5527  ,4.8
5010  ,2.817e+09   ,2.4973  ,2.1331  ,4.923
5013  ,3.650e+09   ,2.5  ,2.0345  ,4.9
5017  ,3.415e+09   ,2.4  ,2.0345  ,5
5035  ,2.751e+09   ,1.3  ,-2.4  ,0
5038  ,2.771e+09   ,1.2085  ,-2.5  ,0.2
5092  ,2.037e+08   ,-2.4  ,-2.5  ,1.2
5123  ,2.340e+09   ,2.5  ,-2.4  ,0.6
5151  ,1.877e+09   ,-2.5  ,-0.5  ,0.1
5160  ,1.764e+09   ,-2.5  ,-0.7  ,0.1
5164  ,2.143e+09   ,-2.4  ,0.9  ,5
5168  ,1.569e+09   ,-2.4  ,0.5  ,5
5176  ,6.572e+08   ,2.5  ,-0.7  ,0.1
5179  ,8.708e+08   ,2.4  ,-0.5  ,0
5189  ,5.104e+08   ,2.4  ,-2.5  ,2.4
5194  ,3.683e+09   ,2.3  ,-2.5  ,2.2576
5198  ,6.757e+08   ,-2.3  ,-2.5  ,0.32348
5205  ,7.976e+08   ,-2.4  ,-2.5  ,0.2
5207  ,1.332e+09   ,-2.1  ,-2.5  ,0.1
5246  ,2.390e+09   ,-2.5  ,2.4  ,3.2
5257  ,1.367e+09   ,-2.5  ,1.5  ,4.9
5263  ,2.202e+09   ,-2.3  ,0.2278  ,0.2
5272  ,2.089e+09   ,-2.5  ,0.3  ,0.1
5275  ,2.003e+09   ,-2.5  ,0.5  ,4.9
5281  ,5.296e+09   ,1.8375  ,2.5  ,4.9
5297  ,1.828e+09   ,-0.9  ,2.5  ,0.1
5306  ,1.032e+09   ,-0.7  ,2.4  ,0
5309  ,9.121e+08   ,-0.5  ,2.5  ,0.1
5324  ,1.857e+09   ,2.4  ,2.5  ,2.7607
5332  ,1.890e+09   ,2.5  ,-2.4  ,0.8
5334  ,9.600e+08   ,2.4  ,-2.5  ,1
5360  ,4.786e+09   ,2.4  ,-1.7102  ,5
5362  ,4.992e+09   ,2.4  ,-1.5131  ,5
5368  ,3.843e+09   ,2.4  ,1.8375  ,5
5371  ,3.884e+10   ,2.4325  ,2.4888  ,4.6656
5372  ,2.124e+10   ,2.3333  ,2.5  ,4.6998
5376  ,1.881e+10   ,2.4707  ,2.4707  ,4.6331
5377  ,1.031e+10   ,2.5  ,2.4  ,4.5345
5379  ,8.380e+08   ,-1.5  ,-2.5  ,4.9
5406  ,4.039e+09   ,-2.5  ,-2.4  ,3.4
5420  ,3.354e+09   ,-2.3  ,-2.5  ,3.2226
5423  ,1.994e+09   ,1.5  ,-2.4  ,0
5502  ,5.128e+08   ,-2.5  ,-2.3  ,0.1
5504  ,7.474e+08   ,-2.5  ,-2.4  ,0.2
5506  ,6.222e+08   ,-2.4  ,-2.3  ,0
5511  ,8.394e+08   ,-2.5  ,-2.1  ,0.1
5513  ,1.997e+09   ,-2.4  ,0.5  ,0
5517  ,7.943e+08   ,-0.9  ,-2.5  ,0.1
5532  ,3.196e+08   ,-2.4707  ,2.4707  ,4.9
5534  ,8.460e+08   ,2.4  ,-0.7  ,0
5551  ,1.788e+09   ,2.5  ,-2.4  ,3.8
5566  ,3.390e+09   ,2.5  ,2.4  ,1.3811
5603  ,9.609e+08   ,2.4  ,-0.3  ,0
5617  ,1.829e+09   ,-2.1  ,2.5  ,0.1
5637  ,4.258e+08   ,-2.3  ,-1.9695  ,4.8
5641  ,1.448e+09   ,2.3  ,-2.5  ,3.4636
5645  ,1.228e+09   ,-2.4  ,-2.5  ,2
5649  ,1.458e+09   ,-2.4  ,-2.5  ,2.2
5659  ,2.905e+08   ,-2.3  ,-2.5  ,1.7774
5662  ,9.246e+09   ,2.1765  ,-2.5  ,4.8
5666  ,3.711e+09   ,2.4  ,-2.5  ,4.8
5669  ,5.218e+09   ,2.3  ,-2.3412  ,4.8
5695  ,2.004e+09   ,-2.4  ,0.7  ,0
5701  ,1.760e+09   ,-2.5  ,2.4  ,1.6
5715  ,1.138e+09   ,-2.4  ,2.5  ,1.8
5726  ,1.204e+09   ,-0.7  ,2.5  ,0.1
5727  ,2.283e+09   ,-1.1  ,2.4  ,0
5730  ,2.698e+09   ,2.3  ,-2.5  ,1.7774
5746  ,3.608e+09   ,2.5  ,2.4  ,1.7753
5755  ,4.325e+09   ,2.5  ,-2.4  ,4.4
5763  ,1.902e+09   ,2.4  ,-2.5  ,4.4
5773  ,1.921e+09   ,1.0491  ,2.5  ,4.9
5791  ,3.588e+09   ,-0.72473  ,2.4  ,5
5795  ,5.970e+09   ,1.8375  ,2.4  ,5
5803  ,2.875e+09   ,-0.3  ,-2.4  ,5
5810  ,3.241e+09   ,2.4  ,1.6404  ,5
5836  ,1.285e+09   ,-2.5  ,1.3  ,4.9
5860  ,1.829e+09   ,2.5  ,-2.4  ,1.6
5866  ,1.618e+09   ,1.5  ,-2.5  ,0.1
5884  ,9.680e+08   ,-2.4  ,-0.3  ,5
5888  ,9.646e+08   ,-2.5  ,-0.5  ,4.9
5901  ,3.954e+09   ,2.3  ,-2.5  ,2.5
5908  ,1.434e+09   ,2.5  ,-2.4  ,1.2
5909  ,2.373e+09   ,2.5  ,-2.4  ,2
5934  ,1.886e+09   ,1.9  ,-2.5  ,4.9
5938  ,6.482e+09   ,1.933  ,-2.5  ,4.8
5948  ,1.626e+09   ,-2.4  ,-2.5  ,4.6
5950  ,2.053e+09   ,-2.4707  ,-2.4707  ,4.9
5951  ,2.447e+09   ,-2.5  ,-2.4  ,4.8
5952  ,1.485e+09   ,-2.5  ,-2.3  ,4.9
5986  ,5.164e+08   ,2.3  ,-2.5  ,3.7085
5990  ,4.371e+09   ,-0.92182  ,2.5  ,4.9
6019  ,1.221e+09   ,2.5  ,1.9  ,0.1
6025  ,7.547e+08   ,2.4  ,-1.3  ,0
6035  ,1.452e+09   ,-2.5  ,1.9  ,4.9
6044  ,5.277e+08   ,0.1  ,2.5  ,0.1
6054  ,1.434e+09   ,2.4  ,0.1  ,0
6070  ,7.554e+08   ,-2.4  ,2.3  ,0
6071  ,1.159e+09   ,-2.3  ,2.4  ,0
6076  ,1.278e+09   ,-2.4  ,2.1  ,0
6083  ,3.036e+09   ,2.1  ,-2.4  ,0
6084  ,6.854e+08   ,2.4  ,2.3  ,0
6087  ,8.076e+08   ,2.3  ,2.4  ,0
6092  ,8.413e+08   ,-2.4  ,-2.5  ,0.4
6096  ,9.864e+08   ,-2.3  ,-2.5  ,0.1
6099  ,6.381e+08   ,0.7  ,-2.5  ,0.1
6149  ,1.877e+09   ,-2.4  ,-0.9  ,0
6159  ,4.978e+09   ,-2.5  ,-2.4  ,2.6
6183  ,2.279e+09   ,1.2462  ,2.5  ,4.9
6224  ,7.380e+08   ,2.5  ,-2.4  ,4
6228  ,1.759e+09   ,2.4  ,-2.5  ,3.8
6237  ,2.507e+09   ,2.5  ,0.7  ,0.1
6241  ,8.046e+09   ,2.5  ,2.3333  ,4.6998
6245  ,3.374e+09   ,2.5  ,2.4  ,1.5782
6259  ,5.328e+09   ,2.5  ,-2.1044  ,4.9
6265  ,4.782e+09   ,2.3  ,-1.9804  ,4.8
6267  ,5.343e+09   ,2.5  ,-2.3015  ,4.9
6268  ,4.858e+09   ,2.4707  ,-2.4  ,4.9707
6270  ,5.352e+09   ,2.4  ,-2.1044  ,5
6317  ,2.926e+09   ,-2.3  ,0.2278  ,4.8
6349  ,3.651e+09   ,-0.52764  ,2.4  ,5
6391  ,3.533e+09   ,2.4  ,2.5  ,1.7753
6440  ,1.888e+09   ,-2.5  ,2.4  ,3.8
6471  ,4.457e+09   ,2.5  ,-0.92182  ,4.9
6489  ,2.419e+09   ,2.5  ,1.2462  ,4.9
6523  ,7.638e+08   ,-1.1  ,-2.4  ,0
6528  ,3.888e+08   ,-1.1  ,-2.5  ,0.1
6535  ,3.576e+08   ,-0.9  ,-2.4  ,0
6538  ,6.767e+08   ,1.5  ,-2.4  ,5
6541  ,2.105e+09   ,1.5  ,-2.5  ,4.9
6551  ,3.988e+09   ,2.5  ,-0.72473  ,4.9
6564  ,3.958e+10   ,2.1331  ,2.4973  ,4.923
6565  ,1.251e+10   ,2.0345  ,2.5  ,4.9
6572  ,8.764e+08   ,2.4  ,-1.7  ,0
6581  ,2.414e+09   ,0  ,2.3  ,0.2
6592  ,6.028e+08   ,2.3  ,-1.9695  ,0.2
6594  ,9.402e+08   ,0.3  ,2.4  ,0
6601  ,1.532e+09   ,0.5  ,2.5  ,0.1
6605  ,1.504e+09   ,-2.4  ,-1.3  ,0
6606  ,1.698e+09   ,-2.4  ,-1.1  ,0
6615  ,2.159e+09   ,-2.4  ,-0.3  ,0
6634  ,2.913e+09   ,2.1  ,-2.5  ,4.9
6635  ,5.476e+09   ,2.4  ,-2.4707  ,4.9707
6636  ,7.132e+09   ,2.3  ,-2.4  ,5
6647  ,5.898e+08   ,0.5  ,-2.5  ,0.1
6704  ,6.813e+08   ,-2.4707  ,2.4707  ,0.1
6708  ,1.194e+09   ,-2.5  ,2.4  ,0.2
6712  ,2.050e+09   ,-2.4  ,2.5  ,3.6
6715  ,2.493e+09   ,-2.4  ,2.5  ,3.4
6728  ,2.117e+09   ,-2.5  ,0.7  ,4.9
6753  ,8.991e+08   ,-2.1044  ,2.4  ,5
6788  ,6.898e+09   ,2.5  ,2.4  ,4.3375
6791  ,2.908e+09   ,-1.933  ,-2.5  ,4.8
6795  ,2.108e+10   ,2.1998  ,2.5  ,4.8333
6837  ,1.953e+09   ,-2.3  ,-2.5  ,0.8063
6869  ,4.983e+09   ,2.5  ,-1.7102  ,4.9
6873  ,5.711e+09   ,2.4  ,-1.9073  ,5
6880  ,4.491e+09   ,2.4  ,-0.92182  ,5
6885  ,3.954e+09   ,2.4  ,-0.52764  ,5
6893  ,2.347e+09   ,2.4  ,1.2462  ,5
6914  ,2.668e+09   ,0.7  ,2.5  ,0.1
6920  ,2.524e+09   ,0.9  ,2.4  ,0
6923  ,2.614e+09   ,0.7  ,2.4  ,0
6936  ,9.212e+08   ,2.4  ,-2.5  ,3.4
6939  ,2.393e+09   ,2.3  ,-2.5  ,3.2226
6961  ,6.197e+08   ,-0.1  ,-2.5  ,4.9
6967  ,1.058e+09   ,-2.5  ,-1.5  ,4.9
6975  ,1.741e+09   ,-2.4  ,1.1  ,5
6978  ,1.464e+09   ,-2.4  ,2.5  ,0.2
6987  ,4.793e+09   ,2.4  ,-1.316  ,5
6994  ,9.579e+08   ,2.4  ,-1.5  ,0
7004  ,1.560e+09   ,2.4  ,-2.5  ,3.6
7011  ,1.897e+09   ,2.4  ,0.65491  ,5
7016  ,1.959e+09   ,2.4  ,0.45782  ,5
7019  ,2.914e+09   ,2.5  ,2.4  ,2.1695
7021  ,3.067e+09   ,2.5  ,2.4  ,1.9724
7052  ,1.866e+09   ,-1.3  ,2.5  ,0.1
7054  ,9.706e+08   ,-2.4  ,-2.5  ,0.8
7057  ,6.782e+08   ,0.3  ,-2.5  ,0.1
7065  ,3.211e+09   ,0.24243  ,-2.5  ,0.2
7075  ,3.016e+10   ,2.4888  ,2.4325  ,4.6656
7113  ,1.139e+09   ,-2.4  ,-2.5  ,2.6
7121  ,9.853e+08   ,-2.4  ,-2.5  ,2.8
7126  ,5.077e+09   ,-2.5  ,-2.4  ,2.8
7128  ,4.013e+08   ,-2.4707  ,-2.4707  ,0.1
7129  ,4.630e+08   ,-2.4  ,-2.4707  ,0.029289
7141  ,1.953e+09   ,-1.7  ,-2.4  ,5
7145  ,1.888e+09   ,1.1  ,2.4  ,0
7163  ,1.764e+09   ,-1.7102  ,2.4  ,5
7172  ,3.378e+09   ,2.5  ,-2.4  ,3.2
7174  ,1.923e+09   ,-2.5  ,2.4  ,3.6
7183  ,2.120e+09   ,-1.4531  ,-2.5  ,4.8
7204  ,8.765e+09   ,2.3  ,-0.81068  ,4.8
7220  ,3.127e+09   ,2.5  ,0.063638  ,4.9
7227  ,1.468e+09   ,2.5  ,-1.9  ,0.1
7256  ,3.213e+09   ,-0.1  ,-2.4  ,5
7280  ,3.068e+09   ,-0.33054  ,2.4  ,5
7299  ,4.656e+09   ,2.5  ,-1.1189  ,4.9
7316  ,2.503e+09   ,-2.5  ,-2.4  ,0.8
7323  ,5.313e+08   ,-2.4  ,-2.5  ,1
7396  ,3.038e+09   ,1.1  ,-2.4  ,5
7400  ,2.113e+09   ,-2.5  ,0.7  ,0.1
7409  ,2.037e+09   ,1.3  ,-2.4  ,5
7420  ,1.227e+09   ,2.5  ,2.1  ,0.1
7429  ,1.544e+09   ,2.4  ,1.9  ,0
7436  ,1.223e+09   ,2.5  ,-1.7  ,0.1
7438  ,4.111e+08   ,2.4  ,-2.5  ,2.8
7445  ,3.757e+09   ,2.4325  ,2.1656  ,4.9888
7464  ,7.637e+08   ,2.5  ,-1.5  ,0.1
7480  ,2.550e+09   ,2.5  ,-2.4  ,0.2
7482  ,1.602e+09   ,1.9  ,-2.5  ,0.1
7483  ,1.708e+09   ,1.7  ,-2.5  ,0.1
7486  ,4.108e+09   ,1.9  ,-2.4  ,5
7488  ,4.684e+09   ,1.6937  ,-2.5  ,4.8
7492  ,8.180e+09   ,2.1  ,-2.4  ,5
7495  ,8.646e+08   ,0.1  ,-2.5  ,0.1
7504  ,4.589e+09   ,0.3  ,-2.4  ,0
7507  ,9.425e+08   ,0.9  ,-2.5  ,0.1
7533  ,1.963e+09   ,-2.5  ,0.9  ,0.1
7536  ,8.429e+08   ,-2.4  ,-2.5  ,3.2
7540  ,7.710e+08   ,-2.4  ,-2.5  ,3
7545  ,5.021e+09   ,-2.5  ,-2.4  ,3
7582  ,1.957e+09   ,1.3  ,2.5  ,0.1
7588  ,2.833e+09   ,2.5  ,2.4  ,2.3665
7598  ,1.936e+09   ,-2.5  ,2.4  ,4.2
7607  ,2.024e+09   ,1.5333  ,2.3  ,0.2
7627  ,1.345e+09   ,-2.5  ,1.1  ,4.9
7651  ,1.164e+09   ,2.4  ,-1.9  ,0
7656  ,9.828e+08   ,2.5  ,2.4  ,0.39564
7660  ,9.700e+09   ,2.2299  ,2.3  ,4.7299
7668  ,2.581e+09   ,1.4531  ,-2.5  ,4.8
7676  ,3.468e+08   ,0.1  ,-2.5  ,4.9
7683  ,3.594e+09   ,0.1  ,-2.4  ,5
7686  ,9.134e+08   ,-2.4  ,-1.1  ,5
7702  ,1.194e+09   ,-2.3  ,-2.5  ,4.433
7710  ,2.710e+09   ,-2.3  ,-2.5  ,4.6765
7752  ,3.647e+09   ,0.9  ,-2.4  ,5
7763  ,3.522e+09   ,0.24243  ,-2.5  ,4.8
7767  ,4.489e+09   ,-2.5  ,-2.4  ,3.2
7768  ,9.504e+08   ,-2.4  ,-2.1  ,0
7776  ,2.128e+09   ,-2.4  ,0.9  ,0
7786  ,3.244e+09   ,-0.4838  ,-2.5  ,4.8
7800  ,8.334e+09   ,2.5  ,-2.4  ,4.6
7805  ,7.223e+08   ,-2.5  ,-1.3  ,4.9
7811  ,9.721e+08   ,-2.5  ,-1.1  ,4.9
7820  ,1.701e+09   ,2.5  ,-2.1  ,0.1
7824  ,1.182e+09   ,2.4  ,-2.1  ,0
7828  ,2.062e+09   ,2.4  ,-2.5  ,4.2
7831  ,2.034e+09   ,2.4  ,-2.5  ,4
7838  ,1.909e+09   ,2.5  ,-2.4  ,4.2
7839  ,2.155e+09   ,2.5  ,2.4  ,2.7607
7840  ,2.107e+09   ,2.5  ,2.4  ,2.9578
7863  ,1.361e+09   ,-2.4  ,-1.5  ,0
7890  ,2.035e+09   ,2.4  ,0.9  ,0
7897  ,1.840e+09   ,-2.4  ,-0.7  ,0
7912  ,2.046e+09   ,-1.5  ,-2.4  ,0
7917  ,2.535e+08   ,-1.3  ,-2.5  ,0.1
7931  ,1.475e+09   ,0.5  ,2.4  ,0
7934  ,3.370e+09   ,1.1  ,-2.4  ,0
7937  ,9.753e+08   ,2.4  ,-2.5  ,0.8
7941  ,1.159e+09   ,-2.4  ,-2.5  ,0.6
7969  ,7.694e+08   ,-2.5  ,2.3  ,0.1
7971  ,1.466e+09   ,-2.4  ,1.9  ,0
7972  ,2.020e+09   ,-1.9  ,2.5  ,0.1
7978  ,2.053e+09   ,-2.4  ,1.1  ,0
7996  ,5.993e+08   ,-2.4  ,-0.5  ,5
8000  ,2.339e+09   ,-2.5  ,-2.4  ,0.6
8003  ,1.623e+09   ,-2.5  ,-2.4  ,0.4
8025  ,2.971e+09   ,0.9  ,2.5  ,0.1
8035  ,8.166e+08   ,0.3  ,2.5  ,0.1
8039  ,2.952e+09   ,2.3  ,-2.5  ,0.32348
8041  ,1.457e+09   ,2.3  ,-2.3379  ,0.2
8043  ,2.553e+09   ,2.1765  ,-2.5  ,0.2
8045  ,9.080e+08   ,-0.96359  ,-2.5  ,0.2
8054  ,1.570e+09   ,1.3  ,2.4  ,0
8058  ,2.366e+09   ,1.1  ,2.5  ,0.1
8062  ,2.334e+09   ,-2.5  ,2.4  ,1.4
8067  ,2.110e+09   ,-2.5  ,2.4  ,0.8
8087  ,1.788e+09   ,-2.5  ,1.5  ,0.1
8132  ,2.758e+09   ,-0.13345  ,2.4  ,5
8183  ,6.649e+08   ,2.5  ,-0.9  ,0.1
8184  ,1.305e+09   ,1.6937  ,-2.5  ,0.2
8214  ,1.732e+09   ,-2.4707  ,-2.4  ,4.9707
8217  ,2.561e+09   ,-2.1  ,-2.4  ,5
8219  ,1.578e+09   ,-2.4  ,-2.5  ,4.4
8227  ,1.886e+09   ,2.5  ,2.4  ,3.1549
8242  ,4.752e+08   ,0.7  ,-2.5  ,4.9
8248  ,2.721e+09   ,2.5  ,-2.4  ,3.6
8254  ,6.657e+08   ,2.5  ,-0.3  ,0.1
8256  ,5.514e+08   ,2.5  ,-0.5  ,0.1
8258  ,3.435e+08   ,-0.3  ,-2.5  ,4.9
8263  ,7.222e+08   ,-0.5  ,-2.5  ,4.9
8268  ,2.714e+09   ,-2.3  ,-2.5  ,3.7085
8277  ,9.465e+08   ,-0.1  ,-2.5  ,0.1
8285  ,1.958e+09   ,1.1  ,-2.5  ,4.9
8307  ,7.498e+08   ,0.1  ,2.4  ,0
8308  ,1.154e+09   ,-0.1  ,2.5  ,0.1
8309  ,9.257e+08   ,-0.1  ,2.4  ,0
8313  ,1.691e+09   ,2.5  ,-2.3  ,0.1
8318  ,3.474e+09   ,2.5  ,-2.4  ,3
8338  ,1.944e+09   ,2.5  ,2.4  ,3.352
8339  ,1.960e+09   ,2.4  ,2.5  ,3.1549
8344  ,2.334e+09   ,-2.5  ,2.4  ,3.4
8357  ,3.885e+09   ,2.4888  ,2.1656  ,4.9325
8358  ,3.815e+09   ,2.5  ,2.1998  ,4.8333
8383  ,2.440e+09   ,-1.7  ,-2.4  ,0
8396  ,9.165e+08   ,1.1  ,-2.5  ,0.1
8399  ,2.371e+09   ,2.4526  ,2.1331  ,4.9851
8405  ,1.662e+09   ,2.5  ,-2.4  ,1
8412  ,2.414e+09   ,2.3  ,-2.5  ,0.8063
8417  ,2.956e+09   ,-2.3  ,-2.5  ,2.5
8434  ,1.710e+09   ,0.9636  ,-2.5  ,4.8
8438  ,1.259e+09   ,-0.3  ,-2.5  ,0.1
8452  ,1.452e+09   ,-2.4  ,-0.1  ,5
8468  ,2.742e+09   ,2.5  ,2.4  ,3.7462
8471  ,5.646e+08   ,-1.3  ,-2.5  ,4.9
8493  ,5.364e+08   ,-1.1  ,-2.5  ,4.9
8509  ,1.128e+09   ,-2.5  ,-1.7  ,0.1
8517  ,1.428e+09   ,-2.4  ,2.5  ,3
8531  ,1.587e+09   ,-2.4  ,1.7  ,0
8556  ,2.480e+09   ,2.5  ,2.4  ,3.5491
8573  ,3.466e+09   ,-1.316  ,2.4  ,5
8576  ,2.057e+09   ,-2.4  ,1.3  ,0
8611  ,1.794e+09   ,2.3  ,-2.5  ,1.2915
8618  ,1.956e+09   ,-2.4  ,2.5  ,4
8646  ,2.090e+09   ,-2.5  ,1.1  ,0.1
8656  ,8.523e+08   ,2.5  ,-1.3  ,0.1
8657  ,1.384e+09   ,2.4  ,2.1  ,0
8673  ,2.160e+09   ,-1.3  ,2.4  ,0
8692  ,2.822e+09   ,0.72263  ,-2.5  ,4.8
8696  ,2.000e+09   ,2.3  ,-2.5  ,1.0469
8706  ,2.054e+09   ,2.5  ,0.65491  ,4.9
8721  ,7.226e+08   ,-2.4  ,-2.5  ,1.6
8725  ,1.670e+09   ,0.65491  ,2.4  ,5
8739  ,2.894e+10   ,2.1656  ,2.4325  ,4.9888
8741  ,8.119e+09   ,2.1998  ,2.3333  ,5
8746  ,1.912e+09   ,-2.1  ,-2.4  ,0
8748  ,1.446e+09   ,-2.5  ,-2.4  ,1.2
8752  ,3.067e+10   ,2.1331  ,2.4526  ,4.9851
8759  ,1.612e+09   ,-2.3  ,-2.5  ,1.0469
8787  ,4.487e+09   ,-0.1  ,-2.4  ,0
8793  ,2.174e+09   ,-2.3  ,-2.5  ,2.2576
8795  ,1.625e+09   ,-2.4  ,-2.5  ,2.4
8798  ,1.264e+09   ,-2.3  ,-2.5  ,4.1937
8808  ,2.258e+09   ,-2.3  ,-2.5  ,3.9531
8814  ,1.028e+09   ,-2.4  ,-1.5  ,5
8849  ,3.183e+09   ,0.4838  ,-2.5  ,4.8
8851  ,1.758e+09   ,-2.4  ,-2.5  ,4.2
8868  ,2.971e+08   ,2.4  ,-2.5  ,3
8874  ,1.793e+09   ,0.852  ,2.4  ,5
8883  ,2.391e+09   ,-0.5  ,-2.4  ,5
8886  ,2.662e+09   ,-0.72262  ,-2.5  ,4.8
8893  ,5.646e+08   ,-0.7  ,-2.5  ,4.9
8897  ,3.263e+09   ,-2.5  ,-2.4  ,3.6
8899  ,2.918e+09   ,-2.3  ,-2.5  ,3.4636
8900  ,5.023e+08   ,-2.3  ,-1.4729  ,0.2
8906  ,1.520e+09   ,-2.5  ,-1.3  ,0.1
8910  ,1.875e+09   ,0.852  ,2.5  ,4.9
8925  ,1.825e+09   ,-2.4  ,2.5  ,1.4
8941  ,3.168e+08   ,2.4707  ,2.4  ,0.029289
8942  ,6.884e+08   ,2.5  ,2.3  ,0.1
8945  ,1.697e+09   ,-2.5  ,0.1  ,4.9
8950  ,3.726e+08   ,2.4707  ,2.4707  ,0.1
8951  ,2.839e+08   ,2.4  ,2.4707  ,0.029289
8959  ,2.090e+09   ,2.4  ,0.26073  ,5
8965  ,1.817e+09   ,0.45782  ,2.4  ,5
8978  ,1.502e+09   ,2.4  ,0.852  ,5
8983  ,7.383e+08   ,2.5  ,-1.1  ,0.1
8991  ,2.043e+09   ,-2.5  ,2.4  ,0.6
9008  ,1.955e+09   ,2.5  ,0.852  ,4.9
9011  ,1.923e+09   ,-2.4  ,-0.5  ,0
9025  ,2.306e+08   ,-1.5  ,-2.5  ,0.1
9038  ,7.292e+08   ,2.4  ,-2.5  ,2
9041  ,2.516e+09   ,2.5  ,0.9  ,0.1
9050  ,1.877e+09   ,2.5  ,0.5  ,0.1
9054  ,3.863e+09   ,0.9  ,-2.4  ,0
9060  ,9.824e+08   ,2.4  ,-2.5  ,0.4
9062  ,2.721e+09   ,2.3  ,-2.5  ,0.56701
9064  ,2.760e+09   ,2.5  ,-2.4  ,0.4
9069  ,6.189e+08   ,2.4  ,-2.5  ,0.6
9071  ,2.292e+09   ,1.4531  ,-2.5  ,0.2
9082  ,1.410e+09   ,-2.3  ,-2.5  ,1.2915
9086  ,3.351e+08   ,-2.4  ,-2.5  ,1.4
9091  ,7.681e+08   ,-2.5  ,-2.4  ,1.4
9094  ,2.154e+09   ,1.3  ,-2.5  ,4.9
9097  ,1.141e+09   ,-0.7  ,-2.5  ,0.1
9137  ,1.102e+09   ,-2.5  ,-0.7  ,4.9
9143  ,1.360e+09   ,-2.5  ,-0.1  ,4.9
9146  ,1.780e+09   ,-2.1  ,2.4  ,0
9148  ,1.515e+09   ,-2.5  ,1.7  ,4.9
9173  ,1.443e+09   ,-2.5  ,2.4  ,3
9192  ,1.950e+09   ,-0.7  ,-2.4  ,5
9195  ,3.541e+09   ,0.72263  ,-2.5  ,0.2
9209  ,3.153e+09   ,2.5  ,-2.4  ,3.4
9215  ,3.117e+09   ,0.9636  ,-2.5  ,0.2
9217  ,5.696e+08   ,2.4  ,-2.5  ,3.2
9218  ,2.338e+09   ,-0.96359  ,-2.5  ,4.8
9229  ,1.096e+09   ,-2.4  ,2.5  ,2.8
9248  ,6.681e+09   ,2.3  ,-2.5  ,4.433
9255  ,1.894e+09   ,2.5  ,1.3  ,0.1
9257  ,1.345e+09   ,2.4  ,1.5  ,0
9262  ,3.313e+09   ,0.5  ,-2.4  ,5
9264  ,2.676e+09   ,2.4  ,-0.13345  ,5
9272  ,1.869e+09   ,0.063638  ,2.4  ,5
9277  ,2.167e+09   ,-2.5  ,2.4  ,1.2
9279  ,2.445e+09   ,2.5  ,0.26073  ,4.9
9282  ,8.130e+08   ,1.2085  ,-2.5  ,4.8
9286  ,1.236e+09   ,0.9  ,-2.5  ,4.9
9292  ,3.513e+08   ,-2.4  ,2.4707  ,4.9707
9293  ,3.384e+08   ,-2.3015  ,2.4  ,5
9296  ,1.567e+09   ,-2.4  ,-2.1  ,5
9303  ,1.421e+09   ,-2.4  ,-1.9  ,5
9311  ,5.617e+08   ,-2.4  ,2.3  ,5
9313  ,1.693e+09   ,-2.4  ,0.1  ,5
9319  ,2.632e+09   ,-0.5  ,-2.4  ,0
9328  ,8.297e+08   ,-2.3  ,-2.5  ,1.5364
9334  ,1.504e+09   ,-2.3  ,2.5  ,0.1
9338  ,4.480e+09   ,-2.5  ,-2.4  ,2.4
9339  ,1.871e+09   ,-2.5  ,1.3  ,0.1
9341  ,3.388e+09   ,-2.3  ,-2.5  ,2.7424
9344  ,3.373e+09   ,-2.5  ,-2.4  ,2.2
9358  ,3.458e+09   ,-2.3  ,2.3  ,2.5
9364  ,1.176e+09   ,-2.5  ,-2.1  ,4.9
9367  ,1.866e+09   ,-2.4  ,-2.3  ,5
9374  ,8.346e+08   ,-2.4  ,-1.3  ,5
9378  ,9.160e+08   ,-2.5  ,2.4  ,1.8
9384  ,3.242e+09   ,2.3  ,-2.5  ,2.0162
9385  ,1.929e+09   ,-2.5  ,2.4  ,4.4
9389  ,9.609e+08   ,-2.5  ,2.4  ,2
9395  ,5.011e+09   ,2.4  ,-2.3015  ,5
9396  ,1.093e+09   ,-2.4  ,-1.7  ,0
9407  ,4.888e+08   ,-2.3  ,-1.4729  ,4.8
9411  ,7.186e+08   ,-2.5  ,-1.7  ,4.9
9423  ,6.740e+08   ,-2.4  ,-2.5  ,3.6
9432  ,3.653e+09   ,0.7  ,-2.4  ,5
9438  ,1.013e+09   ,-2.5  ,-0.9  ,4.9
9443  ,1.114e+09   ,-2.5  ,-0.3  ,4.9
9445  ,2.692e+08   ,-2.4707  ,2.4  ,4.9707
9448  ,4.525e+09   ,2.4  ,-1.1189  ,5
9453  ,2.332e+09   ,2.4  ,0.7  ,0
9455  ,3.710e+09   ,2.5  ,-2.4  ,2.6
9457  ,3.115e+09   ,2.3  ,-2.5  ,2.9838
9494  ,1.984e+09   ,-2.4  ,2.5  ,1
9500  ,3.199e+08   ,0.3  ,-2.5  ,4.9
9504  ,3.538e+09   ,0.3  ,-2.4  ,5
9506  ,9.881e+08   ,2.1  ,-2.5  ,0.1
9518  ,1.131e+09   ,-1.9  ,-2.5  ,0.1
9528  ,1.555e+09   ,2.3  ,-2.5  ,0.1
9531  ,2.666e+09   ,2.4707  ,-2.4707  ,0.1
9533  ,1.597e+09   ,2.4707  ,-2.4  ,0.029289
9534  ,1.952e+09   ,2.4  ,-2.4707  ,0.029289
9541  ,3.817e+08   ,0.5  ,-2.5  ,4.9
9544  ,1.261e+09   ,-0.5  ,-2.5  ,0.1
9559  ,9.406e+08   ,-2.5  ,-1.9  ,4.9
9562  ,1.734e+09   ,-2.5  ,2.4  ,4.6
9565  ,1.025e+09   ,-2.4  ,2.5  ,2
9571  ,2.884e+09   ,-2.5  ,-2.4  ,3.8
9574  ,7.305e+08   ,-2.4  ,-2.5  ,3.8
9577  ,1.059e+09   ,1.3  ,-2.5  ,0.1
9582  ,1.788e+09   ,-2.5  ,-0.9  ,0.1
9596  ,1.495e+09   ,2.1  ,2.4  ,0
9598  ,2.365e+09   ,-2.4  ,2.5  ,3.2
9602  ,1.921e+09   ,1.5  ,2.5  ,0.1
9610  ,1.029e+09   ,2.4  ,2.5  ,0.39564
9612  ,4.196e+09   ,-0.72473  ,2.5  ,4.9
9614  ,1.907e+09   ,1.7  ,2.5  ,0.1
9635  ,1.498e+09   ,2.5  ,1.7  ,0.1
9646  ,7.480e+08   ,2.3  ,2.5  ,0.1
9651  ,3.058e+10   ,2.1656  ,2.4888  ,4.9325
9653  ,4.526e+09   ,2.5  ,-1.316  ,4.9
9656  ,1.119e+09   ,-2.4  ,-1.7  ,5
9659  ,9.557e+09   ,2.3  ,-2.5  ,4.6765
9661  ,2.313e+09   ,2.3  ,-2.5  ,3.9531
9664  ,2.501e+09   ,-2.3  ,-2.4  ,5
9666  ,1.782e+09   ,1.9  ,-2.4  ,0
9677  ,2.026e+09   ,2.4  ,0.5  ,0
9678  ,1.697e+09   ,-2.5  ,-1.1  ,0.1
9680  ,3.227e+09   ,2.5  ,2.4  ,1.184
9681  ,5.141e+08   ,2.5  ,2.4  ,0.19855
9696  ,1.164e+09   ,-2.3  ,-2.5  ,2.0162
9698  ,1.548e+09   ,2.4  ,-2.3  ,0
9699  ,2.649e+09   ,-0.24243  ,-2.5  ,0.2
9701  ,4.639e+09   ,0.1  ,-2.4  ,0
9704  ,1.610e+09   ,-0.4838  ,-2.5  ,0.2
9718  ,6.389e+08   ,-0.72262  ,-2.5  ,0.2
9726  ,1.595e+09   ,2.3  ,-0.76628  ,0.2
9727  ,2.039e+09   ,-2.5  ,2.4  ,0.4
9730  ,3.814e+09   ,1.9433E-06  ,-2.5  ,4.8
9731  ,3.519e+09   ,-0.24243  ,-2.5  ,4.8
9732  ,1.004e+09   ,-2.5  ,2.4  ,2.2
9738  ,2.120e+09   ,-2.5  ,-2.4  ,4
9743  ,2.686e+09   ,-1.6937  ,-2.5  ,4.8
9744  ,1.454e+09   ,-2.4  ,-2.5  ,4
9750  ,8.044e+08   ,-1.7  ,-2.5  ,0.1
9752  ,1.913e+09   ,-1.6937  ,-2.5  ,0.2
9754  ,1.390e+09   ,-1.3  ,-2.4  ,0
9759  ,4.921e+08   ,-2.4707  ,2.4  ,0.029289
9760  ,6.100e+08   ,-2.4  ,2.4707  ,0.029289
9768  ,4.662e+09   ,2.3  ,-2.5  ,4.1937
9770  ,3.027e+09   ,1.9433E-06  ,-2.5  ,0.2
9771  ,3.598e+09   ,0.4838  ,-2.5  ,0.2
9772  ,1.443e+09   ,2.4  ,-2.5  ,0.2
9773  ,2.744e+09   ,2.4  ,-2.5  ,4.6
9776  ,2.502e+09   ,2.4  ,0.063638  ,5
9780  ,1.740e+09   ,0.65491  ,2.5  ,4.9
9781  ,4.514e+08   ,2.4  ,2.5  ,0.19855
9782  ,3.574e+09   ,-2.3  ,-2.5  ,2.9838
9786  ,1.534e+09   ,-1.2085  ,-2.5  ,0.2
9787  ,1.885e+09   ,-1.4531  ,-2.5  ,0.2
9790  ,2.336e+09   ,2.3  ,-2.4  ,0
9793  ,9.847e+09   ,2.0345  ,2.4  ,5
9797  ,2.315e+09   ,2.3  ,-2.5  ,1.5364
9798  ,1.866e+09   ,2.4  ,1.0491  ,5
9809  ,1.837e+09   ,2.4  ,2.5  ,3.352
