Date:  12:51, Monday, July 10, 2023
Model name: Hollow_DropBox
Study name: DropTest_300fts(-Default-)
Plot type:  Stress1
Plot step: 8   time : 41.9652 Microseconds
Result Type: von Mises 


Node  ,Value (N/m^2)  ,X (in)  ,Y (in)  ,Z (in)
1  ,2.406e+10   ,2.5  ,2.1331  ,4.9
2  ,2.499e+10   ,2.4577  ,2.1908  ,4.9577
3  ,4.607e+10   ,2.4894  ,2.1331  ,4.9447
4  ,2.352e+10   ,2.1331  ,2.5  ,4.9
5  ,4.555e+10   ,2.1331  ,2.4894  ,4.9447
6  ,2.330e+10   ,2.1908  ,2.4577  ,4.9577
7  ,1.137e+08   ,-2.4  ,2.4  ,5
8  ,4.265e+08   ,-2.4  ,-2.4  ,5
9  ,2.545e+08   ,2.4  ,-2.4  ,5
10  ,2.164e+10   ,2.4  ,2.1331  ,5
11  ,2.334e+10   ,2.1331  ,2.4  ,5
12  ,2.785e+08   ,2.5  ,-2.4  ,4.9
13  ,3.919e+08   ,2.5  ,-2.4  ,0.1
14  ,2.472e+08   ,2.5  ,2.4  ,0.1
15  ,2.437e+10   ,2.5  ,2.4  ,4.6331
16  ,2.018e+08   ,2.4  ,2.5  ,0.1
17  ,2.012e+08   ,-2.4  ,2.5  ,0.1
18  ,1.227e+08   ,-2.4  ,2.5  ,4.9
19  ,2.408e+10   ,2.4  ,2.5  ,4.6331
20  ,1.853e+08   ,-2.5  ,2.4  ,0.1
21  ,4.581e+06   ,-2.5  ,-2.4  ,0.1
22  ,2.896e+08   ,-2.5  ,-2.4  ,4.9
23  ,2.141e+08   ,-2.5  ,2.4  ,4.9
24  ,1.679e+07   ,-2.3  ,-2.5  ,0.2
25  ,5.102e+08   ,-2.3  ,-2.5  ,4.8
26  ,2.945e+08   ,2.3  ,-2.5  ,4.8
27  ,5.236e+08   ,2.3  ,-2.5  ,0.2
28  ,4.791e+08   ,-2.4  ,-2.5  ,4.9
29  ,3.415e+08   ,2.4  ,-2.5  ,4.9
30  ,7.968e+06   ,-2.4  ,-2.5  ,0.1
31  ,4.705e+08   ,2.4  ,-2.5  ,0.1
32  ,3.076e+08   ,2.4  ,-2.4  ,0
33  ,1.634e+08   ,2.4  ,2.4  ,0
34  ,5.024e+06   ,-2.4  ,-2.4  ,0
35  ,2.028e+08   ,-2.4  ,2.4  ,0
36  ,2.961e+10   ,2.4577  ,2.4577  ,4.6908
37  ,4.579e+08   ,-2.3  ,2.3  ,4.8
38  ,1.396e+10   ,2.1599  ,2.3  ,4.8
39  ,1.397e+10   ,2.3  ,2.1599  ,4.8
40  ,1.419e+10   ,2.3  ,2.3  ,4.6599
41  ,4.810e+08   ,2.3  ,2.3  ,0.2
42  ,1.579e+08   ,-2.3  ,2.3  ,0.2
43  ,3.172e+08   ,-2.4  ,2.2  ,5
44  ,4.028e+08   ,-2.4  ,2  ,5
45  ,4.099e+08   ,-2.4  ,1.8  ,5
46  ,4.533e+08   ,-2.4  ,1.6  ,5
47  ,4.799e+08   ,-2.4  ,1.4  ,5
48  ,5.691e+08   ,-2.4  ,1.2  ,5
49  ,5.297e+08   ,-2.4  ,1  ,5
50  ,7.185e+08   ,-2.4  ,0.8  ,5
51  ,7.351e+08   ,-2.4  ,0.6  ,5
52  ,6.576e+08   ,-2.4  ,0.4  ,5
53  ,6.759e+08   ,-2.4  ,0.2  ,5
54  ,5.218e+08   ,-2.4  ,5.8879E-16  ,5
55  ,4.940e+08   ,-2.4  ,-0.2  ,5
56  ,4.413e+08   ,-2.4  ,-0.4  ,5
57  ,4.916e+08   ,-2.4  ,-0.6  ,5
58  ,4.498e+08   ,-2.4  ,-0.8  ,5
59  ,4.239e+08   ,-2.4  ,-1  ,5
60  ,4.023e+08   ,-2.4  ,-1.2  ,5
61  ,3.893e+08   ,-2.4  ,-1.4  ,5
62  ,3.356e+08   ,-2.4  ,-1.6  ,5
63  ,3.663e+08   ,-2.4  ,-1.8  ,5
64  ,4.005e+08   ,-2.4  ,-2  ,5
65  ,2.889e+08   ,-2.4  ,-2.2  ,5
66  ,5.284e+08   ,-2.2  ,-2.4  ,5
67  ,5.105e+08   ,-2  ,-2.4  ,5
68  ,4.235e+08   ,-1.8  ,-2.4  ,5
69  ,2.518e+08   ,-1.6  ,-2.4  ,5
70  ,3.844e+08   ,-1.4  ,-2.4  ,5
71  ,5.650e+08   ,-1.2  ,-2.4  ,5
72  ,7.585e+08   ,-1  ,-2.4  ,5
73  ,8.108e+08   ,-0.8  ,-2.4  ,5
74  ,5.887e+08   ,-0.6  ,-2.4  ,5
75  ,3.120e+08   ,-0.4  ,-2.4  ,5
76  ,3.288e+08   ,-0.2  ,-2.4  ,5
77  ,5.507e+08   ,-5.8879E-16  ,-2.4  ,5
78  ,6.717e+08   ,0.2  ,-2.4  ,5
79  ,6.208e+08   ,0.4  ,-2.4  ,5
80  ,5.900e+08   ,0.6  ,-2.4  ,5
81  ,6.750e+08   ,0.8  ,-2.4  ,5
82  ,8.710e+08   ,1  ,-2.4  ,5
83  ,1.012e+09   ,1.2  ,-2.4  ,5
84  ,9.502e+08   ,1.4  ,-2.4  ,5
85  ,7.595e+08   ,1.6  ,-2.4  ,5
86  ,5.144e+08   ,1.8  ,-2.4  ,5
87  ,5.548e+08   ,2  ,-2.4  ,5
88  ,5.996e+08   ,2.2  ,-2.4  ,5
89  ,4.279e+08   ,2.4  ,-2.2029  ,5
90  ,6.261e+08   ,2.4  ,-2.0058  ,5
91  ,4.929e+08   ,2.4  ,-1.8087  ,5
92  ,3.792e+08   ,2.4  ,-1.6116  ,5
93  ,4.460e+08   ,2.4  ,-1.4145  ,5
94  ,4.032e+08   ,2.4  ,-1.2175  ,5
95  ,5.696e+08   ,2.4  ,-1.0204  ,5
96  ,8.272e+08   ,2.4  ,-0.82327  ,5
97  ,7.956e+08   ,2.4  ,-0.62618  ,5
98  ,8.497e+08   ,2.4  ,-0.42909  ,5
99  ,7.885e+08   ,2.4  ,-0.232  ,5
100  ,8.072e+08   ,2.4  ,-0.034907  ,5
101  ,9.779e+08   ,2.4  ,0.16218  ,5
102  ,1.338e+09   ,2.4  ,0.35927  ,5
103  ,1.777e+09   ,2.4  ,0.55637  ,5
104  ,2.329e+09   ,2.4  ,0.75346  ,5
105  ,2.114e+09   ,2.4  ,0.95055  ,5
106  ,2.199e+09   ,2.4  ,1.1476  ,5
107  ,3.359e+09   ,2.4  ,1.3447  ,5
108  ,4.804e+09   ,2.4  ,1.5418  ,5
109  ,6.293e+09   ,2.4  ,1.7389  ,5
110  ,1.204e+10   ,2.4  ,1.936  ,5
111  ,1.557e+10   ,2.2665  ,2.2665  ,5
112  ,1.190e+10   ,1.936  ,2.4  ,5
113  ,6.436e+09   ,1.7389  ,2.4  ,5
114  ,5.079e+09   ,1.5418  ,2.4  ,5
115  ,3.471e+09   ,1.3447  ,2.4  ,5
116  ,2.586e+09   ,1.1476  ,2.4  ,5
117  ,2.259e+09   ,0.95055  ,2.4  ,5
118  ,2.471e+09   ,0.75346  ,2.4  ,5
119  ,1.977e+09   ,0.55637  ,2.4  ,5
120  ,1.734e+09   ,0.35927  ,2.4  ,5
121  ,1.490e+09   ,0.16218  ,2.4  ,5
122  ,1.388e+09   ,-0.034907  ,2.4  ,5
123  ,1.296e+09   ,-0.232  ,2.4  ,5
124  ,8.493e+08   ,-0.42909  ,2.4  ,5
125  ,7.683e+08   ,-0.62618  ,2.4  ,5
126  ,7.954e+08   ,-0.82327  ,2.4  ,5
127  ,7.671e+08   ,-1.0204  ,2.4  ,5
128  ,6.035e+08   ,-1.2175  ,2.4  ,5
129  ,4.988e+08   ,-1.4145  ,2.4  ,5
130  ,3.396e+08   ,-1.6116  ,2.4  ,5
131  ,2.731e+08   ,-1.8087  ,2.4  ,5
132  ,3.235e+08   ,-2.0058  ,2.4  ,5
133  ,1.503e+08   ,-2.2029  ,2.4  ,5
294  ,3.995e+08   ,2.5  ,-2.2029  ,4.9
295  ,5.868e+08   ,2.5  ,-2.0058  ,4.9
296  ,5.808e+08   ,2.5  ,-1.8087  ,4.9
297  ,4.854e+08   ,2.5  ,-1.6116  ,4.9
298  ,4.416e+08   ,2.5  ,-1.4145  ,4.9
299  ,4.854e+08   ,2.5  ,-1.2175  ,4.9
300  ,6.146e+08   ,2.5  ,-1.0204  ,4.9
301  ,7.069e+08   ,2.5  ,-0.82327  ,4.9
302  ,7.445e+08   ,2.5  ,-0.62618  ,4.9
303  ,8.116e+08   ,2.5  ,-0.42909  ,4.9
304  ,8.485e+08   ,2.5  ,-0.232  ,4.9
305  ,1.027e+09   ,2.5  ,-0.034907  ,4.9
306  ,1.310e+09   ,2.5  ,0.16218  ,4.9
307  ,1.350e+09   ,2.5  ,0.35927  ,4.9
308  ,1.690e+09   ,2.5  ,0.55637  ,4.9
309  ,2.178e+09   ,2.5  ,0.75346  ,4.9
310  ,2.053e+09   ,2.5  ,0.95055  ,4.9
311  ,2.713e+09   ,2.5  ,1.1476  ,4.9
312  ,3.487e+09   ,2.5  ,1.3447  ,4.9
313  ,4.876e+09   ,2.5  ,1.5418  ,4.9
314  ,7.906e+09   ,2.5  ,1.7389  ,4.9
315  ,1.297e+10   ,2.5  ,1.936  ,4.9
316  ,5.917e+08   ,2.5  ,-2.4  ,4.7
317  ,5.639e+08   ,2.5  ,-2.4  ,4.5
318  ,5.340e+08   ,2.5  ,-2.4  ,4.3
319  ,7.961e+08   ,2.5  ,-2.4  ,4.1
320  ,9.418e+08   ,2.5  ,-2.4  ,3.9
321  ,1.050e+09   ,2.5  ,-2.4  ,3.7
322  ,8.545e+08   ,2.5  ,-2.4  ,3.5
323  ,6.704e+08   ,2.5  ,-2.4  ,3.3
324  ,5.852e+08   ,2.5  ,-2.4  ,3.1
325  ,5.474e+08   ,2.5  ,-2.4  ,2.9
326  ,5.860e+08   ,2.5  ,-2.4  ,2.7
327  ,4.412e+08   ,2.5  ,-2.4  ,2.5
328  ,3.586e+08   ,2.5  ,-2.4  ,2.3
329  ,4.943e+08   ,2.5  ,-2.4  ,2.1
330  ,6.944e+08   ,2.5  ,-2.4  ,1.9
331  ,7.583e+08   ,2.5  ,-2.4  ,1.7
332  ,5.869e+08   ,2.5  ,-2.4  ,1.5
333  ,3.376e+08   ,2.5  ,-2.4  ,1.3
334  ,2.725e+08   ,2.5  ,-2.4  ,1.1
335  ,1.785e+08   ,2.5  ,-2.4  ,0.9
336  ,3.495e+08   ,2.5  ,-2.4  ,0.7
337  ,4.866e+08   ,2.5  ,-2.4  ,0.5
338  ,5.333e+08   ,2.5  ,-2.4  ,0.3
339  ,2.781e+08   ,2.5  ,-2.2  ,0.1
340  ,4.108e+08   ,2.5  ,-2  ,0.1
341  ,3.872e+08   ,2.5  ,-1.8  ,0.1
342  ,3.571e+08   ,2.5  ,-1.6  ,0.1
343  ,2.873e+08   ,2.5  ,-1.4  ,0.1
344  ,4.230e+08   ,2.5  ,-1.2  ,0.1
345  ,4.344e+08   ,2.5  ,-1  ,0.1
346  ,4.035e+08   ,2.5  ,-0.8  ,0.1
347  ,4.376e+08   ,2.5  ,-0.6  ,0.1
348  ,4.347e+08   ,2.5  ,-0.4  ,0.1
349  ,4.243e+08   ,2.5  ,-0.2  ,0.1
350  ,4.545e+08   ,2.5  ,-1.7664E-15  ,0.1
351  ,5.459e+08   ,2.5  ,0.2  ,0.1
352  ,7.530e+08   ,2.5  ,0.4  ,0.1
353  ,6.673e+08   ,2.5  ,0.6  ,0.1
354  ,7.598e+08   ,2.5  ,0.8  ,0.1
355  ,6.514e+08   ,2.5  ,1  ,0.1
356  ,6.012e+08   ,2.5  ,1.2  ,0.1
357  ,6.125e+08   ,2.5  ,1.4  ,0.1
358  ,5.887e+08   ,2.5  ,1.6  ,0.1
359  ,4.008e+08   ,2.5  ,1.8  ,0.1
360  ,3.678e+08   ,2.5  ,2  ,0.1
361  ,3.289e+08   ,2.5  ,2.2  ,0.1
362  ,1.317e+10   ,2.5  ,2.4  ,4.436
363  ,8.062e+09   ,2.5  ,2.4  ,4.2389
364  ,4.920e+09   ,2.5  ,2.4  ,4.0418
365  ,3.700e+09   ,2.5  ,2.4  ,3.8447
366  ,2.560e+09   ,2.5  ,2.4  ,3.6476
367  ,2.303e+09   ,2.5  ,2.4  ,3.4505
368  ,2.279e+09   ,2.5  ,2.4  ,3.2535
369  ,1.931e+09   ,2.5  ,2.4  ,3.0564
370  ,1.609e+09   ,2.5  ,2.4  ,2.8593
371  ,1.518e+09   ,2.5  ,2.4  ,2.6622
372  ,1.603e+09   ,2.5  ,2.4  ,2.4651
373  ,1.211e+09   ,2.5  ,2.4  ,2.268
374  ,1.123e+09   ,2.5  ,2.4  ,2.0709
375  ,8.870e+08   ,2.5  ,2.4  ,1.8738
376  ,7.628e+08   ,2.5  ,2.4  ,1.6767
377  ,4.497e+08   ,2.5  ,2.4  ,1.4796
378  ,4.491e+08   ,2.5  ,2.4  ,1.2825
379  ,4.065e+08   ,2.5  ,2.4  ,1.0855
380  ,3.768e+08   ,2.5  ,2.4  ,0.88836
381  ,2.832e+08   ,2.5  ,2.4  ,0.69127
382  ,2.443e+08   ,2.5  ,2.4  ,0.49418
383  ,3.504e+08   ,2.5  ,2.4  ,0.29709
384  ,1.549e+10   ,2.5  ,2.2665  ,4.7665
544  ,3.246e+08   ,2.2  ,2.5  ,0.1
545  ,3.497e+08   ,2  ,2.5  ,0.1
546  ,3.173e+08   ,1.8  ,2.5  ,0.1
547  ,3.870e+08   ,1.6  ,2.5  ,0.1
548  ,3.658e+08   ,1.4  ,2.5  ,0.1
549  ,4.238e+08   ,1.2  ,2.5  ,0.1
550  ,3.793e+08   ,1  ,2.5  ,0.1
551  ,6.249e+08   ,0.8  ,2.5  ,0.1
552  ,6.794e+08   ,0.6  ,2.5  ,0.1
553  ,4.690e+08   ,0.4  ,2.5  ,0.1
554  ,4.524e+08   ,0.2  ,2.5  ,0.1
555  ,6.051e+08   ,5.8879E-16  ,2.5  ,0.1
556  ,9.361e+08   ,-0.2  ,2.5  ,0.1
557  ,7.152e+08   ,-0.4  ,2.5  ,0.1
558  ,5.646e+08   ,-0.6  ,2.5  ,0.1
559  ,4.232e+08   ,-0.8  ,2.5  ,0.1
560  ,5.266e+08   ,-1  ,2.5  ,0.1
561  ,4.717e+08   ,-1.2  ,2.5  ,0.1
562  ,3.836e+08   ,-1.4  ,2.5  ,0.1
563  ,3.156e+08   ,-1.6  ,2.5  ,0.1
564  ,3.059e+08   ,-1.8  ,2.5  ,0.1
565  ,2.727e+08   ,-2  ,2.5  ,0.1
566  ,3.301e+08   ,-2.2  ,2.5  ,0.1
567  ,3.004e+08   ,-2.4  ,2.5  ,4.7
568  ,3.291e+08   ,-2.4  ,2.5  ,4.5
569  ,3.324e+08   ,-2.4  ,2.5  ,4.3
570  ,3.717e+08   ,-2.4  ,2.5  ,4.1
571  ,4.268e+08   ,-2.4  ,2.5  ,3.9
572  ,4.612e+08   ,-2.4  ,2.5  ,3.7
573  ,4.973e+08   ,-2.4  ,2.5  ,3.5
574  ,7.100e+08   ,-2.4  ,2.5  ,3.3
575  ,5.905e+08   ,-2.4  ,2.5  ,3.1
576  ,5.303e+08   ,-2.4  ,2.5  ,2.9
577  ,5.167e+08   ,-2.4  ,2.5  ,2.7
578  ,5.638e+08   ,-2.4  ,2.5  ,2.5
579  ,5.645e+08   ,-2.4  ,2.5  ,2.3
580  ,5.723e+08   ,-2.4  ,2.5  ,2.1
581  ,4.545e+08   ,-2.4  ,2.5  ,1.9
582  ,3.789e+08   ,-2.4  ,2.5  ,1.7
583  ,4.899e+08   ,-2.4  ,2.5  ,1.5
584  ,4.126e+08   ,-2.4  ,2.5  ,1.3
585  ,3.584e+08   ,-2.4  ,2.5  ,1.1
586  ,3.194e+08   ,-2.4  ,2.5  ,0.9
587  ,2.746e+08   ,-2.4  ,2.5  ,0.7
588  ,3.083e+08   ,-2.4  ,2.5  ,0.5
589  ,3.661e+08   ,-2.4  ,2.5  ,0.3
590  ,1.299e+10   ,1.936  ,2.5  ,4.9
591  ,6.072e+09   ,1.7389  ,2.5  ,4.9
592  ,4.498e+09   ,1.5418  ,2.5  ,4.9
593  ,3.751e+09   ,1.3447  ,2.5  ,4.9
594  ,2.739e+09   ,1.1476  ,2.5  ,4.9
595  ,2.456e+09   ,0.95055  ,2.5  ,4.9
596  ,2.409e+09   ,0.75346  ,2.5  ,4.9
597  ,2.066e+09   ,0.55637  ,2.5  ,4.9
598  ,1.872e+09   ,0.35927  ,2.5  ,4.9
599  ,1.366e+09   ,0.16218  ,2.5  ,4.9
600  ,1.186e+09   ,-0.034907  ,2.5  ,4.9
601  ,1.002e+09   ,-0.232  ,2.5  ,4.9
602  ,9.824e+08   ,-0.42909  ,2.5  ,4.9
603  ,8.695e+08   ,-0.62618  ,2.5  ,4.9
604  ,7.613e+08   ,-0.82327  ,2.5  ,4.9
605  ,7.770e+08   ,-1.0204  ,2.5  ,4.9
606  ,6.718e+08   ,-1.2175  ,2.5  ,4.9
607  ,5.045e+08   ,-1.4145  ,2.5  ,4.9
608  ,4.054e+08   ,-1.6116  ,2.5  ,4.9
609  ,3.103e+08   ,-1.8087  ,2.5  ,4.9
610  ,2.618e+08   ,-2.0058  ,2.5  ,4.9
611  ,2.476e+08   ,-2.2029  ,2.5  ,4.9
612  ,1.569e+10   ,2.2665  ,2.5  ,4.7665
613  ,1.166e+10   ,2.4  ,2.5  ,4.436
614  ,7.168e+09   ,2.4  ,2.5  ,4.2389
615  ,4.722e+09   ,2.4  ,2.5  ,4.0418
616  ,3.648e+09   ,2.4  ,2.5  ,3.8447
617  ,2.789e+09   ,2.4  ,2.5  ,3.6476
618  ,2.446e+09   ,2.4  ,2.5  ,3.4505
619  ,2.243e+09   ,2.4  ,2.5  ,3.2535
620  ,1.907e+09   ,2.4  ,2.5  ,3.0564
621  ,1.754e+09   ,2.4  ,2.5  ,2.8593
622  ,1.512e+09   ,2.4  ,2.5  ,2.6622
623  ,1.282e+09   ,2.4  ,2.5  ,2.4651
624  ,1.133e+09   ,2.4  ,2.5  ,2.268
625  ,9.693e+08   ,2.4  ,2.5  ,2.0709
626  ,8.699e+08   ,2.4  ,2.5  ,1.8738
627  ,7.828e+08   ,2.4  ,2.5  ,1.6767
628  ,7.347e+08   ,2.4  ,2.5  ,1.4796
629  ,5.872e+08   ,2.4  ,2.5  ,1.2825
630  ,3.746e+08   ,2.4  ,2.5  ,1.0855
631  ,2.731e+08   ,2.4  ,2.5  ,0.88836
632  ,2.477e+08   ,2.4  ,2.5  ,0.69127
633  ,2.897e+08   ,2.4  ,2.5  ,0.49418
634  ,3.201e+08   ,2.4  ,2.5  ,0.29709
796  ,4.056e+08   ,-2.5  ,2.2  ,0.1
797  ,4.991e+08   ,-2.5  ,2  ,0.1
798  ,5.076e+08   ,-2.5  ,1.8  ,0.1
799  ,5.291e+08   ,-2.5  ,1.6  ,0.1
800  ,5.315e+08   ,-2.5  ,1.4  ,0.1
801  ,5.456e+08   ,-2.5  ,1.2  ,0.1
802  ,5.910e+08   ,-2.5  ,1  ,0.1
803  ,5.771e+08   ,-2.5  ,0.8  ,0.1
804  ,4.232e+08   ,-2.5  ,0.6  ,0.1
805  ,3.212e+08   ,-2.5  ,0.4  ,0.1
806  ,2.328e+08   ,-2.5  ,0.2  ,0.1
807  ,1.646e+08   ,-2.5  ,5.8879E-16  ,0.1
808  ,1.402e+08   ,-2.5  ,-0.2  ,0.1
809  ,1.209e+08   ,-2.5  ,-0.4  ,0.1
810  ,3.886e+07   ,-2.5  ,-0.6  ,0.1
811  ,2.874e+07   ,-2.5  ,-0.8  ,0.1
812  ,2.535e+07   ,-2.5  ,-1  ,0.1
813  ,1.448e+07   ,-2.5  ,-1.2  ,0.1
814  ,2.498e+07   ,-2.5  ,-1.4  ,0.1
815  ,2.261e+07   ,-2.5  ,-1.6  ,0.1
816  ,4.594e+06   ,-2.5  ,-1.8  ,0.1
817  ,7.389e+06   ,-2.5  ,-2  ,0.1
818  ,9.266e+06   ,-2.5  ,-2.2  ,0.1
819  ,2.648e+08   ,-2.5  ,-2.4  ,4.7
820  ,4.282e+08   ,-2.5  ,-2.4  ,4.5
821  ,7.568e+08   ,-2.5  ,-2.4  ,4.3
822  ,9.231e+08   ,-2.5  ,-2.4  ,4.1
823  ,5.253e+08   ,-2.5  ,-2.4  ,3.9
824  ,1.886e+08   ,-2.5  ,-2.4  ,3.7
825  ,1.787e+08   ,-2.5  ,-2.4  ,3.5
826  ,2.736e+08   ,-2.5  ,-2.4  ,3.3
827  ,2.792e+08   ,-2.5  ,-2.4  ,3.1
828  ,2.088e+08   ,-2.5  ,-2.4  ,2.9
829  ,1.547e+08   ,-2.5  ,-2.4  ,2.7
830  ,1.375e+08   ,-2.5  ,-2.4  ,2.5
831  ,1.080e+08   ,-2.5  ,-2.4  ,2.3
832  ,8.214e+07   ,-2.5  ,-2.4  ,2.1
833  ,4.917e+07   ,-2.5  ,-2.4  ,1.9
834  ,5.088e+07   ,-2.5  ,-2.4  ,1.7
835  ,5.676e+07   ,-2.5  ,-2.4  ,1.5
836  ,4.392e+07   ,-2.5  ,-2.4  ,1.3
837  ,3.354e+07   ,-2.5  ,-2.4  ,1.1
838  ,2.063e+07   ,-2.5  ,-2.4  ,0.9
839  ,2.227e+07   ,-2.5  ,-2.4  ,0.7
840  ,2.198e+07   ,-2.5  ,-2.4  ,0.5
841  ,1.407e+07   ,-2.5  ,-2.4  ,0.3
842  ,3.967e+08   ,-2.5  ,2.2  ,4.9
843  ,3.834e+08   ,-2.5  ,2  ,4.9
844  ,4.159e+08   ,-2.5  ,1.8  ,4.9
845  ,4.183e+08   ,-2.5  ,1.6  ,4.9
846  ,4.468e+08   ,-2.5  ,1.4  ,4.9
847  ,4.909e+08   ,-2.5  ,1.2  ,4.9
848  ,5.224e+08   ,-2.5  ,1  ,4.9
849  ,6.953e+08   ,-2.5  ,0.8  ,4.9
850  ,5.308e+08   ,-2.5  ,0.6  ,4.9
851  ,5.268e+08   ,-2.5  ,0.4  ,4.9
852  ,5.709e+08   ,-2.5  ,0.2  ,4.9
853  ,5.618e+08   ,-2.5  ,5.8879E-16  ,4.9
854  ,4.542e+08   ,-2.5  ,-0.2  ,4.9
855  ,3.848e+08   ,-2.5  ,-0.4  ,4.9
856  ,3.639e+08   ,-2.5  ,-0.6  ,4.9
857  ,3.638e+08   ,-2.5  ,-0.8  ,4.9
858  ,3.303e+08   ,-2.5  ,-1  ,4.9
859  ,3.617e+08   ,-2.5  ,-1.2  ,4.9
860  ,3.729e+08   ,-2.5  ,-1.4  ,4.9
861  ,3.286e+08   ,-2.5  ,-1.6  ,4.9
862  ,3.224e+08   ,-2.5  ,-1.8  ,4.9
863  ,3.131e+08   ,-2.5  ,-2  ,4.9
864  ,2.814e+08   ,-2.5  ,-2.2  ,4.9
865  ,3.480e+08   ,-2.5  ,2.4  ,4.7
866  ,3.978e+08   ,-2.5  ,2.4  ,4.5
867  ,4.675e+08   ,-2.5  ,2.4  ,4.3
868  ,4.037e+08   ,-2.5  ,2.4  ,4.1
869  ,5.668e+08   ,-2.5  ,2.4  ,3.9
870  ,5.502e+08   ,-2.5  ,2.4  ,3.7
871  ,5.664e+08   ,-2.5  ,2.4  ,3.5
872  ,6.806e+08   ,-2.5  ,2.4  ,3.3
873  ,5.678e+08   ,-2.5  ,2.4  ,3.1
874  ,6.149e+08   ,-2.5  ,2.4  ,2.9
875  ,5.568e+08   ,-2.5  ,2.4  ,2.7
876  ,5.479e+08   ,-2.5  ,2.4  ,2.5
877  ,4.248e+08   ,-2.5  ,2.4  ,2.3
878  ,3.956e+08   ,-2.5  ,2.4  ,2.1
879  ,3.510e+08   ,-2.5  ,2.4  ,1.9
880  ,3.995e+08   ,-2.5  ,2.4  ,1.7
881  ,2.842e+08   ,-2.5  ,2.4  ,1.5
882  ,2.861e+08   ,-2.5  ,2.4  ,1.3
883  ,2.463e+08   ,-2.5  ,2.4  ,1.1
884  ,2.112e+08   ,-2.5  ,2.4  ,0.9
885  ,1.810e+08   ,-2.5  ,2.4  ,0.7
886  ,2.356e+08   ,-2.5  ,2.4  ,0.5
887  ,2.925e+08   ,-2.5  ,2.4  ,0.3
1044  ,1.169e+07   ,-2.3  ,-2.5  ,0.44697
1045  ,1.804e+07   ,-2.3  ,-2.5  ,0.68705
1046  ,2.299e+07   ,-2.3  ,-2.5  ,0.92554
1047  ,1.674e+07   ,-2.3  ,-2.5  ,1.1682
1048  ,2.947e+07   ,-2.3  ,-2.5  ,1.4148
1049  ,5.882e+07   ,-2.3  ,-2.5  ,1.6581
1050  ,7.404e+07   ,-2.3  ,-2.5  ,1.8967
1051  ,8.830e+07   ,-2.3  ,-2.5  ,2.1357
1052  ,1.087e+08   ,-2.3  ,-2.5  ,2.3794
1053  ,1.550e+08   ,-2.3  ,-2.5  ,2.6206
1054  ,2.157e+08   ,-2.3  ,-2.5  ,2.8643
1055  ,2.450e+08   ,-2.3  ,-2.5  ,3.1033
1056  ,3.870e+08   ,-2.3  ,-2.5  ,3.342
1057  ,5.705e+08   ,-2.3  ,-2.5  ,3.5852
1058  ,2.945e+08   ,-2.3  ,-2.5  ,3.8318
1059  ,4.527e+08   ,-2.3  ,-2.5  ,4.0745
1060  ,5.978e+08   ,-2.3  ,-2.5  ,4.3129
1061  ,2.666e+08   ,-2.3  ,-2.5  ,4.553
1062  ,8.276e+08   ,-2.053  ,-2.5  ,4.8
1063  ,5.737e+08   ,-1.8129  ,-2.5  ,4.8
1064  ,3.304e+08   ,-1.5745  ,-2.5  ,4.8
1065  ,2.357e+08   ,-1.3318  ,-2.5  ,4.8
1066  ,3.646e+08   ,-1.0852  ,-2.5  ,4.8
1067  ,5.525e+08   ,-0.84195  ,-2.5  ,4.8
1068  ,4.906e+08   ,-0.60329  ,-2.5  ,4.8
1069  ,5.320e+08   ,-0.3643  ,-2.5  ,4.8
1070  ,5.827e+08   ,-0.12055  ,-2.5  ,4.8
1071  ,5.994e+08   ,0.12056  ,-2.5  ,4.8
1072  ,7.172e+08   ,0.3643  ,-2.5  ,4.8
1073  ,8.422e+08   ,0.6033  ,-2.5  ,4.8
1074  ,7.688e+08   ,0.84195  ,-2.5  ,4.8
1075  ,4.648e+08   ,1.0852  ,-2.5  ,4.8
1076  ,5.961e+08   ,1.3318  ,-2.5  ,4.8
1077  ,6.617e+08   ,1.5745  ,-2.5  ,4.8
1078  ,5.102e+08   ,1.8129  ,-2.5  ,4.8
1079  ,6.082e+08   ,2.053  ,-2.5  ,4.8
1080  ,6.267e+08   ,2.3  ,-2.5  ,4.553
1081  ,5.728e+08   ,2.3  ,-2.5  ,4.3129
1082  ,7.432e+08   ,2.3  ,-2.5  ,4.0745
1083  ,5.995e+08   ,2.3  ,-2.5  ,3.8318
1084  ,3.873e+08   ,2.3  ,-2.5  ,3.5852
1085  ,7.064e+08   ,2.3  ,-2.5  ,3.3419
1086  ,8.461e+08   ,2.3  ,-2.5  ,3.1033
1087  ,7.170e+08   ,2.3  ,-2.5  ,2.8643
1088  ,4.955e+08   ,2.3  ,-2.5  ,2.6206
1089  ,5.085e+08   ,2.3  ,-2.5  ,2.3794
1090  ,5.137e+08   ,2.3  ,-2.5  ,2.1357
1091  ,4.937e+08   ,2.3  ,-2.5  ,1.8967
1092  ,4.366e+08   ,2.3  ,-2.5  ,1.658
1093  ,1.460e+08   ,2.3  ,-2.5  ,1.4148
1094  ,5.598e+07   ,2.3  ,-2.5  ,1.1682
1095  ,1.946e+08   ,2.3  ,-2.5  ,0.92554
1096  ,5.574e+08   ,2.3  ,-2.5  ,0.68705
1097  ,8.103e+08   ,2.3  ,-2.5  ,0.44697
1098  ,9.438e+06   ,-2.053  ,-2.5  ,0.2
1099  ,1.314e+07   ,-1.8129  ,-2.5  ,0.2
1100  ,1.100e+07   ,-1.5745  ,-2.5  ,0.2
1101  ,1.886e+07   ,-1.3318  ,-2.5  ,0.2
1102  ,2.246e+07   ,-1.0852  ,-2.5  ,0.2
1103  ,2.527e+07   ,-0.84195  ,-2.5  ,0.2
1104  ,4.106e+07   ,-0.60329  ,-2.5  ,0.2
1105  ,8.116e+07   ,-0.3643  ,-2.5  ,0.2
1106  ,1.147e+08   ,-0.12055  ,-2.5  ,0.2
1107  ,1.664e+08   ,0.12056  ,-2.5  ,0.2
1108  ,2.458e+08   ,0.3643  ,-2.5  ,0.2
1109  ,2.777e+08   ,0.6033  ,-2.5  ,0.2
1110  ,4.304e+08   ,0.84195  ,-2.5  ,0.2
1111  ,6.333e+08   ,1.0852  ,-2.5  ,0.2
1112  ,3.079e+08   ,1.3318  ,-2.5  ,0.2
1113  ,4.915e+08   ,1.5745  ,-2.5  ,0.2
1114  ,6.115e+08   ,1.8129  ,-2.5  ,0.2
1115  ,2.552e+08   ,2.053  ,-2.5  ,0.2
1116  ,3.193e+08   ,-2.2  ,-2.5  ,4.9
1117  ,1.992e+08   ,-2  ,-2.5  ,4.9
1118  ,1.357e+08   ,-1.8  ,-2.5  ,4.9
1119  ,2.648e+08   ,-1.6  ,-2.5  ,4.9
1120  ,3.455e+08   ,-1.4  ,-2.5  ,4.9
1121  ,3.470e+08   ,-1.2  ,-2.5  ,4.9
1122  ,4.635e+08   ,-1  ,-2.5  ,4.9
1123  ,5.693e+08   ,-0.8  ,-2.5  ,4.9
1124  ,4.081e+08   ,-0.6  ,-2.5  ,4.9
1125  ,3.659e+08   ,-0.4  ,-2.5  ,4.9
1126  ,4.502e+08   ,-0.2  ,-2.5  ,4.9
1127  ,6.491e+08   ,-1.7664E-15  ,-2.5  ,4.9
1128  ,7.185e+08   ,0.2  ,-2.5  ,4.9
1129  ,7.287e+08   ,0.4  ,-2.5  ,4.9
1130  ,7.387e+08   ,0.6  ,-2.5  ,4.9
1131  ,7.774e+08   ,0.8  ,-2.5  ,4.9
1132  ,7.619e+08   ,1  ,-2.5  ,4.9
1133  ,8.426e+08   ,1.2  ,-2.5  ,4.9
1134  ,7.745e+08   ,1.4  ,-2.5  ,4.9
1135  ,7.018e+08   ,1.6  ,-2.5  ,4.9
1136  ,5.061e+08   ,1.8  ,-2.5  ,4.9
1137  ,4.020e+08   ,2  ,-2.5  ,4.9
1138  ,6.091e+08   ,2.2  ,-2.5  ,4.9
1139  ,4.304e+08   ,-2.4  ,-2.5  ,4.7
1140  ,3.249e+08   ,-2.4  ,-2.5  ,4.5
1141  ,2.385e+08   ,-2.4  ,-2.5  ,4.3
1142  ,2.626e+08   ,-2.4  ,-2.5  ,4.1
1143  ,4.783e+08   ,-2.4  ,-2.5  ,3.9
1144  ,3.473e+08   ,-2.4  ,-2.5  ,3.7
1145  ,3.866e+08   ,-2.4  ,-2.5  ,3.5
1146  ,3.435e+08   ,-2.4  ,-2.5  ,3.3
1147  ,2.668e+08   ,-2.4  ,-2.5  ,3.1
1148  ,2.191e+08   ,-2.4  ,-2.5  ,2.9
1149  ,1.742e+08   ,-2.4  ,-2.5  ,2.7
1150  ,1.443e+08   ,-2.4  ,-2.5  ,2.5
1151  ,1.140e+08   ,-2.4  ,-2.5  ,2.3
1152  ,8.318e+07   ,-2.4  ,-2.5  ,2.1
1153  ,5.777e+07   ,-2.4  ,-2.5  ,1.9
1154  ,5.513e+07   ,-2.4  ,-2.5  ,1.7
1155  ,4.594e+07   ,-2.4  ,-2.5  ,1.5
1156  ,3.375e+07   ,-2.4  ,-2.5  ,1.3
1157  ,2.657e+07   ,-2.4  ,-2.5  ,1.1
1158  ,2.053e+07   ,-2.4  ,-2.5  ,0.9
1159  ,2.159e+07   ,-2.4  ,-2.5  ,0.7
1160  ,2.080e+07   ,-2.4  ,-2.5  ,0.5
1161  ,1.592e+07   ,-2.4  ,-2.5  ,0.3
1162  ,1.213e+07   ,-2.2  ,-2.5  ,0.1
1163  ,1.636e+07   ,-2  ,-2.5  ,0.1
1164  ,1.750e+07   ,-1.8  ,-2.5  ,0.1
1165  ,1.190e+07   ,-1.6  ,-2.5  ,0.1
1166  ,1.513e+07   ,-1.4  ,-2.5  ,0.1
1167  ,2.145e+07   ,-1.2  ,-2.5  ,0.1
1168  ,1.611e+07   ,-1  ,-2.5  ,0.1
1169  ,3.205e+07   ,-0.8  ,-2.5  ,0.1
1170  ,4.650e+07   ,-0.6  ,-2.5  ,0.1
1171  ,6.933e+07   ,-0.4  ,-2.5  ,0.1
1172  ,1.044e+08   ,-0.2  ,-2.5  ,0.1
1173  ,1.552e+08   ,-1.7664E-15  ,-2.5  ,0.1
1174  ,1.992e+08   ,0.2  ,-2.5  ,0.1
1175  ,2.484e+08   ,0.4  ,-2.5  ,0.1
1176  ,3.056e+08   ,0.6  ,-2.5  ,0.1
1177  ,3.795e+08   ,0.8  ,-2.5  ,0.1
1178  ,4.226e+08   ,1  ,-2.5  ,0.1
1179  ,4.033e+08   ,1.2  ,-2.5  ,0.1
1180  ,4.781e+08   ,1.4  ,-2.5  ,0.1
1181  ,2.746e+08   ,1.6  ,-2.5  ,0.1
1182  ,2.467e+08   ,1.8  ,-2.5  ,0.1
1183  ,2.654e+08   ,2  ,-2.5  ,0.1
1184  ,4.006e+08   ,2.2  ,-2.5  ,0.1
1185  ,5.720e+08   ,2.4  ,-2.5  ,4.7
1186  ,4.553e+08   ,2.4  ,-2.5  ,4.5
1187  ,5.572e+08   ,2.4  ,-2.5  ,4.3
1188  ,7.362e+08   ,2.4  ,-2.5  ,4.1
1189  ,8.300e+08   ,2.4  ,-2.5  ,3.9
1190  ,7.994e+08   ,2.4  ,-2.5  ,3.7
1191  ,6.915e+08   ,2.4  ,-2.5  ,3.5
1192  ,7.744e+08   ,2.4  ,-2.5  ,3.3
1193  ,7.398e+08   ,2.4  ,-2.5  ,3.1
1194  ,6.949e+08   ,2.4  ,-2.5  ,2.9
1195  ,6.222e+08   ,2.4  ,-2.5  ,2.7
1196  ,5.094e+08   ,2.4  ,-2.5  ,2.5
1197  ,3.543e+08   ,2.4  ,-2.5  ,2.3
1198  ,4.068e+08   ,2.4  ,-2.5  ,2.1
1199  ,4.724e+08   ,2.4  ,-2.5  ,1.9
1200  ,5.351e+08   ,2.4  ,-2.5  ,1.7
1201  ,3.428e+08   ,2.4  ,-2.5  ,1.5
1202  ,1.220e+08   ,2.4  ,-2.5  ,1.3
1203  ,2.378e+08   ,2.4  ,-2.5  ,1.1
1204  ,1.924e+08   ,2.4  ,-2.5  ,0.9
1205  ,1.478e+08   ,2.4  ,-2.5  ,0.7
1206  ,1.812e+08   ,2.4  ,-2.5  ,0.5
1207  ,2.763e+08   ,2.4  ,-2.5  ,0.3
1208  ,2.612e+08   ,2.4  ,-2.2  ,0
1209  ,3.098e+08   ,2.4  ,-2  ,0
1210  ,3.056e+08   ,2.4  ,-1.8  ,0
1211  ,3.322e+08   ,2.4  ,-1.6  ,0
1212  ,3.885e+08   ,2.4  ,-1.4  ,0
1213  ,4.019e+08   ,2.4  ,-1.2  ,0
1214  ,3.501e+08   ,2.4  ,-1  ,0
1215  ,3.785e+08   ,2.4  ,-0.8  ,0
1216  ,3.442e+08   ,2.4  ,-0.6  ,0
1217  ,3.769e+08   ,2.4  ,-0.4  ,0
1218  ,4.267e+08   ,2.4  ,-0.2  ,0
1219  ,4.748e+08   ,2.4  ,-1.7664E-15  ,0
1220  ,6.329e+08   ,2.4  ,0.2  ,0
1221  ,5.952e+08   ,2.4  ,0.4  ,0
1222  ,5.430e+08   ,2.4  ,0.6  ,0
1223  ,7.193e+08   ,2.4  ,0.8  ,0
1224  ,5.585e+08   ,2.4  ,1  ,0
1225  ,5.419e+08   ,2.4  ,1.2  ,0
1226  ,5.066e+08   ,2.4  ,1.4  ,0
1227  ,3.858e+08   ,2.4  ,1.6  ,0
1228  ,3.719e+08   ,2.4  ,1.8  ,0
1229  ,3.200e+08   ,2.4  ,2  ,0
1230  ,2.911e+08   ,2.4  ,2.2  ,0
1231  ,7.833e+06   ,-2.2  ,-2.4  ,0
1232  ,2.122e+07   ,-2  ,-2.4  ,0
1233  ,1.727e+07   ,-1.8  ,-2.4  ,0
1234  ,1.782e+07   ,-1.6  ,-2.4  ,0
1235  ,2.674e+07   ,-1.4  ,-2.4  ,0
1236  ,2.712e+07   ,-1.2  ,-2.4  ,0
1237  ,1.480e+07   ,-1  ,-2.4  ,0
1238  ,3.777e+07   ,-0.8  ,-2.4  ,0
1239  ,5.893e+07   ,-0.6  ,-2.4  ,0
1240  ,7.225e+07   ,-0.4  ,-2.4  ,0
1241  ,9.725e+07   ,-0.2  ,-2.4  ,0
1242  ,1.457e+08   ,5.8879E-16  ,-2.4  ,0
1243  ,1.869e+08   ,0.2  ,-2.4  ,0
1244  ,2.388e+08   ,0.4  ,-2.4  ,0
1245  ,3.081e+08   ,0.6  ,-2.4  ,0
1246  ,3.037e+08   ,0.8  ,-2.4  ,0
1247  ,1.884e+08   ,1  ,-2.4  ,0
1248  ,2.155e+08   ,1.2  ,-2.4  ,0
1249  ,6.127e+08   ,1.4  ,-2.4  ,0
1250  ,8.947e+08   ,1.6  ,-2.4  ,0
1251  ,7.428e+08   ,1.8  ,-2.4  ,0
1252  ,5.094e+08   ,2  ,-2.4  ,0
1253  ,3.017e+08   ,2.2  ,-2.4  ,0
1254  ,4.090e+08   ,-2.4  ,2.2  ,0
1255  ,4.955e+08   ,-2.4  ,2  ,0
1256  ,5.294e+08   ,-2.4  ,1.8  ,0
1257  ,5.241e+08   ,-2.4  ,1.6  ,0
1258  ,5.317e+08   ,-2.4  ,1.4  ,0
1259  ,5.535e+08   ,-2.4  ,1.2  ,0
1260  ,5.565e+08   ,-2.4  ,1  ,0
1261  ,5.638e+08   ,-2.4  ,0.8  ,0
1262  ,4.365e+08   ,-2.4  ,0.6  ,0
1263  ,3.303e+08   ,-2.4  ,0.4  ,0
1264  ,2.420e+08   ,-2.4  ,0.2  ,0
1265  ,1.716e+08   ,-2.4  ,5.8879E-16  ,0
1266  ,1.284e+08   ,-2.4  ,-0.2  ,0
1267  ,1.035e+08   ,-2.4  ,-0.4  ,0
1268  ,3.401e+07   ,-2.4  ,-0.6  ,0
1269  ,3.550e+07   ,-2.4  ,-0.8  ,0
1270  ,2.813e+07   ,-2.4  ,-1  ,0
1271  ,3.938e+07   ,-2.4  ,-1.2  ,0
1272  ,3.421e+07   ,-2.4  ,-1.4  ,0
1273  ,1.801e+07   ,-2.4  ,-1.6  ,0
1274  ,1.448e+07   ,-2.4  ,-1.8  ,0
1275  ,1.049e+07   ,-2.4  ,-2  ,0
1276  ,5.444e+06   ,-2.4  ,-2.2  ,0
1277  ,2.844e+08   ,2.2  ,2.4  ,0
1278  ,3.347e+08   ,2  ,2.4  ,0
1279  ,4.084e+08   ,1.8  ,2.4  ,0
1280  ,3.905e+08   ,1.6  ,2.4  ,0
1281  ,3.567e+08   ,1.4  ,2.4  ,0
1282  ,4.812e+08   ,1.2  ,2.4  ,0
1283  ,5.254e+08   ,1  ,2.4  ,0
1284  ,5.743e+08   ,0.8  ,2.4  ,0
1285  ,4.363e+08   ,0.6  ,2.4  ,0
1286  ,2.957e+08   ,0.4  ,2.4  ,0
1287  ,3.381e+08   ,0.2  ,2.4  ,0
1288  ,4.595e+08   ,5.8879E-16  ,2.4  ,0
1289  ,6.700e+08   ,-0.2  ,2.4  ,0
1290  ,6.272e+08   ,-0.4  ,2.4  ,0
1291  ,4.500e+08   ,-0.6  ,2.4  ,0
1292  ,4.056e+08   ,-0.8  ,2.4  ,0
1293  ,2.960e+08   ,-1  ,2.4  ,0
1294  ,2.933e+08   ,-1.2  ,2.4  ,0
1295  ,2.391e+08   ,-1.4  ,2.4  ,0
1296  ,1.831e+08   ,-1.6  ,2.4  ,0
1297  ,1.700e+08   ,-1.8  ,2.4  ,0
1298  ,1.623e+08   ,-2  ,2.4  ,0
1299  ,2.369e+08   ,-2.2  ,2.4  ,0
1460  ,1.258e+10   ,2.3243  ,2.3243  ,4.9577
1461  ,1.182e+10   ,2.4577  ,2.3243  ,4.8243
1462  ,9.106e+09   ,2.3243  ,2.4577  ,4.8243
1463  ,5.348e+08   ,-2.3  ,-2.1759  ,4.8
1464  ,5.354e+08   ,-2.3  ,-1.7631  ,4.8
1465  ,7.032e+08   ,-2.3  ,-1.1827  ,4.8
1466  ,1.029e+09   ,-2.3  ,-0.34986  ,4.8
1467  ,7.727e+08   ,-2.3  ,0.80545  ,4.8
1468  ,1.158e+09   ,-0.81337  ,2.3  ,4.8
1469  ,3.480e+09   ,0.67326  ,2.3  ,4.8
1470  ,6.566e+08   ,2.3  ,-2.1824  ,4.8
1471  ,4.625e+08   ,2.3  ,-1.7784  ,4.8
1472  ,8.662e+08   ,2.3  ,-1.2138  ,4.8
1473  ,1.319e+09   ,2.3  ,-0.40752  ,4.8
1474  ,3.247e+09   ,2.3  ,0.70532  ,4.8
1516  ,1.157e+09   ,2.3  ,2.3  ,1.6866
1517  ,3.411e+09   ,2.3  ,2.3  ,3.1733
1518  ,5.568e+08   ,2.3  ,-2.1759  ,0.2
1519  ,5.504e+08   ,2.3  ,-1.7631  ,0.2
1520  ,7.009e+08   ,2.3  ,-1.1827  ,0.2
1521  ,1.046e+09   ,2.3  ,-0.34986  ,0.2
1522  ,7.638e+08   ,2.3  ,0.80545  ,0.2
1564  ,1.052e+09   ,-0.76667  ,2.3  ,0.2
1565  ,7.573e+08   ,0.76667  ,2.3  ,0.2
1566  ,1.056e+09   ,-2.3  ,2.3  ,1.7333
1567  ,7.189e+08   ,-2.3  ,2.3  ,3.2667
1574  ,1.508e+07   ,-2.3  ,-2.1759  ,0.2
1575  ,2.147e+07   ,-2.3  ,-1.7631  ,0.2
1576  ,2.713e+07   ,-2.3  ,-1.1827  ,0.2
1577  ,7.179e+07   ,-2.3  ,-0.34986  ,0.2
1578  ,3.665e+08   ,-2.3  ,0.80545  ,0.2
1777  ,9.008e+08   ,-0.52764  ,2.5  ,4.9
1801  ,2.467e+08   ,-2.3  ,1.5527  ,0.2
1825  ,8.234e+08   ,-1.5333  ,2.3  ,0.2
1841  ,1.302e+09   ,0.063638  ,2.5  ,4.9
1876  ,5.397e+08   ,-0.5  ,2.4  ,0
1894  ,9.793e+08   ,2.3  ,1.5527  ,0.2
1907  ,3.476e+08   ,2.1  ,2.5  ,0.1
1928  ,3.501e+08   ,1.9  ,2.4  ,0
1974  ,5.215e+08   ,2.4  ,1.1  ,0
1981  ,2.647e+08   ,2.4  ,2.5  ,0.59273
1987  ,5.238e+08   ,-2.5  ,2.4  ,4
2004  ,3.151e+08   ,-2.4  ,2.5  ,4.6
2009  ,5.107e+08   ,2.4  ,1.3  ,0
2020  ,6.013e+08   ,2.5  ,1.1  ,0.1
2035  ,6.982e+07   ,-2.3  ,-0.76628  ,0.2
2070  ,5.519e+09   ,1.6404  ,2.4  ,5
2081  ,9.109e+08   ,2.4  ,2.5  ,1.9724
2095  ,2.744e+08   ,2.4  ,2.5  ,0.78982
2138  ,1.463e+08   ,-2.4  ,-0.1  ,0
2146  ,7.663e+08   ,-0.92182  ,2.4  ,5
2174  ,4.572e+08   ,2.4  ,2.5  ,1.184
2190  ,3.858e+08   ,2.5  ,2.4  ,0.98691
2203  ,9.279e+08   ,2.5  ,-0.13345  ,4.9
2232  ,2.380e+09   ,2.3  ,0.1489  ,4.8
2242  ,1.844e+09   ,2.4  ,2.5  ,2.9578
2293  ,3.742e+08   ,-2.5  ,0.5  ,0.1
2311  ,3.214e+09   ,2.3  ,2.3  ,2.4299
2313  ,3.462e+08   ,2.5  ,2.4  ,0.78982
2329  ,1.050e+09   ,2.4  ,2.5  ,2.1695
2355  ,3.389e+08   ,-2.4  ,2.5  ,4.4
2380  ,2.660e+07   ,-2.5  ,-1.5  ,0.1
2383  ,1.882e+09   ,0.45782  ,2.5  ,4.9
2408  ,6.423e+08   ,2.3  ,-1.4961  ,4.8
2445  ,4.327e+08   ,2.5  ,-1.5131  ,4.9
2484  ,5.476e+07   ,-2.5  ,-2.4  ,1.6
2495  ,4.223e+08   ,-2.4  ,1.7  ,5
2508  ,6.106e+08   ,2.4  ,0.3  ,0
2514  ,1.435e+09   ,2.3  ,0.2278  ,0.2
2570  ,4.715e+08   ,-2.4  ,1.5  ,5
2580  ,5.505e+09   ,1.6404  ,2.5  ,4.9
2603  ,7.540e+08   ,-1.1189  ,2.5  ,4.9
2695  ,6.434e+08   ,2.3  ,2.3  ,0.94331
2705  ,6.971e+08   ,2.4  ,2.5  ,1.3811
2714  ,1.608e+09   ,2.5  ,0.45782  ,4.9
2734  ,3.469e+08   ,2.4  ,-0.9  ,0
2775  ,4.358e+08   ,2.5  ,-0.1  ,0.1
2779  ,4.278e+08   ,2.4  ,-0.1  ,0
2801  ,7.444e+09   ,1.4166  ,2.3  ,4.8
2814  ,4.117e+09   ,1.4433  ,2.5  ,4.9
2863  ,2.806e+08   ,-2.4  ,2.5  ,0.6
2884  ,2.997e+08   ,-2.4  ,2.5  ,0.8
2886  ,3.911e+08   ,-2.4  ,2.5  ,1.2
2967  ,3.649e+08   ,2.4  ,1.7  ,0
2973  ,5.971e+08   ,2.5  ,1.5  ,0.1
2987  ,7.871e+08   ,-0.3  ,2.5  ,0.1
3008  ,8.000e+08   ,-2.3  ,2.3  ,0.96667
3012  ,5.453e+08   ,-2.5  ,2.4  ,2.6
3021  ,5.326e+08   ,-2.5  ,2.4  ,2.8
3025  ,4.788e+08   ,-2.5  ,2.4  ,2.4
3030  ,5.602e+08   ,-2.4  ,2.5  ,2.4
3033  ,5.457e+08   ,-2.4  ,2.5  ,2.2
3047  ,1.228e+09   ,2.4  ,2.5  ,2.3665
3052  ,1.582e+09   ,2.5  ,2.4  ,2.5636
3061  ,1.411e+09   ,2.4  ,2.5  ,2.5636
3081  ,5.138e+08   ,-2.4  ,1.3  ,5
3088  ,2.917e+08   ,-1.9073  ,2.4  ,5
3099  ,3.764e+08   ,-2.4  ,1.9  ,5
3107  ,4.323e+08   ,-2.4  ,2.5  ,3.8
3139  ,4.078e+08   ,-1.5131  ,2.4  ,5
3145  ,4.485e+08   ,-1.5131  ,2.5  ,4.9
3148  ,3.496e+08   ,-1.7102  ,2.5  ,4.9
3168  ,5.193e+08   ,-2.4  ,1.5  ,0
3188  ,2.682e+07   ,-2.5  ,-2.4  ,1
3202  ,1.439e+09   ,0.26073  ,2.5  ,4.9
3212  ,5.541e+09   ,2.5  ,1.6404  ,4.9
3247  ,9.755e+09   ,2.5  ,1.8375  ,4.9
3265  ,7.694e+09   ,2.3  ,1.4326  ,4.8
3271  ,1.346e+10   ,2.2299  ,2.2299  ,4.8
3284  ,4.127e+09   ,2.4  ,1.4433  ,5
3291  ,4.139e+09   ,2.5  ,1.4433  ,4.9
3296  ,1.068e+09   ,-2.3  ,-0.76628  ,4.8
3303  ,4.301e+08   ,-2.4  ,-0.9  ,5
3311  ,4.576e+08   ,-2.4  ,-0.7  ,5
3315  ,3.265e+08   ,1.9  ,2.5  ,0.1
3336  ,2.814e+08   ,-2.4  ,0.3  ,0
3340  ,1.968e+08   ,-2.5  ,0.1  ,0.1
3344  ,2.053e+08   ,-2.4  ,0.1  ,0
3356  ,6.390e+08   ,-0.3  ,2.4  ,0
3361  ,1.022e+09   ,-0.33054  ,2.5  ,4.9
3364  ,1.097e+09   ,-0.13345  ,2.5  ,4.9
3383  ,2.575e+09   ,2.4  ,2.5  ,3.5491
3402  ,1.425e+10   ,2.4  ,2.5  ,4.5345
3421  ,5.670e+08   ,-1.316  ,2.5  ,4.9
3439  ,3.969e+09   ,2.5  ,2.4  ,3.9433
3447  ,4.248e+09   ,2.4  ,2.5  ,3.9433
3451  ,3.147e+09   ,2.4  ,2.5  ,3.7462
3468  ,4.230e+09   ,1.4433  ,2.4  ,5
3480  ,2.498e+09   ,1.0491  ,2.4  ,5
3519  ,4.625e+08   ,1.5  ,2.4  ,0
3527  ,7.072e+08   ,2.3  ,-1.4729  ,0.2
3550  ,1.601e+08   ,-1.7  ,2.4  ,0
3554  ,3.067e+08   ,-1.7  ,2.5  ,0.1
3558  ,1.946e+08   ,-1.5  ,2.4  ,0
3562  ,3.415e+08   ,-1.5  ,2.5  ,0.1
3574  ,3.259e+08   ,-2.4  ,2.1  ,5
3581  ,5.114e+08   ,-2.5  ,1.7  ,0.1
3583  ,4.935e+08   ,-2.5  ,1.9  ,0.1
3584  ,2.504e+08   ,-1.9073  ,2.5  ,4.9
3591  ,5.542e+08   ,2.5  ,0.3  ,0.1
3595  ,4.617e+08   ,2.5  ,0.1  ,0.1
3603  ,1.885e+10   ,2.4577  ,2.391  ,4.7576
3663  ,1.126e+07   ,-1.933  ,-2.5  ,0.2
3669  ,1.488e+07   ,-2.1765  ,-2.5  ,0.2
3672  ,1.827e+07   ,-2.3  ,-2.3379  ,0.2
3682  ,1.947e+07   ,-1.9  ,-2.4  ,0
3700  ,5.970e+08   ,2.3  ,-2.5  ,2.7424
3712  ,3.412e+08   ,-2.1  ,-2.5  ,4.9
3715  ,2.040e+08   ,-1.9  ,-2.5  ,4.9
3740  ,4.585e+08   ,-1.3  ,-2.4  ,5
3746  ,2.935e+08   ,-1.2085  ,-2.5  ,4.8
3755  ,2.736e+08   ,-1.5  ,-2.4  ,5
3760  ,1.928e+08   ,-1.7  ,-2.5  ,4.9
3786  ,7.317e+08   ,2.4  ,2.5  ,1.5782
3813  ,1.657e+09   ,0.26073  ,2.4  ,5
3858  ,8.218e+08   ,-0.9  ,-2.4  ,5
3863  ,6.047e+08   ,-2.5  ,0.9  ,4.9
3875  ,4.381e+08   ,-1.9  ,-2.4  ,5
3885  ,8.058e+08   ,2.4  ,-0.72473  ,5
3910  ,3.825e+08   ,-2.4  ,-2.5  ,3.4
3959  ,6.193e+09   ,2.5  ,2.4  ,4.1404
3969  ,2.309e+09   ,2.5  ,1.0491  ,4.9
3992  ,1.645e+10   ,2.391  ,2.2576  ,4.9577
3993  ,1.918e+10   ,2.4577  ,2.2576  ,4.891
4016  ,1.602e+08   ,-2.3015  ,2.5  ,4.9
4018  ,2.104e+08   ,-2.4  ,2.5  ,4.8
4021  ,2.760e+09   ,1.2462  ,2.4  ,5
4042  ,3.452e+08   ,2.4  ,-1.1  ,0
4046  ,3.341e+08   ,-0.9  ,2.4  ,0
4055  ,5.672e+08   ,1.7  ,-2.5  ,4.9
4087  ,4.420e+08   ,1.7  ,2.4  ,0
4114  ,8.939e+08   ,2.5  ,-0.33054  ,4.9
4120  ,5.459e+08   ,2.4  ,-2.5  ,1.8
4125  ,2.435e+08   ,2.4  ,2.5  ,0.98691
4144  ,9.413e+09   ,2.4  ,2.5  ,4.3375
4161  ,6.995e+08   ,-2.4  ,0.3  ,5
4201  ,5.051e+08   ,1.933  ,-2.5  ,0.2
4225  ,3.102e+06   ,-2.3  ,-2.4  ,0
4230  ,1.567e+07   ,-2.3  ,-2.5  ,0.56701
4269  ,5.972e+08   ,-0.9  ,-2.5  ,4.9
4277  ,6.260e+08   ,-1.1  ,-2.4  ,5
4288  ,2.629e+09   ,-0.070055  ,2.3  ,4.8
4328  ,8.775e+08   ,-2.5  ,-2.4  ,4.2
4336  ,6.108e+08   ,-2.5  ,-2.4  ,4.4
4342  ,1.207e+08   ,-2.5  ,-2.4  ,4.6
4348  ,4.132e+08   ,-2.4  ,-2.4707  ,4.9707
4352  ,3.837e+08   ,-2.3  ,-2.5  ,4.9
4354  ,8.850e+08   ,-2.1765  ,-2.5  ,4.8
4355  ,5.950e+08   ,-2.3  ,-2.3379  ,4.8
4362  ,2.213e+08   ,2.5  ,2.4  ,0.59273
4364  ,3.339e+08   ,2.5  ,-2.4  ,2.4
4366  ,3.798e+08   ,2.5  ,-2.4  ,2.2
4372  ,3.159e+08   ,2.4  ,-2.5  ,2.2
4385  ,5.527e+06   ,-2.5  ,-1.9  ,0.1
4399  ,4.556e+08   ,-2.5  ,2.1  ,0.1
4407  ,4.441e+07   ,-0.7  ,-2.4  ,0
4436  ,1.470e+08   ,-2.5  ,-0.1  ,0.1
4462  ,7.243e+08   ,-2.3  ,2.3  ,4.0333
4491  ,7.626e+08   ,2.5  ,-0.52764  ,4.9
4494  ,4.566e+08   ,2.5  ,-2.4  ,1.4
4503  ,1.889e+08   ,2.4  ,-2.5  ,1.4
4508  ,1.720e+08   ,2.4  ,-2.5  ,1.2
4515  ,7.303e+08   ,2.5  ,-2.4  ,1.8
4517  ,4.965e+08   ,2.4  ,-2.5  ,1.6
4522  ,3.304e+08   ,0.7  ,-2.4  ,0
4538  ,7.011e+08   ,-1.1189  ,2.4  ,5
4546  ,5.379e+09   ,2.4  ,2.5  ,4.1404
4559  ,8.514e+08   ,1.7  ,-2.4  ,0
4590  ,2.726e+08   ,0.5  ,-2.4  ,0
4631  ,5.618e+08   ,2.4  ,-2.5  ,2.6
4634  ,5.726e+08   ,2.5  ,-2.4  ,2.8
4657  ,5.360e+07   ,-2.5  ,-2.4  ,2
4660  ,4.452e+07   ,-2.5  ,-2.4  ,1.8
4664  ,8.343e+07   ,-0.3  ,-2.4  ,0
4675  ,3.558e+08   ,-2.4  ,-2.5  ,4.8
4681  ,1.319e+08   ,-2.5  ,-0.3  ,0.1
4684  ,5.993e+08   ,1.7  ,-2.4  ,5
4703  ,7.192e+08   ,-2.4  ,0.7  ,5
4707  ,5.491e+08   ,-2.5  ,0.3  ,4.9
4714  ,8.401e+08   ,2.4  ,-0.33054  ,5
4723  ,9.147e+08   ,-1.5567  ,2.3  ,4.8
4739  ,2.752e+08   ,-2.1044  ,2.5  ,4.9
4763  ,1.612e+08   ,-1.9  ,2.4  ,0
4780  ,1.514e+07   ,-2.3  ,-1.9695  ,0.2
4782  ,4.022e+06   ,-2.4707  ,-2.4  ,0.029289
4784  ,1.180e+07   ,-2.4  ,-1.9  ,0
4791  ,5.390e+07   ,-2.4  ,-2.5  ,1.8
4796  ,2.468e+08   ,2.4707  ,-2.4707  ,4.9
4799  ,4.040e+08   ,2.5  ,-2.4  ,4.8
4806  ,4.627e+08   ,2.3  ,-2.5  ,4.9
4809  ,7.754e+09   ,2.3  ,2.3  ,3.9166
4833  ,3.112e+08   ,-2.4  ,2.5  ,0.4
4841  ,5.451e+08   ,-2.4  ,2.5  ,2.6
4846  ,3.351e+08   ,-2.5  ,2.1  ,4.9
4848  ,3.048e+08   ,-2.5  ,2.3  ,4.9
4849  ,2.466e+08   ,-2.5  ,2.4  ,4.8
4893  ,3.687e+08   ,-2.4  ,2.5  ,4.2
4897  ,1.553e+10   ,2.3333  ,2.1998  ,5
4900  ,1.872e+10   ,2.391  ,2.4577  ,4.7576
4908  ,1.879e+10   ,2.2576  ,2.391  ,4.9577
4911  ,1.915e+10   ,2.2576  ,2.4577  ,4.891
4926  ,2.086e+08   ,-2.5  ,2.4  ,1
4932  ,4.421e+08   ,-2.4  ,2.5  ,1.6
4937  ,5.064e+08   ,-1.1  ,2.5  ,0.1
4939  ,1.335e+10   ,2.3  ,2.2299  ,4.7299
4944  ,5.734e+08   ,2.5  ,-1.9073  ,4.9
4987  ,8.667e+08   ,-2.3  ,1.5527  ,4.8
5010  ,3.983e+10   ,2.4973  ,2.1331  ,4.923
5013  ,1.358e+10   ,2.5  ,2.0345  ,4.9
5017  ,1.514e+10   ,2.4  ,2.0345  ,5
5035  ,3.665e+08   ,1.3  ,-2.4  ,0
5038  ,5.364e+08   ,1.2085  ,-2.5  ,0.2
5092  ,3.098e+07   ,-2.4  ,-2.5  ,1.2
5123  ,4.410e+08   ,2.5  ,-2.4  ,0.6
5151  ,7.895e+07   ,-2.5  ,-0.5  ,0.1
5160  ,2.381e+07   ,-2.5  ,-0.7  ,0.1
5164  ,6.111e+08   ,-2.4  ,0.9  ,5
5168  ,6.996e+08   ,-2.4  ,0.5  ,5
5176  ,4.173e+08   ,2.5  ,-0.7  ,0.1
5179  ,3.334e+08   ,2.4  ,-0.5  ,0
5189  ,4.082e+08   ,2.4  ,-2.5  ,2.4
5194  ,5.172e+08   ,2.3  ,-2.5  ,2.2576
5198  ,1.586e+07   ,-2.3  ,-2.5  ,0.32348
5205  ,1.122e+07   ,-2.4  ,-2.5  ,0.2
5207  ,1.321e+07   ,-2.1  ,-2.5  ,0.1
5246  ,6.135e+08   ,-2.5  ,2.4  ,3.2
5257  ,4.404e+08   ,-2.5  ,1.5  ,4.9
5263  ,2.640e+08   ,-2.3  ,0.2278  ,0.2
5272  ,2.676e+08   ,-2.5  ,0.3  ,0.1
5275  ,5.809e+08   ,-2.5  ,0.5  ,4.9
5281  ,7.333e+09   ,1.8375  ,2.5  ,4.9
5297  ,4.833e+08   ,-0.9  ,2.5  ,0.1
5306  ,4.035e+08   ,-0.7  ,2.4  ,0
5309  ,6.206e+08   ,-0.5  ,2.5  ,0.1
5324  ,1.596e+09   ,2.4  ,2.5  ,2.7607
5332  ,1.843e+08   ,2.5  ,-2.4  ,0.8
5334  ,2.390e+08   ,2.4  ,-2.5  ,1
5360  ,4.135e+08   ,2.4  ,-1.7102  ,5
5362  ,4.085e+08   ,2.4  ,-1.5131  ,5
5368  ,8.045e+09   ,2.4  ,1.8375  ,5
5371  ,3.567e+10   ,2.4325  ,2.4888  ,4.6656
5372  ,1.879e+10   ,2.3333  ,2.5  ,4.6998
5376  ,2.559e+10   ,2.4707  ,2.4707  ,4.6331
5377  ,1.650e+10   ,2.5  ,2.4  ,4.5345
5379  ,2.979e+08   ,-1.5  ,-2.5  ,4.9
5406  ,2.443e+08   ,-2.5  ,-2.4  ,3.4
5420  ,2.871e+08   ,-2.3  ,-2.5  ,3.2226
5423  ,7.716e+08   ,1.5  ,-2.4  ,0
5502  ,5.422e+06   ,-2.5  ,-2.3  ,0.1
5504  ,7.123e+06   ,-2.5  ,-2.4  ,0.2
5506  ,4.822e+06   ,-2.4  ,-2.3  ,0
5511  ,9.036e+06   ,-2.5  ,-2.1  ,0.1
5513  ,3.755e+08   ,-2.4  ,0.5  ,0
5517  ,1.912e+07   ,-0.9  ,-2.5  ,0.1
5532  ,1.258e+08   ,-2.4707  ,2.4707  ,4.9
5534  ,3.579e+08   ,2.4  ,-0.7  ,0
5551  ,9.973e+08   ,2.5  ,-2.4  ,3.8
5566  ,4.705e+08   ,2.5  ,2.4  ,1.3811
5603  ,3.890e+08   ,2.4  ,-0.3  ,0
5617  ,2.771e+08   ,-2.1  ,2.5  ,0.1
5637  ,5.612e+08   ,-2.3  ,-1.9695  ,4.8
5641  ,5.084e+08   ,2.3  ,-2.5  ,3.4636
5645  ,6.392e+07   ,-2.4  ,-2.5  ,2
5649  ,9.990e+07   ,-2.4  ,-2.5  ,2.2
5659  ,6.902e+07   ,-2.3  ,-2.5  ,1.7774
5662  ,4.534e+08   ,2.1765  ,-2.5  ,4.8
5666  ,4.354e+08   ,2.4  ,-2.5  ,4.8
5669  ,2.744e+08   ,2.3  ,-2.3412  ,4.8
5695  ,5.044e+08   ,-2.4  ,0.7  ,0
5701  ,3.057e+08   ,-2.5  ,2.4  ,1.6
5715  ,3.907e+08   ,-2.4  ,2.5  ,1.8
5726  ,4.994e+08   ,-0.7  ,2.5  ,0.1
5727  ,3.249e+08   ,-1.1  ,2.4  ,0
5730  ,4.889e+08   ,2.3  ,-2.5  ,1.7774
5746  ,8.420e+08   ,2.5  ,2.4  ,1.7753
5755  ,5.106e+08   ,2.5  ,-2.4  ,4.4
5763  ,5.275e+08   ,2.4  ,-2.5  ,4.4
5773  ,2.555e+09   ,1.0491  ,2.5  ,4.9
5791  ,7.831e+08   ,-0.72473  ,2.4  ,5
5795  ,8.260e+09   ,1.8375  ,2.4  ,5
5803  ,2.310e+08   ,-0.3  ,-2.4  ,5
5810  ,5.176e+09   ,2.4  ,1.6404  ,5
5836  ,4.543e+08   ,-2.5  ,1.3  ,4.9
5860  ,7.294e+08   ,2.5  ,-2.4  ,1.6
5866  ,3.914e+08   ,1.5  ,-2.5  ,0.1
5884  ,4.597e+08   ,-2.4  ,-0.3  ,5
5888  ,3.539e+08   ,-2.5  ,-0.5  ,4.9
5901  ,4.904e+08   ,2.3  ,-2.5  ,2.5
5908  ,2.568e+08   ,2.5  ,-2.4  ,1.2
5909  ,5.938e+08   ,2.5  ,-2.4  ,2
5934  ,4.606e+08   ,1.9  ,-2.5  ,4.9
5938  ,6.331e+08   ,1.933  ,-2.5  ,4.8
5948  ,3.312e+08   ,-2.4  ,-2.5  ,4.6
5950  ,3.721e+08   ,-2.4707  ,-2.4707  ,4.9
5951  ,2.651e+08   ,-2.5  ,-2.4  ,4.8
5952  ,2.640e+08   ,-2.5  ,-2.3  ,4.9
5986  ,4.357e+08   ,2.3  ,-2.5  ,3.7085
5990  ,7.071e+08   ,-0.92182  ,2.5  ,4.9
6019  ,3.548e+08   ,2.5  ,1.9  ,0.1
6025  ,3.922e+08   ,2.4  ,-1.3  ,0
6035  ,4.291e+08   ,-2.5  ,1.9  ,4.9
6044  ,5.019e+08   ,0.1  ,2.5  ,0.1
6054  ,5.329e+08   ,2.4  ,0.1  ,0
6070  ,2.695e+08   ,-2.4  ,2.3  ,0
6071  ,2.287e+08   ,-2.3  ,2.4  ,0
6076  ,4.545e+08   ,-2.4  ,2.1  ,0
6083  ,2.223e+08   ,2.1  ,-2.4  ,0
6084  ,1.888e+08   ,2.4  ,2.3  ,0
6087  ,1.981e+08   ,2.3  ,2.4  ,0
6092  ,1.622e+07   ,-2.4  ,-2.5  ,0.4
6096  ,6.505e+06   ,-2.3  ,-2.5  ,0.1
6099  ,3.389e+08   ,0.7  ,-2.5  ,0.1
6149  ,3.023e+07   ,-2.4  ,-0.9  ,0
6159  ,1.432e+08   ,-2.5  ,-2.4  ,2.6
6183  ,3.197e+09   ,1.2462  ,2.5  ,4.9
6224  ,9.219e+08   ,2.5  ,-2.4  ,4
6228  ,8.314e+08   ,2.4  ,-2.5  ,3.8
6237  ,7.140e+08   ,2.5  ,0.7  ,0.1
6241  ,1.946e+10   ,2.5  ,2.3333  ,4.6998
6245  ,5.804e+08   ,2.5  ,2.4  ,1.5782
6259  ,5.120e+08   ,2.5  ,-2.1044  ,4.9
6265  ,6.732e+08   ,2.3  ,-1.9804  ,4.8
6267  ,2.867e+08   ,2.5  ,-2.3015  ,4.9
6268  ,2.215e+08   ,2.4707  ,-2.4  ,4.9707
6270  ,5.212e+08   ,2.4  ,-2.1044  ,5
6317  ,9.684e+08   ,-2.3  ,0.2278  ,4.8
6349  ,9.386e+08   ,-0.52764  ,2.4  ,5
6391  ,8.264e+08   ,2.4  ,2.5  ,1.7753
6440  ,5.842e+08   ,-2.5  ,2.4  ,3.8
6471  ,6.509e+08   ,2.5  ,-0.92182  ,4.9
6489  ,3.124e+09   ,2.5  ,1.2462  ,4.9
6523  ,1.674e+07   ,-1.1  ,-2.4  ,0
6528  ,1.459e+07   ,-1.1  ,-2.5  ,0.1
6535  ,1.780e+07   ,-0.9  ,-2.4  ,0
6538  ,8.424e+08   ,1.5  ,-2.4  ,5
6541  ,7.629e+08   ,1.5  ,-2.5  ,4.9
6551  ,7.804e+08   ,2.5  ,-0.72473  ,4.9
6564  ,3.916e+10   ,2.1331  ,2.4973  ,4.923
6565  ,1.414e+10   ,2.0345  ,2.5  ,4.9
6572  ,3.218e+08   ,2.4  ,-1.7  ,0
6581  ,1.323e+09   ,0  ,2.3  ,0.2
6592  ,5.902e+08   ,2.3  ,-1.9695  ,0.2
6594  ,3.359e+08   ,0.3  ,2.4  ,0
6601  ,7.114e+08   ,0.5  ,2.5  ,0.1
6605  ,3.646e+07   ,-2.4  ,-1.3  ,0
6606  ,2.888e+07   ,-2.4  ,-1.1  ,0
6615  ,1.179e+08   ,-2.4  ,-0.3  ,0
6634  ,4.583e+08   ,2.1  ,-2.5  ,4.9
6635  ,2.565e+08   ,2.4  ,-2.4707  ,4.9707
6636  ,4.144e+08   ,2.3  ,-2.4  ,5
6647  ,2.630e+08   ,0.5  ,-2.5  ,0.1
6704  ,1.484e+08   ,-2.4707  ,2.4707  ,0.1
6708  ,2.442e+08   ,-2.5  ,2.4  ,0.2
6712  ,5.033e+08   ,-2.4  ,2.5  ,3.6
6715  ,5.802e+08   ,-2.4  ,2.5  ,3.4
6728  ,5.946e+08   ,-2.5  ,0.7  ,4.9
6753  ,2.669e+08   ,-2.1044  ,2.4  ,5
6788  ,9.706e+09   ,2.5  ,2.4  ,4.3375
6791  ,7.337e+08   ,-1.933  ,-2.5  ,4.8
6795  ,1.873e+10   ,2.1998  ,2.5  ,4.8333
6837  ,2.273e+07   ,-2.3  ,-2.5  ,0.8063
6869  ,5.125e+08   ,2.5  ,-1.7102  ,4.9
6873  ,6.011e+08   ,2.4  ,-1.9073  ,5
6880  ,7.141e+08   ,2.4  ,-0.92182  ,5
6885  ,8.394e+08   ,2.4  ,-0.52764  ,5
6893  ,2.853e+09   ,2.4  ,1.2462  ,5
6914  ,6.674e+08   ,0.7  ,2.5  ,0.1
6920  ,5.545e+08   ,0.9  ,2.4  ,0
6923  ,5.062e+08   ,0.7  ,2.4  ,0
6936  ,7.991e+08   ,2.4  ,-2.5  ,3.4
6939  ,8.002e+08   ,2.3  ,-2.5  ,3.2226
6961  ,5.569e+08   ,-0.1  ,-2.5  ,4.9
6967  ,3.243e+08   ,-2.5  ,-1.5  ,4.9
6975  ,5.175e+08   ,-2.4  ,1.1  ,5
6978  ,2.884e+08   ,-2.4  ,2.5  ,0.2
6987  ,4.305e+08   ,2.4  ,-1.316  ,5
6994  ,3.575e+08   ,2.4  ,-1.5  ,0
7004  ,7.315e+08   ,2.4  ,-2.5  ,3.6
7011  ,2.085e+09   ,2.4  ,0.65491  ,5
7016  ,1.528e+09   ,2.4  ,0.45782  ,5
7019  ,1.131e+09   ,2.5  ,2.4  ,2.1695
7021  ,1.002e+09   ,2.5  ,2.4  ,1.9724
7052  ,3.694e+08   ,-1.3  ,2.5  ,0.1
7054  ,2.077e+07   ,-2.4  ,-2.5  ,0.8
7057  ,2.241e+08   ,0.3  ,-2.5  ,0.1
7065  ,2.070e+08   ,0.24243  ,-2.5  ,0.2
7075  ,3.615e+10   ,2.4888  ,2.4325  ,4.6656
7113  ,1.571e+08   ,-2.4  ,-2.5  ,2.6
7121  ,1.946e+08   ,-2.4  ,-2.5  ,2.8
7126  ,1.796e+08   ,-2.5  ,-2.4  ,2.8
7128  ,5.516e+06   ,-2.4707  ,-2.4707  ,0.1
7129  ,6.120e+06   ,-2.4  ,-2.4707  ,0.029289
7141  ,2.952e+08   ,-1.7  ,-2.4  ,5
7145  ,5.107e+08   ,1.1  ,2.4  ,0
7163  ,2.619e+08   ,-1.7102  ,2.4  ,5
7172  ,6.093e+08   ,2.5  ,-2.4  ,3.2
7174  ,5.480e+08   ,-2.5  ,2.4  ,3.6
7183  ,2.623e+08   ,-1.4531  ,-2.5  ,4.8
7204  ,1.702e+09   ,2.3  ,-0.81068  ,4.8
7220  ,1.112e+09   ,2.5  ,0.063638  ,4.9
7227  ,3.924e+08   ,2.5  ,-1.9  ,0.1
7256  ,3.866e+08   ,-0.1  ,-2.4  ,5
7280  ,1.052e+09   ,-0.33054  ,2.4  ,5
7299  ,5.500e+08   ,2.5  ,-1.1189  ,4.9
7316  ,2.123e+07   ,-2.5  ,-2.4  ,0.8
7323  ,2.576e+07   ,-2.4  ,-2.5  ,1
7396  ,9.421e+08   ,1.1  ,-2.4  ,5
7400  ,4.934e+08   ,-2.5  ,0.7  ,0.1
7409  ,1.015e+09   ,1.3  ,-2.4  ,5
7420  ,3.959e+08   ,2.5  ,2.1  ,0.1
7429  ,3.298e+08   ,2.4  ,1.9  ,0
7436  ,3.463e+08   ,2.5  ,-1.7  ,0.1
7438  ,6.577e+08   ,2.4  ,-2.5  ,2.8
7445  ,3.333e+10   ,2.4325  ,2.1656  ,4.9888
7464  ,2.826e+08   ,2.5  ,-1.5  ,0.1
7480  ,3.431e+08   ,2.5  ,-2.4  ,0.2
7482  ,1.620e+08   ,1.9  ,-2.5  ,0.1
7483  ,1.647e+08   ,1.7  ,-2.5  ,0.1
7486  ,4.869e+08   ,1.9  ,-2.4  ,5
7488  ,5.861e+08   ,1.6937  ,-2.5  ,4.8
7492  ,6.207e+08   ,2.1  ,-2.4  ,5
7495  ,1.770e+08   ,0.1  ,-2.5  ,0.1
7504  ,2.100e+08   ,0.3  ,-2.4  ,0
7507  ,4.141e+08   ,0.9  ,-2.5  ,0.1
7533  ,5.911e+08   ,-2.5  ,0.9  ,0.1
7536  ,3.013e+08   ,-2.4  ,-2.5  ,3.2
7540  ,2.385e+08   ,-2.4  ,-2.5  ,3
7545  ,2.397e+08   ,-2.5  ,-2.4  ,3
7582  ,3.819e+08   ,1.3  ,2.5  ,0.1
7588  ,1.439e+09   ,2.5  ,2.4  ,2.3665
7598  ,4.845e+08   ,-2.5  ,2.4  ,4.2
7607  ,7.683e+08   ,1.5333  ,2.3  ,0.2
7627  ,4.800e+08   ,-2.5  ,1.1  ,4.9
7651  ,2.974e+08   ,2.4  ,-1.9  ,0
7656  ,2.827e+08   ,2.5  ,2.4  ,0.39564
7660  ,1.356e+10   ,2.2299  ,2.3  ,4.7299
7668  ,6.693e+08   ,1.4531  ,-2.5  ,4.8
7676  ,6.943e+08   ,0.1  ,-2.5  ,4.9
7683  ,6.379e+08   ,0.1  ,-2.4  ,5
7686  ,4.143e+08   ,-2.4  ,-1.1  ,5
7702  ,4.842e+08   ,-2.3  ,-2.5  ,4.433
7710  ,3.065e+08   ,-2.3  ,-2.5  ,4.6765
7752  ,7.653e+08   ,0.9  ,-2.4  ,5
7763  ,6.396e+08   ,0.24243  ,-2.5  ,4.8
7767  ,2.967e+08   ,-2.5  ,-2.4  ,3.2
7768  ,7.943e+06   ,-2.4  ,-2.1  ,0
7776  ,5.639e+08   ,-2.4  ,0.9  ,0
7786  ,4.874e+08   ,-0.4838  ,-2.5  ,4.8
7800  ,6.324e+08   ,2.5  ,-2.4  ,4.6
7805  ,3.695e+08   ,-2.5  ,-1.3  ,4.9
7811  ,3.183e+08   ,-2.5  ,-1.1  ,4.9
7820  ,3.181e+08   ,2.5  ,-2.1  ,0.1
7824  ,2.721e+08   ,2.4  ,-2.1  ,0
7828  ,6.136e+08   ,2.4  ,-2.5  ,4.2
7831  ,8.272e+08   ,2.4  ,-2.5  ,4
7838  ,6.074e+08   ,2.5  ,-2.4  ,4.2
7839  ,1.504e+09   ,2.5  ,2.4  ,2.7607
7840  ,1.760e+09   ,2.5  ,2.4  ,2.9578
7863  ,2.458e+07   ,-2.4  ,-1.5  ,0
7890  ,6.206e+08   ,2.4  ,0.9  ,0
7897  ,2.745e+07   ,-2.4  ,-0.7  ,0
7912  ,1.933e+07   ,-1.5  ,-2.4  ,0
7917  ,1.961e+07   ,-1.3  ,-2.5  ,0.1
7931  ,3.559e+08   ,0.5  ,2.4  ,0
7934  ,1.492e+08   ,1.1  ,-2.4  ,0
7937  ,1.520e+08   ,2.4  ,-2.5  ,0.8
7941  ,2.291e+07   ,-2.4  ,-2.5  ,0.6
7969  ,2.869e+08   ,-2.5  ,2.3  ,0.1
7971  ,5.019e+08   ,-2.4  ,1.9  ,0
7972  ,2.698e+08   ,-1.9  ,2.5  ,0.1
7978  ,5.620e+08   ,-2.4  ,1.1  ,0
7996  ,4.552e+08   ,-2.4  ,-0.5  ,5
8000  ,2.228e+07   ,-2.5  ,-2.4  ,0.6
8003  ,2.002e+07   ,-2.5  ,-2.4  ,0.4
8025  ,4.853e+08   ,0.9  ,2.5  ,0.1
8035  ,4.649e+08   ,0.3  ,2.5  ,0.1
8039  ,8.940e+08   ,2.3  ,-2.5  ,0.32348
8041  ,6.038e+08   ,2.3  ,-2.3379  ,0.2
8043  ,3.355e+08   ,2.1765  ,-2.5  ,0.2
8045  ,2.119e+07   ,-0.96359  ,-2.5  ,0.2
8054  ,4.352e+08   ,1.3  ,2.4  ,0
8058  ,4.428e+08   ,1.1  ,2.5  ,0.1
8062  ,2.973e+08   ,-2.5  ,2.4  ,1.4
8067  ,1.765e+08   ,-2.5  ,2.4  ,0.8
8087  ,5.087e+08   ,-2.5  ,1.5  ,0.1
8132  ,1.343e+09   ,-0.13345  ,2.4  ,5
8183  ,4.208e+08   ,2.5  ,-0.9  ,0.1
8184  ,6.448e+08   ,1.6937  ,-2.5  ,0.2
8214  ,2.413e+08   ,-2.4707  ,-2.4  ,4.9707
8217  ,5.530e+08   ,-2.1  ,-2.4  ,5
8219  ,2.497e+08   ,-2.4  ,-2.5  ,4.4
8227  ,2.155e+09   ,2.5  ,2.4  ,3.1549
8242  ,7.813e+08   ,0.7  ,-2.5  ,4.9
8248  ,9.433e+08   ,2.5  ,-2.4  ,3.6
8254  ,4.253e+08   ,2.5  ,-0.3  ,0.1
8256  ,4.223e+08   ,2.5  ,-0.5  ,0.1
8258  ,3.437e+08   ,-0.3  ,-2.5  ,4.9
8263  ,3.355e+08   ,-0.5  ,-2.5  ,4.9
8268  ,4.841e+08   ,-2.3  ,-2.5  ,3.7085
8277  ,1.328e+08   ,-0.1  ,-2.5  ,0.1
8285  ,7.519e+08   ,1.1  ,-2.5  ,4.9
8307  ,3.642e+08   ,0.1  ,2.4  ,0
8308  ,1.161e+09   ,-0.1  ,2.5  ,0.1
8309  ,5.550e+08   ,-0.1  ,2.4  ,0
8313  ,2.398e+08   ,2.5  ,-2.3  ,0.1
8318  ,5.461e+08   ,2.5  ,-2.4  ,3
8338  ,2.121e+09   ,2.5  ,2.4  ,3.352
8339  ,2.020e+09   ,2.4  ,2.5  ,3.1549
8344  ,6.300e+08   ,-2.5  ,2.4  ,3.4
8357  ,3.243e+10   ,2.4888  ,2.1656  ,4.9325
8358  ,1.954e+10   ,2.5  ,2.1998  ,4.8333
8383  ,1.396e+07   ,-1.7  ,-2.4  ,0
8396  ,4.035e+08   ,1.1  ,-2.5  ,0.1
8399  ,3.947e+10   ,2.4526  ,2.1331  ,4.9851
8405  ,2.109e+08   ,2.5  ,-2.4  ,1
8412  ,3.837e+08   ,2.3  ,-2.5  ,0.8063
8417  ,1.274e+08   ,-2.3  ,-2.5  ,2.5
8434  ,6.148e+08   ,0.9636  ,-2.5  ,4.8
8438  ,8.882e+07   ,-0.3  ,-2.5  ,0.1
8452  ,5.059e+08   ,-2.4  ,-0.1  ,5
8468  ,3.007e+09   ,2.5  ,2.4  ,3.7462
8471  ,3.419e+08   ,-1.3  ,-2.5  ,4.9
8493  ,3.914e+08   ,-1.1  ,-2.5  ,4.9
8509  ,1.324e+07   ,-2.5  ,-1.7  ,0.1
8517  ,5.393e+08   ,-2.4  ,2.5  ,3
8531  ,5.291e+08   ,-2.4  ,1.7  ,0
8556  ,2.561e+09   ,2.5  ,2.4  ,3.5491
8573  ,5.129e+08   ,-1.316  ,2.4  ,5
8576  ,5.250e+08   ,-2.4  ,1.3  ,0
8611  ,7.481e+07   ,2.3  ,-2.5  ,1.2915
8618  ,3.703e+08   ,-2.4  ,2.5  ,4
8646  ,5.658e+08   ,-2.5  ,1.1  ,0.1
8656  ,3.816e+08   ,2.5  ,-1.3  ,0.1
8657  ,2.686e+08   ,2.4  ,2.1  ,0
8673  ,2.435e+08   ,-1.3  ,2.4  ,0
8692  ,8.323e+08   ,0.72263  ,-2.5  ,4.8
8696  ,1.212e+08   ,2.3  ,-2.5  ,1.0469
8706  ,1.914e+09   ,2.5  ,0.65491  ,4.9
8721  ,5.477e+07   ,-2.4  ,-2.5  ,1.6
8725  ,2.320e+09   ,0.65491  ,2.4  ,5
8739  ,3.285e+10   ,2.1656  ,2.4325  ,4.9888
8741  ,1.910e+10   ,2.1998  ,2.3333  ,5
8746  ,1.572e+07   ,-2.1  ,-2.4  ,0
8748  ,3.815e+07   ,-2.5  ,-2.4  ,1.2
8752  ,3.928e+10   ,2.1331  ,2.4526  ,4.9851
8759  ,1.846e+07   ,-2.3  ,-2.5  ,1.0469
8787  ,1.230e+08   ,-0.1  ,-2.4  ,0
8793  ,9.576e+07   ,-2.3  ,-2.5  ,2.2576
8795  ,1.324e+08   ,-2.4  ,-2.5  ,2.4
8798  ,6.025e+08   ,-2.3  ,-2.5  ,4.1937
8808  ,1.782e+08   ,-2.3  ,-2.5  ,3.9531
8814  ,3.755e+08   ,-2.4  ,-1.5  ,5
8849  ,7.918e+08   ,0.4838  ,-2.5  ,4.8
8851  ,1.828e+08   ,-2.4  ,-2.5  ,4.2
8868  ,7.111e+08   ,2.4  ,-2.5  ,3
8874  ,2.422e+09   ,0.852  ,2.4  ,5
8883  ,4.364e+08   ,-0.5  ,-2.4  ,5
8886  ,5.475e+08   ,-0.72262  ,-2.5  ,4.8
8893  ,5.102e+08   ,-0.7  ,-2.5  ,4.9
8897  ,1.412e+08   ,-2.5  ,-2.4  ,3.6
8899  ,4.949e+08   ,-2.3  ,-2.5  ,3.4636
8900  ,2.325e+07   ,-2.3  ,-1.4729  ,0.2
8906  ,2.029e+07   ,-2.5  ,-1.3  ,0.1
8910  ,2.450e+09   ,0.852  ,2.5  ,4.9
8925  ,3.995e+08   ,-2.4  ,2.5  ,1.4
8941  ,1.619e+08   ,2.4707  ,2.4  ,0.029289
8942  ,2.612e+08   ,2.5  ,2.3  ,0.1
8945  ,4.846e+08   ,-2.5  ,0.1  ,4.9
8950  ,2.116e+08   ,2.4707  ,2.4707  ,0.1
8951  ,1.476e+08   ,2.4  ,2.4707  ,0.029289
8959  ,1.157e+09   ,2.4  ,0.26073  ,5
8965  ,1.839e+09   ,0.45782  ,2.4  ,5
8978  ,2.229e+09   ,2.4  ,0.852  ,5
8983  ,4.349e+08   ,2.5  ,-1.1  ,0.1
8991  ,1.888e+08   ,-2.5  ,2.4  ,0.6
9008  ,2.033e+09   ,2.5  ,0.852  ,4.9
9011  ,6.238e+07   ,-2.4  ,-0.5  ,0
9025  ,1.234e+07   ,-1.5  ,-2.5  ,0.1
9038  ,4.555e+08   ,2.4  ,-2.5  ,2
9041  ,6.471e+08   ,2.5  ,0.9  ,0.1
9050  ,6.825e+08   ,2.5  ,0.5  ,0.1
9054  ,2.570e+08   ,0.9  ,-2.4  ,0
9060  ,2.054e+08   ,2.4  ,-2.5  ,0.4
9062  ,7.267e+08   ,2.3  ,-2.5  ,0.56701
9064  ,4.926e+08   ,2.5  ,-2.4  ,0.4
9069  ,1.911e+08   ,2.4  ,-2.5  ,0.6
9071  ,2.122e+08   ,1.4531  ,-2.5  ,0.2
9082  ,2.052e+07   ,-2.3  ,-2.5  ,1.2915
9086  ,4.313e+07   ,-2.4  ,-2.5  ,1.4
9091  ,4.850e+07   ,-2.5  ,-2.4  ,1.4
9094  ,8.400e+08   ,1.3  ,-2.5  ,4.9
9097  ,3.832e+07   ,-0.7  ,-2.5  ,0.1
9137  ,3.682e+08   ,-2.5  ,-0.7  ,4.9
9143  ,5.151e+08   ,-2.5  ,-0.1  ,4.9
9146  ,1.972e+08   ,-2.1  ,2.4  ,0
9148  ,4.153e+08   ,-2.5  ,1.7  ,4.9
9173  ,5.431e+08   ,-2.5  ,2.4  ,3
9192  ,7.136e+08   ,-0.7  ,-2.4  ,5
9195  ,3.282e+08   ,0.72263  ,-2.5  ,0.2
9209  ,7.484e+08   ,2.5  ,-2.4  ,3.4
9215  ,5.515e+08   ,0.9636  ,-2.5  ,0.2
9217  ,7.585e+08   ,2.4  ,-2.5  ,3.2
9218  ,4.833e+08   ,-0.96359  ,-2.5  ,4.8
9229  ,5.239e+08   ,-2.4  ,2.5  ,2.8
9248  ,6.930e+08   ,2.3  ,-2.5  ,4.433
9255  ,5.971e+08   ,2.5  ,1.3  ,0.1
9257  ,4.417e+08   ,2.4  ,1.5  ,0
9262  ,5.823e+08   ,0.5  ,-2.4  ,5
9264  ,7.787e+08   ,2.4  ,-0.13345  ,5
9272  ,1.345e+09   ,0.063638  ,2.4  ,5
9277  ,2.471e+08   ,-2.5  ,2.4  ,1.2
9279  ,1.265e+09   ,2.5  ,0.26073  ,4.9
9282  ,4.672e+08   ,1.2085  ,-2.5  ,4.8
9286  ,8.149e+08   ,0.9  ,-2.5  ,4.9
9292  ,7.944e+07   ,-2.4  ,2.4707  ,4.9707
9293  ,8.861e+07   ,-2.3015  ,2.4  ,5
9296  ,3.158e+08   ,-2.4  ,-2.1  ,5
9303  ,4.086e+08   ,-2.4  ,-1.9  ,5
9311  ,2.262e+08   ,-2.4  ,2.3  ,5
9313  ,5.314e+08   ,-2.4  ,0.1  ,5
9319  ,6.332e+07   ,-0.5  ,-2.4  ,0
9328  ,4.200e+07   ,-2.3  ,-2.5  ,1.5364
9334  ,2.831e+08   ,-2.3  ,2.5  ,0.1
9338  ,1.224e+08   ,-2.5  ,-2.4  ,2.4
9339  ,5.285e+08   ,-2.5  ,1.3  ,0.1
9341  ,1.872e+08   ,-2.3  ,-2.5  ,2.7424
9344  ,1.034e+08   ,-2.5  ,-2.4  ,2.2
9358  ,2.202e+09   ,-2.3  ,2.3  ,2.5
9364  ,3.193e+08   ,-2.5  ,-2.1  ,4.9
9367  ,2.809e+08   ,-2.4  ,-2.3  ,5
9374  ,3.726e+08   ,-2.4  ,-1.3  ,5
9378  ,3.762e+08   ,-2.5  ,2.4  ,1.8
9384  ,5.093e+08   ,2.3  ,-2.5  ,2.0162
9385  ,4.174e+08   ,-2.5  ,2.4  ,4.4
9389  ,3.502e+08   ,-2.5  ,2.4  ,2
9395  ,2.906e+08   ,2.4  ,-2.3015  ,5
9396  ,1.347e+07   ,-2.4  ,-1.7  ,0
9407  ,6.618e+08   ,-2.3  ,-1.4729  ,4.8
9411  ,3.367e+08   ,-2.5  ,-1.7  ,4.9
9423  ,3.580e+08   ,-2.4  ,-2.5  ,3.6
9432  ,6.112e+08   ,0.7  ,-2.4  ,5
9438  ,3.257e+08   ,-2.5  ,-0.9  ,4.9
9443  ,4.087e+08   ,-2.5  ,-0.3  ,4.9
9445  ,1.297e+08   ,-2.4707  ,2.4  ,4.9707
9448  ,4.416e+08   ,2.4  ,-1.1189  ,5
9453  ,6.190e+08   ,2.4  ,0.7  ,0
9455  ,5.407e+08   ,2.5  ,-2.4  ,2.6
9457  ,8.270e+08   ,2.3  ,-2.5  ,2.9838
9494  ,3.343e+08   ,-2.4  ,2.5  ,1
9500  ,7.414e+08   ,0.3  ,-2.5  ,4.9
9504  ,6.663e+08   ,0.3  ,-2.4  ,5
9506  ,3.226e+08   ,2.1  ,-2.5  ,0.1
9518  ,1.679e+07   ,-1.9  ,-2.5  ,0.1
9528  ,3.493e+08   ,2.3  ,-2.5  ,0.1
9531  ,4.058e+08   ,2.4707  ,-2.4707  ,0.1
9533  ,2.504e+08   ,2.4707  ,-2.4  ,0.029289
9534  ,3.674e+08   ,2.4  ,-2.4707  ,0.029289
9541  ,7.162e+08   ,0.5  ,-2.5  ,4.9
9544  ,5.697e+07   ,-0.5  ,-2.5  ,0.1
9559  ,3.003e+08   ,-2.5  ,-1.9  ,4.9
9562  ,3.412e+08   ,-2.5  ,2.4  ,4.6
9565  ,5.103e+08   ,-2.4  ,2.5  ,2
9571  ,3.467e+08   ,-2.5  ,-2.4  ,3.8
9574  ,4.184e+08   ,-2.4  ,-2.5  ,3.8
9577  ,4.507e+08   ,1.3  ,-2.5  ,0.1
9582  ,2.775e+07   ,-2.5  ,-0.9  ,0.1
9596  ,2.798e+08   ,2.1  ,2.4  ,0
9598  ,6.472e+08   ,-2.4  ,2.5  ,3.2
9602  ,3.852e+08   ,1.5  ,2.5  ,0.1
9610  ,3.146e+08   ,2.4  ,2.5  ,0.39564
9612  ,8.339e+08   ,-0.72473  ,2.5  ,4.9
9614  ,3.679e+08   ,1.7  ,2.5  ,0.1
9635  ,5.368e+08   ,2.5  ,1.7  ,0.1
9646  ,2.365e+08   ,2.3  ,2.5  ,0.1
9651  ,3.231e+10   ,2.1656  ,2.4888  ,4.9325
9653  ,4.819e+08   ,2.5  ,-1.316  ,4.9
9656  ,3.322e+08   ,-2.4  ,-1.7  ,5
9659  ,4.359e+08   ,2.3  ,-2.5  ,4.6765
9661  ,7.346e+08   ,2.3  ,-2.5  ,3.9531
9664  ,3.520e+08   ,-2.3  ,-2.4  ,5
9666  ,5.898e+08   ,1.9  ,-2.4  ,0
9677  ,5.931e+08   ,2.4  ,0.5  ,0
9678  ,1.885e+07   ,-2.5  ,-1.1  ,0.1
9680  ,4.016e+08   ,2.5  ,2.4  ,1.184
9681  ,3.147e+08   ,2.5  ,2.4  ,0.19855
9696  ,8.131e+07   ,-2.3  ,-2.5  ,2.0162
9698  ,2.710e+08   ,2.4  ,-2.3  ,0
9699  ,9.628e+07   ,-0.24243  ,-2.5  ,0.2
9701  ,1.622e+08   ,0.1  ,-2.4  ,0
9704  ,5.788e+07   ,-0.4838  ,-2.5  ,0.2
9718  ,3.003e+07   ,-0.72262  ,-2.5  ,0.2
9726  ,1.200e+09   ,2.3  ,-0.76628  ,0.2
9727  ,2.488e+08   ,-2.5  ,2.4  ,0.4
9730  ,6.063e+08   ,1.9433E-06  ,-2.5  ,4.8
9731  ,5.676e+08   ,-0.24243  ,-2.5  ,4.8
9732  ,4.313e+08   ,-2.5  ,2.4  ,2.2
9738  ,7.539e+08   ,-2.5  ,-2.4  ,4
9743  ,4.785e+08   ,-1.6937  ,-2.5  ,4.8
9744  ,4.346e+08   ,-2.4  ,-2.5  ,4
9750  ,1.167e+07   ,-1.7  ,-2.5  ,0.1
9752  ,1.033e+07   ,-1.6937  ,-2.5  ,0.2
9754  ,2.751e+07   ,-1.3  ,-2.4  ,0
9759  ,1.637e+08   ,-2.4707  ,2.4  ,0.029289
9760  ,1.406e+08   ,-2.4  ,2.4707  ,0.029289
9768  ,6.702e+08   ,2.3  ,-2.5  ,4.1937
9770  ,1.347e+08   ,1.9433E-06  ,-2.5  ,0.2
9771  ,2.613e+08   ,0.4838  ,-2.5  ,0.2
9772  ,3.688e+08   ,2.4  ,-2.5  ,0.2
9773  ,4.466e+08   ,2.4  ,-2.5  ,4.6
9776  ,9.358e+08   ,2.4  ,0.063638  ,5
9780  ,2.228e+09   ,0.65491  ,2.5  ,4.9
9781  ,2.530e+08   ,2.4  ,2.5  ,0.19855
9782  ,2.285e+08   ,-2.3  ,-2.5  ,2.9838
9786  ,2.327e+07   ,-1.2085  ,-2.5  ,0.2
9787  ,1.003e+07   ,-1.4531  ,-2.5  ,0.2
9790  ,2.722e+08   ,2.3  ,-2.4  ,0
9793  ,1.488e+10   ,2.0345  ,2.4  ,5
9797  ,3.045e+08   ,2.3  ,-2.5  ,1.5364
9798  ,2.373e+09   ,2.4  ,1.0491  ,5
9809  ,2.359e+09   ,2.4  ,2.5  ,3.352
