Date:  12:46, Monday, July 10, 2023
Model name: Hollow_DropBox
Study name: DropTest_300fts(-Default-)
Plot type:  Stress1
Plot step: 4   time : 20.9915 Microseconds
Result Type: von Mises 


Node  ,Value (N/m^2)  ,X (in)  ,Y (in)  ,Z (in)
1  ,1.026e+10   ,2.5  ,2.1331  ,4.9
2  ,2.383e+10   ,2.4577  ,2.1908  ,4.9577
3  ,2.532e+10   ,2.4894  ,2.1331  ,4.9447
4  ,1.018e+10   ,2.1331  ,2.5  ,4.9
5  ,2.521e+10   ,2.1331  ,2.4894  ,4.9447
6  ,2.182e+10   ,2.1908  ,2.4577  ,4.9577
7  ,6.503e+07   ,-2.4  ,2.4  ,5
8  ,3.898e+06   ,-2.4  ,-2.4  ,5
9  ,7.607e+07   ,2.4  ,-2.4  ,5
10  ,8.586e+09   ,2.4  ,2.1331  ,5
11  ,9.213e+09   ,2.1331  ,2.4  ,5
12  ,7.343e+07   ,2.5  ,-2.4  ,4.9
13  ,4.259e+06   ,2.5  ,-2.4  ,0.1
14  ,7.467e+07   ,2.5  ,2.4  ,0.1
15  ,1.005e+10   ,2.5  ,2.4  ,4.6331
16  ,7.868e+07   ,2.4  ,2.5  ,0.1
17  ,1.312e+07   ,-2.4  ,2.5  ,0.1
18  ,7.010e+07   ,-2.4  ,2.5  ,4.9
19  ,9.781e+09   ,2.4  ,2.5  ,4.6331
20  ,5.449e+06   ,-2.5  ,2.4  ,0.1
21  ,1.021e+04   ,-2.5  ,-2.4  ,0.1
22  ,1.916e+06   ,-2.5  ,-2.4  ,4.9
23  ,3.273e+07   ,-2.5  ,2.4  ,4.9
24  ,3.145e+04   ,-2.3  ,-2.5  ,0.2
25  ,3.126e+06   ,-2.3  ,-2.5  ,4.8
26  ,3.645e+07   ,2.3  ,-2.5  ,4.8
27  ,4.651e+06   ,2.3  ,-2.5  ,0.2
28  ,2.066e+06   ,-2.4  ,-2.5  ,4.9
29  ,3.352e+07   ,2.4  ,-2.5  ,4.9
30  ,1.505e+04   ,-2.4  ,-2.5  ,0.1
31  ,3.543e+06   ,2.4  ,-2.5  ,0.1
32  ,1.608e+06   ,2.4  ,-2.4  ,0
33  ,3.828e+07   ,2.4  ,2.4  ,0
34  ,1.664e+04   ,-2.4  ,-2.4  ,0
35  ,9.727e+06   ,-2.4  ,2.4  ,0
36  ,2.994e+10   ,2.4577  ,2.4577  ,4.6908
37  ,7.880e+07   ,-2.3  ,2.3  ,4.8
38  ,9.454e+09   ,2.1599  ,2.3  ,4.8
39  ,9.425e+09   ,2.3  ,2.1599  ,4.8
40  ,9.519e+09   ,2.3  ,2.3  ,4.6599
41  ,7.536e+07   ,2.3  ,2.3  ,0.2
42  ,1.326e+07   ,-2.3  ,2.3  ,0.2
43  ,6.153e+07   ,-2.4  ,2.2  ,5
44  ,6.468e+07   ,-2.4  ,2  ,5
45  ,5.012e+07   ,-2.4  ,1.8  ,5
46  ,4.959e+07   ,-2.4  ,1.6  ,5
47  ,3.961e+07   ,-2.4  ,1.4  ,5
48  ,3.503e+07   ,-2.4  ,1.2  ,5
49  ,3.425e+07   ,-2.4  ,1  ,5
50  ,5.422e+07   ,-2.4  ,0.8  ,5
51  ,4.231e+07   ,-2.4  ,0.6  ,5
52  ,3.970e+07   ,-2.4  ,0.4  ,5
53  ,3.630e+07   ,-2.4  ,0.2  ,5
54  ,2.614e+07   ,-2.4  ,5.8879E-16  ,5
55  ,4.125e+07   ,-2.4  ,-0.2  ,5
56  ,8.059e+07   ,-2.4  ,-0.4  ,5
57  ,4.796e+07   ,-2.4  ,-0.6  ,5
58  ,2.288e+07   ,-2.4  ,-0.8  ,5
59  ,1.656e+07   ,-2.4  ,-1  ,5
60  ,3.497e+07   ,-2.4  ,-1.2  ,5
61  ,8.567e+06   ,-2.4  ,-1.4  ,5
62  ,9.416e+06   ,-2.4  ,-1.6  ,5
63  ,1.339e+07   ,-2.4  ,-1.8  ,5
64  ,2.957e+06   ,-2.4  ,-2  ,5
65  ,7.188e+06   ,-2.4  ,-2.2  ,5
66  ,6.019e+06   ,-2.2  ,-2.4  ,5
67  ,7.875e+06   ,-2  ,-2.4  ,5
68  ,1.089e+07   ,-1.8  ,-2.4  ,5
69  ,1.091e+07   ,-1.6  ,-2.4  ,5
70  ,9.756e+06   ,-1.4  ,-2.4  ,5
71  ,1.930e+07   ,-1.2  ,-2.4  ,5
72  ,3.006e+07   ,-1  ,-2.4  ,5
73  ,3.092e+07   ,-0.8  ,-2.4  ,5
74  ,1.695e+07   ,-0.6  ,-2.4  ,5
75  ,2.733e+07   ,-0.4  ,-2.4  ,5
76  ,4.845e+07   ,-0.2  ,-2.4  ,5
77  ,5.440e+07   ,-5.8879E-16  ,-2.4  ,5
78  ,5.599e+07   ,0.2  ,-2.4  ,5
79  ,5.417e+07   ,0.4  ,-2.4  ,5
80  ,5.032e+07   ,0.6  ,-2.4  ,5
81  ,3.690e+07   ,0.8  ,-2.4  ,5
82  ,1.754e+07   ,1  ,-2.4  ,5
83  ,1.848e+07   ,1.2  ,-2.4  ,5
84  ,3.930e+07   ,1.4  ,-2.4  ,5
85  ,3.990e+07   ,1.6  ,-2.4  ,5
86  ,3.031e+07   ,1.8  ,-2.4  ,5
87  ,3.474e+07   ,2  ,-2.4  ,5
88  ,5.749e+07   ,2.2  ,-2.4  ,5
89  ,2.065e+08   ,2.4  ,-2.2029  ,5
90  ,3.478e+08   ,2.4  ,-2.0058  ,5
91  ,4.866e+08   ,2.4  ,-1.8087  ,5
92  ,4.920e+08   ,2.4  ,-1.6116  ,5
93  ,5.515e+08   ,2.4  ,-1.4145  ,5
94  ,7.303e+08   ,2.4  ,-1.2175  ,5
95  ,1.008e+09   ,2.4  ,-1.0204  ,5
96  ,8.922e+08   ,2.4  ,-0.82327  ,5
97  ,5.765e+08   ,2.4  ,-0.62618  ,5
98  ,2.219e+08   ,2.4  ,-0.42909  ,5
99  ,3.035e+08   ,2.4  ,-0.232  ,5
100  ,2.073e+08   ,2.4  ,-0.034907  ,5
101  ,3.488e+08   ,2.4  ,0.16218  ,5
102  ,6.862e+08   ,2.4  ,0.35927  ,5
103  ,1.108e+09   ,2.4  ,0.55637  ,5
104  ,1.644e+09   ,2.4  ,0.75346  ,5
105  ,1.331e+09   ,2.4  ,0.95055  ,5
106  ,1.190e+09   ,2.4  ,1.1476  ,5
107  ,1.924e+09   ,2.4  ,1.3447  ,5
108  ,2.920e+09   ,2.4  ,1.5418  ,5
109  ,4.086e+09   ,2.4  ,1.7389  ,5
110  ,6.724e+09   ,2.4  ,1.936  ,5
111  ,9.482e+09   ,2.2665  ,2.2665  ,5
112  ,6.968e+09   ,1.936  ,2.4  ,5
113  ,3.733e+09   ,1.7389  ,2.4  ,5
114  ,2.779e+09   ,1.5418  ,2.4  ,5
115  ,1.669e+09   ,1.3447  ,2.4  ,5
116  ,1.311e+09   ,1.1476  ,2.4  ,5
117  ,1.107e+09   ,0.95055  ,2.4  ,5
118  ,1.566e+09   ,0.75346  ,2.4  ,5
119  ,1.202e+09   ,0.55637  ,2.4  ,5
120  ,8.008e+08   ,0.35927  ,2.4  ,5
121  ,4.765e+08   ,0.16218  ,2.4  ,5
122  ,3.062e+08   ,-0.034907  ,2.4  ,5
123  ,1.805e+08   ,-0.232  ,2.4  ,5
124  ,1.536e+08   ,-0.42909  ,2.4  ,5
125  ,3.698e+08   ,-0.62618  ,2.4  ,5
126  ,8.807e+08   ,-0.82327  ,2.4  ,5
127  ,9.110e+08   ,-1.0204  ,2.4  ,5
128  ,7.121e+08   ,-1.2175  ,2.4  ,5
129  ,5.643e+08   ,-1.4145  ,2.4  ,5
130  ,5.255e+08   ,-1.6116  ,2.4  ,5
131  ,4.363e+08   ,-1.8087  ,2.4  ,5
132  ,2.892e+08   ,-2.0058  ,2.4  ,5
133  ,1.358e+08   ,-2.2029  ,2.4  ,5
294  ,2.173e+08   ,2.5  ,-2.2029  ,4.9
295  ,3.503e+08   ,2.5  ,-2.0058  ,4.9
296  ,4.720e+08   ,2.5  ,-1.8087  ,4.9
297  ,5.222e+08   ,2.5  ,-1.6116  ,4.9
298  ,5.337e+08   ,2.5  ,-1.4145  ,4.9
299  ,7.055e+08   ,2.5  ,-1.2175  ,4.9
300  ,9.972e+08   ,2.5  ,-1.0204  ,4.9
301  ,1.005e+09   ,2.5  ,-0.82327  ,4.9
302  ,5.043e+08   ,2.5  ,-0.62618  ,4.9
303  ,2.232e+08   ,2.5  ,-0.42909  ,4.9
304  ,2.934e+08   ,2.5  ,-0.232  ,4.9
305  ,2.702e+08   ,2.5  ,-0.034907  ,4.9
306  ,4.937e+08   ,2.5  ,0.16218  ,4.9
307  ,6.056e+08   ,2.5  ,0.35927  ,4.9
308  ,9.437e+08   ,2.5  ,0.55637  ,4.9
309  ,1.609e+09   ,2.5  ,0.75346  ,4.9
310  ,1.314e+09   ,2.5  ,0.95055  ,4.9
311  ,1.643e+09   ,2.5  ,1.1476  ,4.9
312  ,1.967e+09   ,2.5  ,1.3447  ,4.9
313  ,2.848e+09   ,2.5  ,1.5418  ,4.9
314  ,4.756e+09   ,2.5  ,1.7389  ,4.9
315  ,7.529e+09   ,2.5  ,1.936  ,4.9
316  ,6.403e+07   ,2.5  ,-2.4  ,4.7
317  ,5.194e+07   ,2.5  ,-2.4  ,4.5
318  ,4.542e+07   ,2.5  ,-2.4  ,4.3
319  ,3.701e+07   ,2.5  ,-2.4  ,4.1
320  ,2.659e+07   ,2.5  ,-2.4  ,3.9
321  ,1.411e+07   ,2.5  ,-2.4  ,3.7
322  ,2.378e+07   ,2.5  ,-2.4  ,3.5
323  ,4.354e+07   ,2.5  ,-2.4  ,3.3
324  ,5.831e+07   ,2.5  ,-2.4  ,3.1
325  ,6.003e+07   ,2.5  ,-2.4  ,2.9
326  ,5.388e+07   ,2.5  ,-2.4  ,2.7
327  ,4.755e+07   ,2.5  ,-2.4  ,2.5
328  ,4.154e+07   ,2.5  ,-2.4  ,2.3
329  ,1.706e+07   ,2.5  ,-2.4  ,2.1
330  ,2.556e+07   ,2.5  ,-2.4  ,1.9
331  ,3.797e+07   ,2.5  ,-2.4  ,1.7
332  ,3.411e+07   ,2.5  ,-2.4  ,1.5
333  ,2.051e+07   ,2.5  ,-2.4  ,1.3
334  ,1.025e+07   ,2.5  ,-2.4  ,1.1
335  ,6.694e+06   ,2.5  ,-2.4  ,0.9
336  ,8.395e+06   ,2.5  ,-2.4  ,0.7
337  ,9.411e+06   ,2.5  ,-2.4  ,0.5
338  ,8.443e+06   ,2.5  ,-2.4  ,0.3
339  ,5.786e+06   ,2.5  ,-2.2  ,0.1
340  ,6.981e+06   ,2.5  ,-2  ,0.1
341  ,1.969e+07   ,2.5  ,-1.8  ,0.1
342  ,8.793e+06   ,2.5  ,-1.6  ,0.1
343  ,2.141e+07   ,2.5  ,-1.4  ,0.1
344  ,5.119e+07   ,2.5  ,-1.2  ,0.1
345  ,1.677e+07   ,2.5  ,-1  ,0.1
346  ,3.736e+07   ,2.5  ,-0.8  ,0.1
347  ,4.911e+07   ,2.5  ,-0.6  ,0.1
348  ,5.326e+07   ,2.5  ,-0.4  ,0.1
349  ,3.629e+07   ,2.5  ,-0.2  ,0.1
350  ,5.758e+07   ,2.5  ,-1.7664E-15  ,0.1
351  ,4.712e+07   ,2.5  ,0.2  ,0.1
352  ,5.841e+07   ,2.5  ,0.4  ,0.1
353  ,6.354e+07   ,2.5  ,0.6  ,0.1
354  ,6.529e+07   ,2.5  ,0.8  ,0.1
355  ,6.099e+07   ,2.5  ,1  ,0.1
356  ,6.333e+07   ,2.5  ,1.2  ,0.1
357  ,6.884e+07   ,2.5  ,1.4  ,0.1
358  ,8.031e+07   ,2.5  ,1.6  ,0.1
359  ,5.507e+07   ,2.5  ,1.8  ,0.1
360  ,5.351e+07   ,2.5  ,2  ,0.1
361  ,5.704e+07   ,2.5  ,2.2  ,0.1
362  ,6.901e+09   ,2.5  ,2.4  ,4.436
363  ,4.144e+09   ,2.5  ,2.4  ,4.2389
364  ,2.488e+09   ,2.5  ,2.4  ,4.0418
365  ,1.934e+09   ,2.5  ,2.4  ,3.8447
366  ,1.285e+09   ,2.5  ,2.4  ,3.6476
367  ,1.190e+09   ,2.5  ,2.4  ,3.4505
368  ,1.701e+09   ,2.5  ,2.4  ,3.2535
369  ,1.309e+09   ,2.5  ,2.4  ,3.0564
370  ,7.577e+08   ,2.5  ,2.4  ,2.8593
371  ,5.312e+08   ,2.5  ,2.4  ,2.6622
372  ,2.708e+08   ,2.5  ,2.4  ,2.4651
373  ,1.390e+08   ,2.5  ,2.4  ,2.268
374  ,1.405e+08   ,2.5  ,2.4  ,2.0709
375  ,3.309e+08   ,2.5  ,2.4  ,1.8738
376  ,8.234e+08   ,2.5  ,2.4  ,1.6767
377  ,8.476e+08   ,2.5  ,2.4  ,1.4796
378  ,7.353e+08   ,2.5  ,2.4  ,1.2825
379  ,6.291e+08   ,2.5  ,2.4  ,1.0855
380  ,5.553e+08   ,2.5  ,2.4  ,0.88836
381  ,4.423e+08   ,2.5  ,2.4  ,0.69127
382  ,2.819e+08   ,2.5  ,2.4  ,0.49418
383  ,1.249e+08   ,2.5  ,2.4  ,0.29709
384  ,1.023e+10   ,2.5  ,2.2665  ,4.7665
544  ,5.273e+07   ,2.2  ,2.5  ,0.1
545  ,6.496e+07   ,2  ,2.5  ,0.1
546  ,5.212e+07   ,1.8  ,2.5  ,0.1
547  ,4.195e+07   ,1.6  ,2.5  ,0.1
548  ,3.333e+07   ,1.4  ,2.5  ,0.1
549  ,3.043e+07   ,1.2  ,2.5  ,0.1
550  ,4.761e+07   ,1  ,2.5  ,0.1
551  ,1.079e+08   ,0.8  ,2.5  ,0.1
552  ,9.380e+07   ,0.6  ,2.5  ,0.1
553  ,4.622e+07   ,0.4  ,2.5  ,0.1
554  ,4.289e+07   ,0.2  ,2.5  ,0.1
555  ,3.273e+07   ,5.8879E-16  ,2.5  ,0.1
556  ,6.765e+07   ,-0.2  ,2.5  ,0.1
557  ,7.017e+07   ,-0.4  ,2.5  ,0.1
558  ,5.124e+07   ,-0.6  ,2.5  ,0.1
559  ,1.025e+08   ,-0.8  ,2.5  ,0.1
560  ,4.491e+07   ,-1  ,2.5  ,0.1
561  ,4.242e+07   ,-1.2  ,2.5  ,0.1
562  ,3.553e+07   ,-1.4  ,2.5  ,0.1
563  ,2.440e+07   ,-1.6  ,2.5  ,0.1
564  ,1.447e+07   ,-1.8  ,2.5  ,0.1
565  ,1.698e+07   ,-2  ,2.5  ,0.1
566  ,2.724e+07   ,-2.2  ,2.5  ,0.1
567  ,6.889e+07   ,-2.4  ,2.5  ,4.7
568  ,6.409e+07   ,-2.4  ,2.5  ,4.5
569  ,4.481e+07   ,-2.4  ,2.5  ,4.3
570  ,3.427e+07   ,-2.4  ,2.5  ,4.1
571  ,5.003e+07   ,-2.4  ,2.5  ,3.9
572  ,5.701e+07   ,-2.4  ,2.5  ,3.7
573  ,5.949e+07   ,-2.4  ,2.5  ,3.5
574  ,5.347e+07   ,-2.4  ,2.5  ,3.3
575  ,5.205e+07   ,-2.4  ,2.5  ,3.1
576  ,3.982e+07   ,-2.4  ,2.5  ,2.9
577  ,3.962e+07   ,-2.4  ,2.5  ,2.7
578  ,5.757e+07   ,-2.4  ,2.5  ,2.5
579  ,4.574e+07   ,-2.4  ,2.5  ,2.3
580  ,3.248e+07   ,-2.4  ,2.5  ,2.1
581  ,2.768e+07   ,-2.4  ,2.5  ,1.9
582  ,5.941e+07   ,-2.4  ,2.5  ,1.7
583  ,2.818e+07   ,-2.4  ,2.5  ,1.5
584  ,2.255e+07   ,-2.4  ,2.5  ,1.3
585  ,2.065e+07   ,-2.4  ,2.5  ,1.1
586  ,1.408e+07   ,-2.4  ,2.5  ,0.9
587  ,1.657e+07   ,-2.4  ,2.5  ,0.7
588  ,2.589e+07   ,-2.4  ,2.5  ,0.5
589  ,3.039e+07   ,-2.4  ,2.5  ,0.3
590  ,7.775e+09   ,1.936  ,2.5  ,4.9
591  ,3.540e+09   ,1.7389  ,2.5  ,4.9
592  ,2.360e+09   ,1.5418  ,2.5  ,4.9
593  ,1.723e+09   ,1.3447  ,2.5  ,4.9
594  ,1.221e+09   ,1.1476  ,2.5  ,4.9
595  ,1.247e+09   ,0.95055  ,2.5  ,4.9
596  ,1.653e+09   ,0.75346  ,2.5  ,4.9
597  ,1.299e+09   ,0.55637  ,2.5  ,4.9
598  ,8.508e+08   ,0.35927  ,2.5  ,4.9
599  ,4.213e+08   ,0.16218  ,2.5  ,4.9
600  ,2.127e+08   ,-0.034907  ,2.5  ,4.9
601  ,1.815e+08   ,-0.232  ,2.5  ,4.9
602  ,1.954e+08   ,-0.42909  ,2.5  ,4.9
603  ,2.770e+08   ,-0.62618  ,2.5  ,4.9
604  ,9.096e+08   ,-0.82327  ,2.5  ,4.9
605  ,9.089e+08   ,-1.0204  ,2.5  ,4.9
606  ,7.011e+08   ,-1.2175  ,2.5  ,4.9
607  ,5.362e+08   ,-1.4145  ,2.5  ,4.9
608  ,5.098e+08   ,-1.6116  ,2.5  ,4.9
609  ,4.315e+08   ,-1.8087  ,2.5  ,4.9
610  ,2.865e+08   ,-2.0058  ,2.5  ,4.9
611  ,1.311e+08   ,-2.2029  ,2.5  ,4.9
612  ,1.004e+10   ,2.2665  ,2.5  ,4.7665
613  ,6.550e+09   ,2.4  ,2.5  ,4.436
614  ,3.721e+09   ,2.4  ,2.5  ,4.2389
615  ,2.531e+09   ,2.4  ,2.5  ,4.0418
616  ,1.594e+09   ,2.4  ,2.5  ,3.8447
617  ,1.350e+09   ,2.4  ,2.5  ,3.6476
618  ,1.220e+09   ,2.4  ,2.5  ,3.4505
619  ,1.605e+09   ,2.4  ,2.5  ,3.2535
620  ,1.283e+09   ,2.4  ,2.5  ,3.0564
621  ,8.384e+08   ,2.4  ,2.5  ,2.8593
622  ,5.484e+08   ,2.4  ,2.5  ,2.6622
623  ,2.335e+08   ,2.4  ,2.5  ,2.4651
624  ,3.186e+07   ,2.4  ,2.5  ,2.268
625  ,1.213e+08   ,2.4  ,2.5  ,2.0709
626  ,3.937e+08   ,2.4  ,2.5  ,1.8738
627  ,7.890e+08   ,2.4  ,2.5  ,1.6767
628  ,8.513e+08   ,2.4  ,2.5  ,1.4796
629  ,7.167e+08   ,2.4  ,2.5  ,1.2825
630  ,6.058e+08   ,2.4  ,2.5  ,1.0855
631  ,5.466e+08   ,2.4  ,2.5  ,0.88836
632  ,4.302e+08   ,2.4  ,2.5  ,0.69127
633  ,2.756e+08   ,2.4  ,2.5  ,0.49418
634  ,1.361e+08   ,2.4  ,2.5  ,0.29709
796  ,1.080e+07   ,-2.5  ,2.2  ,0.1
797  ,7.816e+06   ,-2.5  ,2  ,0.1
798  ,5.288e+06   ,-2.5  ,1.8  ,0.1
799  ,3.234e+06   ,-2.5  ,1.6  ,0.1
800  ,5.159e+06   ,-2.5  ,1.4  ,0.1
801  ,6.501e+06   ,-2.5  ,1.2  ,0.1
802  ,4.496e+06   ,-2.5  ,1  ,0.1
803  ,4.310e+06   ,-2.5  ,0.8  ,0.1
804  ,1.834e+06   ,-2.5  ,0.6  ,0.1
805  ,1.854e+06   ,-2.5  ,0.4  ,0.1
806  ,2.456e+06   ,-2.5  ,0.2  ,0.1
807  ,1.446e+06   ,-2.5  ,5.8879E-16  ,0.1
808  ,2.049e+06   ,-2.5  ,-0.2  ,0.1
809  ,3.636e+06   ,-2.5  ,-0.4  ,0.1
810  ,1.387e+06   ,-2.5  ,-0.6  ,0.1
811  ,1.155e+06   ,-2.5  ,-0.8  ,0.1
812  ,1.371e+06   ,-2.5  ,-1  ,0.1
813  ,2.704e+05   ,-2.5  ,-1.2  ,0.1
814  ,6.786e+05   ,-2.5  ,-1.4  ,0.1
815  ,4.390e+05   ,-2.5  ,-1.6  ,0.1
816  ,3.028e+05   ,-2.5  ,-1.8  ,0.1
817  ,8.890e+04   ,-2.5  ,-2  ,0.1
818  ,5.315e+04   ,-2.5  ,-2.2  ,0.1
819  ,1.830e+06   ,-2.5  ,-2.4  ,4.7
820  ,1.943e+06   ,-2.5  ,-2.4  ,4.5
821  ,1.513e+06   ,-2.5  ,-2.4  ,4.3
822  ,1.174e+06   ,-2.5  ,-2.4  ,4.1
823  ,1.702e+06   ,-2.5  ,-2.4  ,3.9
824  ,1.523e+06   ,-2.5  ,-2.4  ,3.7
825  ,1.087e+06   ,-2.5  ,-2.4  ,3.5
826  ,5.421e+05   ,-2.5  ,-2.4  ,3.3
827  ,2.769e+05   ,-2.5  ,-2.4  ,3.1
828  ,1.316e+05   ,-2.5  ,-2.4  ,2.9
829  ,9.182e+04   ,-2.5  ,-2.4  ,2.7
830  ,1.563e+05   ,-2.5  ,-2.4  ,2.5
831  ,1.577e+05   ,-2.5  ,-2.4  ,2.3
832  ,1.130e+05   ,-2.5  ,-2.4  ,2.1
833  ,1.752e+05   ,-2.5  ,-2.4  ,1.9
834  ,2.606e+05   ,-2.5  ,-2.4  ,1.7
835  ,3.062e+05   ,-2.5  ,-2.4  ,1.5
836  ,2.689e+05   ,-2.5  ,-2.4  ,1.3
837  ,2.002e+05   ,-2.5  ,-2.4  ,1.1
838  ,9.089e+04   ,-2.5  ,-2.4  ,0.9
839  ,6.595e+04   ,-2.5  ,-2.4  ,0.7
840  ,8.075e+04   ,-2.5  ,-2.4  ,0.5
841  ,2.207e+04   ,-2.5  ,-2.4  ,0.3
842  ,6.961e+07   ,-2.5  ,2.2  ,4.9
843  ,2.582e+07   ,-2.5  ,2  ,4.9
844  ,1.321e+07   ,-2.5  ,1.8  ,4.9
845  ,1.519e+07   ,-2.5  ,1.6  ,4.9
846  ,1.788e+07   ,-2.5  ,1.4  ,4.9
847  ,2.160e+07   ,-2.5  ,1.2  ,4.9
848  ,2.693e+07   ,-2.5  ,1  ,4.9
849  ,3.435e+07   ,-2.5  ,0.8  ,4.9
850  ,4.300e+07   ,-2.5  ,0.6  ,4.9
851  ,2.706e+07   ,-2.5  ,0.4  ,4.9
852  ,2.482e+07   ,-2.5  ,0.2  ,4.9
853  ,2.481e+07   ,-2.5  ,5.8879E-16  ,4.9
854  ,3.680e+07   ,-2.5  ,-0.2  ,4.9
855  ,6.431e+07   ,-2.5  ,-0.4  ,4.9
856  ,4.245e+07   ,-2.5  ,-0.6  ,4.9
857  ,1.672e+07   ,-2.5  ,-0.8  ,4.9
858  ,1.193e+07   ,-2.5  ,-1  ,4.9
859  ,2.287e+07   ,-2.5  ,-1.2  ,4.9
860  ,8.333e+06   ,-2.5  ,-1.4  ,4.9
861  ,6.214e+06   ,-2.5  ,-1.6  ,4.9
862  ,8.996e+06   ,-2.5  ,-1.8  ,4.9
863  ,4.529e+06   ,-2.5  ,-2  ,4.9
864  ,2.885e+06   ,-2.5  ,-2.2  ,4.9
865  ,7.592e+07   ,-2.5  ,2.4  ,4.7
866  ,2.251e+07   ,-2.5  ,2.4  ,4.5
867  ,3.929e+07   ,-2.5  ,2.4  ,4.3
868  ,2.371e+07   ,-2.5  ,2.4  ,4.1
869  ,4.235e+07   ,-2.5  ,2.4  ,3.9
870  ,4.883e+07   ,-2.5  ,2.4  ,3.7
871  ,3.411e+07   ,-2.5  ,2.4  ,3.5
872  ,5.679e+07   ,-2.5  ,2.4  ,3.3
873  ,4.708e+07   ,-2.5  ,2.4  ,3.1
874  ,5.367e+07   ,-2.5  ,2.4  ,2.9
875  ,5.322e+07   ,-2.5  ,2.4  ,2.7
876  ,4.345e+07   ,-2.5  ,2.4  ,2.5
877  ,2.953e+07   ,-2.5  ,2.4  ,2.3
878  ,2.924e+07   ,-2.5  ,2.4  ,2.1
879  ,2.063e+07   ,-2.5  ,2.4  ,1.9
880  ,3.252e+07   ,-2.5  ,2.4  ,1.7
881  ,3.044e+07   ,-2.5  ,2.4  ,1.5
882  ,2.251e+07   ,-2.5  ,2.4  ,1.3
883  ,1.759e+07   ,-2.5  ,2.4  ,1.1
884  ,1.839e+07   ,-2.5  ,2.4  ,0.9
885  ,1.500e+07   ,-2.5  ,2.4  ,0.7
886  ,1.991e+07   ,-2.5  ,2.4  ,0.5
887  ,1.549e+07   ,-2.5  ,2.4  ,0.3
1044  ,4.876e+04   ,-2.3  ,-2.5  ,0.44697
1045  ,5.359e+04   ,-2.3  ,-2.5  ,0.68705
1046  ,7.818e+04   ,-2.3  ,-2.5  ,0.92554
1047  ,9.404e+04   ,-2.3  ,-2.5  ,1.1682
1048  ,1.098e+05   ,-2.3  ,-2.5  ,1.4148
1049  ,1.119e+05   ,-2.3  ,-2.5  ,1.6581
1050  ,1.054e+05   ,-2.3  ,-2.5  ,1.8967
1051  ,7.965e+04   ,-2.3  ,-2.5  ,2.1357
1052  ,7.910e+04   ,-2.3  ,-2.5  ,2.3794
1053  ,1.020e+05   ,-2.3  ,-2.5  ,2.6206
1054  ,8.758e+04   ,-2.3  ,-2.5  ,2.8643
1055  ,1.470e+05   ,-2.3  ,-2.5  ,3.1033
1056  ,4.243e+05   ,-2.3  ,-2.5  ,3.342
1057  ,6.408e+05   ,-2.3  ,-2.5  ,3.5852
1058  ,1.148e+06   ,-2.3  ,-2.5  ,3.8318
1059  ,1.297e+06   ,-2.3  ,-2.5  ,4.0745
1060  ,6.340e+05   ,-2.3  ,-2.5  ,4.3129
1061  ,2.664e+06   ,-2.3  ,-2.5  ,4.553
1062  ,6.402e+06   ,-2.053  ,-2.5  ,4.8
1063  ,9.646e+06   ,-1.8129  ,-2.5  ,4.8
1064  ,1.195e+07   ,-1.5745  ,-2.5  ,4.8
1065  ,8.553e+06   ,-1.3318  ,-2.5  ,4.8
1066  ,1.507e+07   ,-1.0852  ,-2.5  ,4.8
1067  ,2.805e+07   ,-0.84195  ,-2.5  ,4.8
1068  ,2.837e+07   ,-0.60329  ,-2.5  ,4.8
1069  ,1.453e+07   ,-0.3643  ,-2.5  ,4.8
1070  ,1.745e+07   ,-0.12055  ,-2.5  ,4.8
1071  ,2.061e+07   ,0.12056  ,-2.5  ,4.8
1072  ,3.188e+07   ,0.3643  ,-2.5  ,4.8
1073  ,4.424e+07   ,0.6033  ,-2.5  ,4.8
1074  ,4.284e+07   ,0.84195  ,-2.5  ,4.8
1075  ,2.784e+07   ,1.0852  ,-2.5  ,4.8
1076  ,3.372e+07   ,1.3318  ,-2.5  ,4.8
1077  ,4.565e+07   ,1.5745  ,-2.5  ,4.8
1078  ,7.403e+07   ,1.8129  ,-2.5  ,4.8
1079  ,5.835e+07   ,2.053  ,-2.5  ,4.8
1080  ,4.814e+07   ,2.3  ,-2.5  ,4.553
1081  ,5.239e+07   ,2.3  ,-2.5  ,4.3129
1082  ,3.328e+07   ,2.3  ,-2.5  ,4.0745
1083  ,2.644e+07   ,2.3  ,-2.5  ,3.8318
1084  ,2.251e+07   ,2.3  ,-2.5  ,3.5852
1085  ,4.123e+07   ,2.3  ,-2.5  ,3.3419
1086  ,4.130e+07   ,2.3  ,-2.5  ,3.1033
1087  ,3.485e+07   ,2.3  ,-2.5  ,2.8643
1088  ,2.623e+07   ,2.3  ,-2.5  ,2.6206
1089  ,1.700e+07   ,2.3  ,-2.5  ,2.3794
1090  ,2.165e+07   ,2.3  ,-2.5  ,2.1357
1091  ,3.383e+07   ,2.3  ,-2.5  ,1.8967
1092  ,2.958e+07   ,2.3  ,-2.5  ,1.658
1093  ,1.584e+07   ,2.3  ,-2.5  ,1.4148
1094  ,1.052e+07   ,2.3  ,-2.5  ,1.1682
1095  ,8.699e+06   ,2.3  ,-2.5  ,0.92554
1096  ,8.863e+06   ,2.3  ,-2.5  ,0.68705
1097  ,7.191e+06   ,2.3  ,-2.5  ,0.44697
1098  ,6.095e+04   ,-2.053  ,-2.5  ,0.2
1099  ,7.325e+04   ,-1.8129  ,-2.5  ,0.2
1100  ,2.478e+05   ,-1.5745  ,-2.5  ,0.2
1101  ,4.180e+05   ,-1.3318  ,-2.5  ,0.2
1102  ,6.833e+05   ,-1.0852  ,-2.5  ,0.2
1103  ,3.429e+05   ,-0.84195  ,-2.5  ,0.2
1104  ,9.198e+05   ,-0.60329  ,-2.5  ,0.2
1105  ,9.170e+05   ,-0.3643  ,-2.5  ,0.2
1106  ,8.054e+05   ,-0.12055  ,-2.5  ,0.2
1107  ,7.205e+05   ,0.12056  ,-2.5  ,0.2
1108  ,7.624e+05   ,0.3643  ,-2.5  ,0.2
1109  ,6.699e+05   ,0.6033  ,-2.5  ,0.2
1110  ,7.854e+05   ,0.84195  ,-2.5  ,0.2
1111  ,1.567e+06   ,1.0852  ,-2.5  ,0.2
1112  ,1.932e+06   ,1.3318  ,-2.5  ,0.2
1113  ,1.133e+06   ,1.5745  ,-2.5  ,0.2
1114  ,1.273e+06   ,1.8129  ,-2.5  ,0.2
1115  ,2.728e+06   ,2.053  ,-2.5  ,0.2
1116  ,2.289e+06   ,-2.2  ,-2.5  ,4.9
1117  ,7.057e+06   ,-2  ,-2.5  ,4.9
1118  ,7.550e+06   ,-1.8  ,-2.5  ,4.9
1119  ,8.174e+06   ,-1.6  ,-2.5  ,4.9
1120  ,9.145e+06   ,-1.4  ,-2.5  ,4.9
1121  ,1.423e+07   ,-1.2  ,-2.5  ,4.9
1122  ,2.402e+07   ,-1  ,-2.5  ,4.9
1123  ,2.617e+07   ,-0.8  ,-2.5  ,4.9
1124  ,1.692e+07   ,-0.6  ,-2.5  ,4.9
1125  ,1.941e+07   ,-0.4  ,-2.5  ,4.9
1126  ,3.217e+07   ,-0.2  ,-2.5  ,4.9
1127  ,3.882e+07   ,-1.7664E-15  ,-2.5  ,4.9
1128  ,3.612e+07   ,0.2  ,-2.5  ,4.9
1129  ,4.144e+07   ,0.4  ,-2.5  ,4.9
1130  ,3.271e+07   ,0.6  ,-2.5  ,4.9
1131  ,3.555e+07   ,0.8  ,-2.5  ,4.9
1132  ,2.148e+07   ,1  ,-2.5  ,4.9
1133  ,2.022e+07   ,1.2  ,-2.5  ,4.9
1134  ,3.887e+07   ,1.4  ,-2.5  ,4.9
1135  ,4.108e+07   ,1.6  ,-2.5  ,4.9
1136  ,4.069e+07   ,1.8  ,-2.5  ,4.9
1137  ,3.521e+07   ,2  ,-2.5  ,4.9
1138  ,4.038e+07   ,2.2  ,-2.5  ,4.9
1139  ,2.102e+06   ,-2.4  ,-2.5  ,4.7
1140  ,1.197e+06   ,-2.4  ,-2.5  ,4.5
1141  ,1.051e+06   ,-2.4  ,-2.5  ,4.3
1142  ,7.660e+05   ,-2.4  ,-2.5  ,4.1
1143  ,1.365e+06   ,-2.4  ,-2.5  ,3.9
1144  ,1.094e+06   ,-2.4  ,-2.5  ,3.7
1145  ,7.526e+05   ,-2.4  ,-2.5  ,3.5
1146  ,4.148e+05   ,-2.4  ,-2.5  ,3.3
1147  ,1.144e+05   ,-2.4  ,-2.5  ,3.1
1148  ,9.504e+04   ,-2.4  ,-2.5  ,2.9
1149  ,3.273e+04   ,-2.4  ,-2.5  ,2.7
1150  ,1.071e+05   ,-2.4  ,-2.5  ,2.5
1151  ,9.531e+04   ,-2.4  ,-2.5  ,2.3
1152  ,6.953e+04   ,-2.4  ,-2.5  ,2.1
1153  ,9.089e+04   ,-2.4  ,-2.5  ,1.9
1154  ,1.503e+05   ,-2.4  ,-2.5  ,1.7
1155  ,1.861e+05   ,-2.4  ,-2.5  ,1.5
1156  ,1.773e+05   ,-2.4  ,-2.5  ,1.3
1157  ,1.339e+05   ,-2.4  ,-2.5  ,1.1
1158  ,6.911e+04   ,-2.4  ,-2.5  ,0.9
1159  ,4.586e+04   ,-2.4  ,-2.5  ,0.7
1160  ,5.184e+04   ,-2.4  ,-2.5  ,0.5
1161  ,3.606e+04   ,-2.4  ,-2.5  ,0.3
1162  ,3.947e+04   ,-2.2  ,-2.5  ,0.1
1163  ,3.722e+04   ,-2  ,-2.5  ,0.1
1164  ,9.708e+04   ,-1.8  ,-2.5  ,0.1
1165  ,1.560e+05   ,-1.6  ,-2.5  ,0.1
1166  ,3.897e+05   ,-1.4  ,-2.5  ,0.1
1167  ,5.590e+05   ,-1.2  ,-2.5  ,0.1
1168  ,3.688e+05   ,-1  ,-2.5  ,0.1
1169  ,7.361e+05   ,-0.8  ,-2.5  ,0.1
1170  ,9.903e+05   ,-0.6  ,-2.5  ,0.1
1171  ,9.501e+05   ,-0.4  ,-2.5  ,0.1
1172  ,6.828e+05   ,-0.2  ,-2.5  ,0.1
1173  ,5.707e+05   ,-1.7664E-15  ,-2.5  ,0.1
1174  ,5.825e+05   ,0.2  ,-2.5  ,0.1
1175  ,7.633e+05   ,0.4  ,-2.5  ,0.1
1176  ,4.187e+05   ,0.6  ,-2.5  ,0.1
1177  ,6.304e+05   ,0.8  ,-2.5  ,0.1
1178  ,1.698e+06   ,1  ,-2.5  ,0.1
1179  ,2.074e+06   ,1.2  ,-2.5  ,0.1
1180  ,1.363e+06   ,1.4  ,-2.5  ,0.1
1181  ,6.098e+05   ,1.6  ,-2.5  ,0.1
1182  ,9.184e+05   ,1.8  ,-2.5  ,0.1
1183  ,7.923e+05   ,2  ,-2.5  ,0.1
1184  ,1.911e+06   ,2.2  ,-2.5  ,0.1
1185  ,3.067e+07   ,2.4  ,-2.5  ,4.7
1186  ,2.446e+07   ,2.4  ,-2.5  ,4.5
1187  ,3.236e+07   ,2.4  ,-2.5  ,4.3
1188  ,2.072e+07   ,2.4  ,-2.5  ,4.1
1189  ,2.352e+07   ,2.4  ,-2.5  ,3.9
1190  ,1.335e+07   ,2.4  ,-2.5  ,3.7
1191  ,2.385e+07   ,2.4  ,-2.5  ,3.5
1192  ,3.235e+07   ,2.4  ,-2.5  ,3.3
1193  ,3.553e+07   ,2.4  ,-2.5  ,3.1
1194  ,4.653e+07   ,2.4  ,-2.5  ,2.9
1195  ,3.786e+07   ,2.4  ,-2.5  ,2.7
1196  ,3.449e+07   ,2.4  ,-2.5  ,2.5
1197  ,2.792e+07   ,2.4  ,-2.5  ,2.3
1198  ,1.483e+07   ,2.4  ,-2.5  ,2.1
1199  ,2.346e+07   ,2.4  ,-2.5  ,1.9
1200  ,3.481e+07   ,2.4  ,-2.5  ,1.7
1201  ,2.514e+07   ,2.4  ,-2.5  ,1.5
1202  ,1.761e+07   ,2.4  ,-2.5  ,1.3
1203  ,9.786e+06   ,2.4  ,-2.5  ,1.1
1204  ,6.311e+06   ,2.4  ,-2.5  ,0.9
1205  ,5.487e+06   ,2.4  ,-2.5  ,0.7
1206  ,6.857e+06   ,2.4  ,-2.5  ,0.5
1207  ,2.414e+06   ,2.4  ,-2.5  ,0.3
1208  ,1.751e+06   ,2.4  ,-2.2  ,0
1209  ,5.197e+06   ,2.4  ,-2  ,0
1210  ,9.467e+06   ,2.4  ,-1.8  ,0
1211  ,1.199e+07   ,2.4  ,-1.6  ,0
1212  ,2.072e+07   ,2.4  ,-1.4  ,0
1213  ,3.260e+07   ,2.4  ,-1.2  ,0
1214  ,2.110e+07   ,2.4  ,-1  ,0
1215  ,3.760e+07   ,2.4  ,-0.8  ,0
1216  ,4.744e+07   ,2.4  ,-0.6  ,0
1217  ,4.104e+07   ,2.4  ,-0.4  ,0
1218  ,3.768e+07   ,2.4  ,-0.2  ,0
1219  ,3.621e+07   ,2.4  ,-1.7664E-15  ,0
1220  ,3.793e+07   ,2.4  ,0.2  ,0
1221  ,3.986e+07   ,2.4  ,0.4  ,0
1222  ,4.207e+07   ,2.4  ,0.6  ,0
1223  ,4.790e+07   ,2.4  ,0.8  ,0
1224  ,4.559e+07   ,2.4  ,1  ,0
1225  ,4.517e+07   ,2.4  ,1.2  ,0
1226  ,4.036e+07   ,2.4  ,1.4  ,0
1227  ,3.187e+07   ,2.4  ,1.6  ,0
1228  ,1.358e+07   ,2.4  ,1.8  ,0
1229  ,2.042e+07   ,2.4  ,2  ,0
1230  ,4.308e+07   ,2.4  ,2.2  ,0
1231  ,2.868e+04   ,-2.2  ,-2.4  ,0
1232  ,3.901e+04   ,-2  ,-2.4  ,0
1233  ,1.198e+05   ,-1.8  ,-2.4  ,0
1234  ,1.853e+05   ,-1.6  ,-2.4  ,0
1235  ,5.786e+05   ,-1.4  ,-2.4  ,0
1236  ,7.024e+05   ,-1.2  ,-2.4  ,0
1237  ,3.532e+05   ,-1  ,-2.4  ,0
1238  ,1.167e+06   ,-0.8  ,-2.4  ,0
1239  ,1.664e+06   ,-0.6  ,-2.4  ,0
1240  ,1.509e+06   ,-0.4  ,-2.4  ,0
1241  ,9.923e+05   ,-0.2  ,-2.4  ,0
1242  ,6.855e+05   ,5.8879E-16  ,-2.4  ,0
1243  ,8.354e+05   ,0.2  ,-2.4  ,0
1244  ,1.037e+06   ,0.4  ,-2.4  ,0
1245  ,5.343e+05   ,0.6  ,-2.4  ,0
1246  ,9.804e+05   ,0.8  ,-2.4  ,0
1247  ,2.484e+06   ,1  ,-2.4  ,0
1248  ,2.787e+06   ,1.2  ,-2.4  ,0
1249  ,1.680e+06   ,1.4  ,-2.4  ,0
1250  ,4.665e+05   ,1.6  ,-2.4  ,0
1251  ,1.507e+06   ,1.8  ,-2.4  ,0
1252  ,1.844e+06   ,2  ,-2.4  ,0
1253  ,1.689e+06   ,2.2  ,-2.4  ,0
1254  ,1.163e+07   ,-2.4  ,2.2  ,0
1255  ,1.032e+07   ,-2.4  ,2  ,0
1256  ,7.645e+06   ,-2.4  ,1.8  ,0
1257  ,3.745e+06   ,-2.4  ,1.6  ,0
1258  ,4.954e+06   ,-2.4  ,1.4  ,0
1259  ,7.007e+06   ,-2.4  ,1.2  ,0
1260  ,6.198e+06   ,-2.4  ,1  ,0
1261  ,5.527e+06   ,-2.4  ,0.8  ,0
1262  ,2.519e+06   ,-2.4  ,0.6  ,0
1263  ,3.153e+06   ,-2.4  ,0.4  ,0
1264  ,2.800e+06   ,-2.4  ,0.2  ,0
1265  ,1.471e+06   ,-2.4  ,5.8879E-16  ,0
1266  ,1.967e+06   ,-2.4  ,-0.2  ,0
1267  ,4.588e+06   ,-2.4  ,-0.4  ,0
1268  ,5.031e+05   ,-2.4  ,-0.6  ,0
1269  ,2.114e+06   ,-2.4  ,-0.8  ,0
1270  ,1.363e+06   ,-2.4  ,-1  ,0
1271  ,4.013e+05   ,-2.4  ,-1.2  ,0
1272  ,8.992e+05   ,-2.4  ,-1.4  ,0
1273  ,2.237e+05   ,-2.4  ,-1.6  ,0
1274  ,3.585e+05   ,-2.4  ,-1.8  ,0
1275  ,6.914e+04   ,-2.4  ,-2  ,0
1276  ,8.032e+04   ,-2.4  ,-2.2  ,0
1277  ,6.460e+07   ,2.2  ,2.4  ,0
1278  ,5.112e+07   ,2  ,2.4  ,0
1279  ,5.109e+07   ,1.8  ,2.4  ,0
1280  ,3.236e+07   ,1.6  ,2.4  ,0
1281  ,2.864e+07   ,1.4  ,2.4  ,0
1282  ,4.730e+07   ,1.2  ,2.4  ,0
1283  ,6.512e+07   ,1  ,2.4  ,0
1284  ,5.955e+07   ,0.8  ,2.4  ,0
1285  ,4.101e+07   ,0.6  ,2.4  ,0
1286  ,2.553e+07   ,0.4  ,2.4  ,0
1287  ,2.699e+07   ,0.2  ,2.4  ,0
1288  ,2.084e+07   ,5.8879E-16  ,2.4  ,0
1289  ,3.113e+07   ,-0.2  ,2.4  ,0
1290  ,6.901e+07   ,-0.4  ,2.4  ,0
1291  ,6.940e+07   ,-0.6  ,2.4  ,0
1292  ,5.568e+07   ,-0.8  ,2.4  ,0
1293  ,5.723e+07   ,-1  ,2.4  ,0
1294  ,3.365e+07   ,-1.2  ,2.4  ,0
1295  ,2.809e+07   ,-1.4  ,2.4  ,0
1296  ,1.641e+07   ,-1.6  ,2.4  ,0
1297  ,1.146e+07   ,-1.8  ,2.4  ,0
1298  ,1.671e+07   ,-2  ,2.4  ,0
1299  ,1.792e+07   ,-2.2  ,2.4  ,0
1460  ,1.062e+10   ,2.3243  ,2.3243  ,4.9577
1461  ,9.908e+09   ,2.4577  ,2.3243  ,4.8243
1462  ,7.678e+09   ,2.3243  ,2.4577  ,4.8243
1463  ,6.132e+06   ,-2.3  ,-2.1759  ,4.8
1464  ,9.065e+06   ,-2.3  ,-1.7631  ,4.8
1465  ,2.047e+07   ,-2.3  ,-1.1827  ,4.8
1466  ,3.724e+07   ,-2.3  ,-0.34986  ,4.8
1467  ,5.499e+07   ,-2.3  ,0.80545  ,4.8
1468  ,6.715e+08   ,-0.81337  ,2.3  ,4.8
1469  ,2.061e+09   ,0.67326  ,2.3  ,4.8
1470  ,1.821e+08   ,2.3  ,-2.1824  ,4.8
1471  ,3.784e+08   ,2.3  ,-1.7784  ,4.8
1472  ,8.017e+08   ,2.3  ,-1.2138  ,4.8
1473  ,5.449e+08   ,2.3  ,-0.40752  ,4.8
1474  ,2.108e+09   ,2.3  ,0.70532  ,4.8
1516  ,6.814e+08   ,2.3  ,2.3  ,1.6866
1517  ,2.010e+09   ,2.3  ,2.3  ,3.1733
1518  ,6.728e+06   ,2.3  ,-2.1759  ,0.2
1519  ,9.701e+06   ,2.3  ,-1.7631  ,0.2
1520  ,1.888e+07   ,2.3  ,-1.1827  ,0.2
1521  ,4.144e+07   ,2.3  ,-0.34986  ,0.2
1522  ,2.550e+07   ,2.3  ,0.80545  ,0.2
1564  ,3.356e+07   ,-0.76667  ,2.3  ,0.2
1565  ,7.323e+07   ,0.76667  ,2.3  ,0.2
1566  ,1.663e+07   ,-2.3  ,2.3  ,1.7333
1567  ,3.893e+07   ,-2.3  ,2.3  ,3.2667
1574  ,3.513e+04   ,-2.3  ,-2.1759  ,0.2
1575  ,2.845e+05   ,-2.3  ,-1.7631  ,0.2
1576  ,7.027e+05   ,-2.3  ,-1.1827  ,0.2
1577  ,1.415e+06   ,-2.3  ,-0.34986  ,0.2
1578  ,9.486e+06   ,-2.3  ,0.80545  ,0.2
1777  ,1.932e+08   ,-0.52764  ,2.5  ,4.9
1801  ,9.243e+06   ,-2.3  ,1.5527  ,0.2
1825  ,1.676e+07   ,-1.5333  ,2.3  ,0.2
1841  ,3.198e+08   ,0.063638  ,2.5  ,4.9
1876  ,7.523e+07   ,-0.5  ,2.4  ,0
1894  ,6.681e+07   ,2.3  ,1.5527  ,0.2
1907  ,6.231e+07   ,2.1  ,2.5  ,0.1
1928  ,4.658e+07   ,1.9  ,2.4  ,0
1974  ,4.403e+07   ,2.4  ,1.1  ,0
1981  ,3.694e+08   ,2.4  ,2.5  ,0.59273
1987  ,3.841e+07   ,-2.5  ,2.4  ,4
2004  ,7.195e+07   ,-2.4  ,2.5  ,4.6
2009  ,4.443e+07   ,2.4  ,1.3  ,0
2020  ,4.833e+07   ,2.5  ,1.1  ,0.1
2035  ,1.077e+06   ,-2.3  ,-0.76628  ,0.2
2070  ,3.315e+09   ,1.6404  ,2.4  ,5
2081  ,2.331e+08   ,2.4  ,2.5  ,1.9724
2095  ,4.936e+08   ,2.4  ,2.5  ,0.78982
2138  ,7.556e+05   ,-2.4  ,-0.1  ,0
2146  ,9.121e+08   ,-0.92182  ,2.4  ,5
2174  ,6.538e+08   ,2.4  ,2.5  ,1.184
2190  ,5.909e+08   ,2.5  ,2.4  ,0.98691
2203  ,2.957e+08   ,2.5  ,-0.13345  ,4.9
2232  ,1.260e+09   ,2.3  ,0.1489  ,4.8
2242  ,1.054e+09   ,2.4  ,2.5  ,2.9578
2293  ,1.455e+06   ,-2.5  ,0.5  ,0.1
2311  ,1.178e+09   ,2.3  ,2.3  ,2.4299
2313  ,5.075e+08   ,2.5  ,2.4  ,0.78982
2329  ,4.674e+07   ,2.4  ,2.5  ,2.1695
2355  ,5.478e+07   ,-2.4  ,2.5  ,4.4
2380  ,6.746e+05   ,-2.5  ,-1.5  ,0.1
2383  ,1.020e+09   ,0.45782  ,2.5  ,4.9
2408  ,7.174e+08   ,2.3  ,-1.4961  ,4.8
2445  ,5.275e+08   ,2.5  ,-1.5131  ,4.9
2484  ,2.916e+05   ,-2.5  ,-2.4  ,1.6
2495  ,4.559e+07   ,-2.4  ,1.7  ,5
2508  ,3.494e+07   ,2.4  ,0.3  ,0
2514  ,4.862e+07   ,2.3  ,0.2278  ,0.2
2570  ,4.163e+07   ,-2.4  ,1.5  ,5
2580  ,3.212e+09   ,1.6404  ,2.5  ,4.9
2603  ,8.301e+08   ,-1.1189  ,2.5  ,4.9
2695  ,5.263e+08   ,2.3  ,2.3  ,0.94331
2705  ,7.930e+08   ,2.4  ,2.5  ,1.3811
2714  ,7.466e+08   ,2.5  ,0.45782  ,4.9
2734  ,2.860e+07   ,2.4  ,-0.9  ,0
2775  ,4.782e+07   ,2.5  ,-0.1  ,0.1
2779  ,3.826e+07   ,2.4  ,-0.1  ,0
2801  ,4.619e+09   ,1.4166  ,2.3  ,4.8
2814  ,1.927e+09   ,1.4433  ,2.5  ,4.9
2863  ,2.135e+07   ,-2.4  ,2.5  ,0.6
2884  ,1.471e+07   ,-2.4  ,2.5  ,0.8
2886  ,2.241e+07   ,-2.4  ,2.5  ,1.2
2967  ,2.211e+07   ,2.4  ,1.7  ,0
2973  ,6.884e+07   ,2.5  ,1.5  ,0.1
2987  ,6.352e+07   ,-0.3  ,2.5  ,0.1
3008  ,2.322e+07   ,-2.3  ,2.3  ,0.96667
3012  ,4.677e+07   ,-2.5  ,2.4  ,2.6
3021  ,4.620e+07   ,-2.5  ,2.4  ,2.8
3025  ,3.668e+07   ,-2.5  ,2.4  ,2.4
3030  ,5.281e+07   ,-2.4  ,2.5  ,2.4
3033  ,3.951e+07   ,-2.4  ,2.5  ,2.2
3047  ,1.457e+08   ,2.4  ,2.5  ,2.3665
3052  ,3.931e+08   ,2.5  ,2.4  ,2.5636
3061  ,3.380e+08   ,2.4  ,2.5  ,2.5636
3081  ,3.592e+07   ,-2.4  ,1.3  ,5
3088  ,3.730e+08   ,-1.9073  ,2.4  ,5
3099  ,5.370e+07   ,-2.4  ,1.9  ,5
3107  ,5.345e+07   ,-2.4  ,2.5  ,3.8
3139  ,5.419e+08   ,-1.5131  ,2.4  ,5
3145  ,5.207e+08   ,-1.5131  ,2.5  ,4.9
3148  ,4.799e+08   ,-1.7102  ,2.5  ,4.9
3168  ,3.706e+06   ,-2.4  ,1.5  ,0
3188  ,1.456e+05   ,-2.5  ,-2.4  ,1
3202  ,6.107e+08   ,0.26073  ,2.5  ,4.9
3212  ,3.307e+09   ,2.5  ,1.6404  ,4.9
3247  ,5.826e+09   ,2.5  ,1.8375  ,4.9
3265  ,4.977e+09   ,2.3  ,1.4326  ,4.8
3271  ,8.806e+09   ,2.2299  ,2.2299  ,4.8
3284  ,2.405e+09   ,2.4  ,1.4433  ,5
3291  ,2.268e+09   ,2.5  ,1.4433  ,4.9
3296  ,2.734e+07   ,-2.3  ,-0.76628  ,4.8
3303  ,1.537e+07   ,-2.4  ,-0.9  ,5
3311  ,3.410e+07   ,-2.4  ,-0.7  ,5
3315  ,6.002e+07   ,1.9  ,2.5  ,0.1
3336  ,2.890e+06   ,-2.4  ,0.3  ,0
3340  ,1.892e+06   ,-2.5  ,0.1  ,0.1
3344  ,2.071e+06   ,-2.4  ,0.1  ,0
3356  ,4.902e+07   ,-0.3  ,2.4  ,0
3361  ,1.623e+08   ,-0.33054  ,2.5  ,4.9
3364  ,1.457e+08   ,-0.13345  ,2.5  ,4.9
3383  ,1.230e+09   ,2.4  ,2.5  ,3.5491
3402  ,8.067e+09   ,2.4  ,2.5  ,4.5345
3421  ,5.934e+08   ,-1.316  ,2.5  ,4.9
3439  ,1.922e+09   ,2.5  ,2.4  ,3.9433
3447  ,2.172e+09   ,2.4  ,2.5  ,3.9433
3451  ,1.372e+09   ,2.4  ,2.5  ,3.7462
3468  ,1.918e+09   ,1.4433  ,2.4  ,5
3480  ,1.190e+09   ,1.0491  ,2.4  ,5
3519  ,1.879e+07   ,1.5  ,2.4  ,0
3527  ,1.556e+07   ,2.3  ,-1.4729  ,0.2
3550  ,1.219e+07   ,-1.7  ,2.4  ,0
3554  ,1.887e+07   ,-1.7  ,2.5  ,0.1
3558  ,2.381e+07   ,-1.5  ,2.4  ,0
3562  ,3.138e+07   ,-1.5  ,2.5  ,0.1
3574  ,6.743e+07   ,-2.4  ,2.1  ,5
3581  ,3.832e+06   ,-2.5  ,1.7  ,0.1
3583  ,6.965e+06   ,-2.5  ,1.9  ,0.1
3584  ,3.691e+08   ,-1.9073  ,2.5  ,4.9
3591  ,4.334e+07   ,2.5  ,0.3  ,0.1
3595  ,4.936e+07   ,2.5  ,0.1  ,0.1
3603  ,1.671e+10   ,2.4577  ,2.391  ,4.7576
3663  ,2.669e+04   ,-1.933  ,-2.5  ,0.2
3669  ,3.213e+04   ,-2.1765  ,-2.5  ,0.2
3672  ,4.685e+04   ,-2.3  ,-2.3379  ,0.2
3682  ,4.848e+04   ,-1.9  ,-2.4  ,0
3700  ,2.946e+07   ,2.3  ,-2.5  ,2.7424
3712  ,4.209e+06   ,-2.1  ,-2.5  ,4.9
3715  ,7.536e+06   ,-1.9  ,-2.5  ,4.9
3740  ,1.490e+07   ,-1.3  ,-2.4  ,5
3746  ,7.776e+06   ,-1.2085  ,-2.5  ,4.8
3755  ,1.141e+07   ,-1.5  ,-2.4  ,5
3760  ,8.349e+06   ,-1.7  ,-2.5  ,4.9
3786  ,8.629e+08   ,2.4  ,2.5  ,1.5782
3813  ,6.530e+08   ,0.26073  ,2.4  ,5
3858  ,2.963e+07   ,-0.9  ,-2.4  ,5
3863  ,2.926e+07   ,-2.5  ,0.9  ,4.9
3875  ,9.448e+06   ,-1.9  ,-2.4  ,5
3885  ,7.765e+08   ,2.4  ,-0.72473  ,5
3910  ,6.807e+05   ,-2.4  ,-2.5  ,3.4
3959  ,3.185e+09   ,2.5  ,2.4  ,4.1404
3969  ,1.380e+09   ,2.5  ,1.0491  ,4.9
3992  ,1.715e+10   ,2.391  ,2.2576  ,4.9577
3993  ,1.628e+10   ,2.4577  ,2.2576  ,4.891
4016  ,9.780e+07   ,-2.3015  ,2.5  ,4.9
4018  ,6.543e+07   ,-2.4  ,2.5  ,4.8
4021  ,1.444e+09   ,1.2462  ,2.4  ,5
4042  ,2.408e+07   ,2.4  ,-1.1  ,0
4046  ,6.078e+07   ,-0.9  ,2.4  ,0
4055  ,4.390e+07   ,1.7  ,-2.5  ,4.9
4087  ,4.889e+07   ,1.7  ,2.4  ,0
4114  ,2.572e+08   ,2.5  ,-0.33054  ,4.9
4120  ,3.725e+07   ,2.4  ,-2.5  ,1.8
4125  ,5.755e+08   ,2.4  ,2.5  ,0.98691
4144  ,4.949e+09   ,2.4  ,2.5  ,4.3375
4161  ,3.642e+07   ,-2.4  ,0.3  ,5
4201  ,1.382e+06   ,1.933  ,-2.5  ,0.2
4225  ,1.922e+04   ,-2.3  ,-2.4  ,0
4230  ,5.000e+04   ,-2.3  ,-2.5  ,0.56701
4269  ,2.852e+07   ,-0.9  ,-2.5  ,4.9
4277  ,2.179e+07   ,-1.1  ,-2.4  ,5
4288  ,1.140e+09   ,-0.070055  ,2.3  ,4.8
4328  ,1.277e+06   ,-2.5  ,-2.4  ,4.2
4336  ,1.730e+06   ,-2.5  ,-2.4  ,4.4
4342  ,2.001e+06   ,-2.5  ,-2.4  ,4.6
4348  ,1.781e+06   ,-2.4  ,-2.4707  ,4.9707
4352  ,2.450e+06   ,-2.3  ,-2.5  ,4.9
4354  ,3.735e+06   ,-2.1765  ,-2.5  ,4.8
4355  ,3.149e+06   ,-2.3  ,-2.3379  ,4.8
4362  ,3.655e+08   ,2.5  ,2.4  ,0.59273
4364  ,4.493e+07   ,2.5  ,-2.4  ,2.4
4366  ,3.003e+07   ,2.5  ,-2.4  ,2.2
4372  ,2.599e+07   ,2.4  ,-2.5  ,2.2
4385  ,2.014e+05   ,-2.5  ,-1.9  ,0.1
4399  ,1.003e+07   ,-2.5  ,2.1  ,0.1
4407  ,1.340e+06   ,-0.7  ,-2.4  ,0
4436  ,1.096e+06   ,-2.5  ,-0.1  ,0.1
4462  ,5.508e+07   ,-2.3  ,2.3  ,4.0333
4491  ,2.166e+08   ,2.5  ,-0.52764  ,4.9
4494  ,2.496e+07   ,2.5  ,-2.4  ,1.4
4503  ,1.937e+07   ,2.4  ,-2.5  ,1.4
4508  ,1.544e+07   ,2.4  ,-2.5  ,1.2
4515  ,3.752e+07   ,2.5  ,-2.4  ,1.8
4517  ,3.069e+07   ,2.4  ,-2.5  ,1.6
4522  ,3.021e+05   ,0.7  ,-2.4  ,0
4538  ,8.543e+08   ,-1.1189  ,2.4  ,5
4546  ,3.038e+09   ,2.4  ,2.5  ,4.1404
4559  ,9.064e+05   ,1.7  ,-2.4  ,0
4590  ,8.443e+05   ,0.5  ,-2.4  ,0
4631  ,3.274e+07   ,2.4  ,-2.5  ,2.6
4634  ,5.659e+07   ,2.5  ,-2.4  ,2.8
4657  ,1.492e+05   ,-2.5  ,-2.4  ,2
4660  ,2.208e+05   ,-2.5  ,-2.4  ,1.8
4664  ,1.224e+06   ,-0.3  ,-2.4  ,0
4675  ,2.239e+06   ,-2.4  ,-2.5  ,4.8
4681  ,2.826e+06   ,-2.5  ,-0.3  ,0.1
4684  ,2.313e+07   ,1.7  ,-2.4  ,5
4703  ,5.326e+07   ,-2.4  ,0.7  ,5
4707  ,2.315e+07   ,-2.5  ,0.3  ,4.9
4714  ,2.283e+08   ,2.4  ,-0.33054  ,5
4723  ,5.275e+08   ,-1.5567  ,2.3  ,4.8
4739  ,1.975e+08   ,-2.1044  ,2.5  ,4.9
4763  ,1.203e+07   ,-1.9  ,2.4  ,0
4780  ,1.744e+05   ,-2.3  ,-1.9695  ,0.2
4782  ,1.197e+04   ,-2.4707  ,-2.4  ,0.029289
4784  ,2.072e+05   ,-2.4  ,-1.9  ,0
4791  ,1.287e+05   ,-2.4  ,-2.5  ,1.8
4796  ,3.139e+07   ,2.4707  ,-2.4707  ,4.9
4799  ,6.364e+07   ,2.5  ,-2.4  ,4.8
4806  ,2.489e+07   ,2.3  ,-2.5  ,4.9
4809  ,4.787e+09   ,2.3  ,2.3  ,3.9166
4833  ,2.691e+07   ,-2.4  ,2.5  ,0.4
4841  ,4.479e+07   ,-2.4  ,2.5  ,2.6
4846  ,4.034e+07   ,-2.5  ,2.1  ,4.9
4848  ,4.650e+07   ,-2.5  ,2.3  ,4.9
4849  ,5.738e+07   ,-2.5  ,2.4  ,4.8
4893  ,2.745e+07   ,-2.4  ,2.5  ,4.2
4897  ,8.416e+09   ,2.3333  ,2.1998  ,5
4900  ,1.590e+10   ,2.391  ,2.4577  ,4.7576
4908  ,1.565e+10   ,2.2576  ,2.391  ,4.9577
4911  ,1.584e+10   ,2.2576  ,2.4577  ,4.891
4926  ,1.760e+07   ,-2.5  ,2.4  ,1
4932  ,4.740e+07   ,-2.4  ,2.5  ,1.6
4937  ,4.105e+07   ,-1.1  ,2.5  ,0.1
4939  ,8.946e+09   ,2.3  ,2.2299  ,4.7299
4944  ,4.280e+08   ,2.5  ,-1.9073  ,4.9
4987  ,4.465e+07   ,-2.3  ,1.5527  ,4.8
5010  ,1.936e+10   ,2.4973  ,2.1331  ,4.923
5013  ,8.090e+09   ,2.5  ,2.0345  ,4.9
5017  ,8.479e+09   ,2.4  ,2.0345  ,5
5035  ,2.198e+06   ,1.3  ,-2.4  ,0
5038  ,1.283e+06   ,1.2085  ,-2.5  ,0.2
5092  ,1.691e+05   ,-2.4  ,-2.5  ,1.2
5123  ,8.983e+06   ,2.5  ,-2.4  ,0.6
5151  ,2.658e+06   ,-2.5  ,-0.5  ,0.1
5160  ,8.310e+05   ,-2.5  ,-0.7  ,0.1
5164  ,4.014e+07   ,-2.4  ,0.9  ,5
5168  ,3.733e+07   ,-2.4  ,0.5  ,5
5176  ,4.327e+07   ,2.5  ,-0.7  ,0.1
5179  ,4.444e+07   ,2.4  ,-0.5  ,0
5189  ,3.222e+07   ,2.4  ,-2.5  ,2.4
5194  ,1.738e+07   ,2.3  ,-2.5  ,2.2576
5198  ,4.900e+04   ,-2.3  ,-2.5  ,0.32348
5205  ,3.507e+04   ,-2.4  ,-2.5  ,0.2
5207  ,5.191e+04   ,-2.1  ,-2.5  ,0.1
5246  ,5.531e+07   ,-2.5  ,2.4  ,3.2
5257  ,2.163e+07   ,-2.5  ,1.5  ,4.9
5263  ,1.363e+06   ,-2.3  ,0.2278  ,0.2
5272  ,2.171e+06   ,-2.5  ,0.3  ,0.1
5275  ,3.279e+07   ,-2.5  ,0.5  ,4.9
5281  ,4.611e+09   ,1.8375  ,2.5  ,4.9
5297  ,8.097e+07   ,-0.9  ,2.5  ,0.1
5306  ,5.114e+07   ,-0.7  ,2.4  ,0
5309  ,5.522e+07   ,-0.5  ,2.5  ,0.1
5324  ,7.333e+08   ,2.4  ,2.5  ,2.7607
5332  ,7.511e+06   ,2.5  ,-2.4  ,0.8
5334  ,9.688e+06   ,2.4  ,-2.5  ,1
5360  ,4.985e+08   ,2.4  ,-1.7102  ,5
5362  ,5.059e+08   ,2.4  ,-1.5131  ,5
5368  ,4.892e+09   ,2.4  ,1.8375  ,5
5371  ,2.886e+10   ,2.4325  ,2.4888  ,4.6656
5372  ,9.053e+09   ,2.3333  ,2.5  ,4.6998
5376  ,8.325e+09   ,2.4707  ,2.4707  ,4.6331
5377  ,8.561e+09   ,2.5  ,2.4  ,4.5345
5379  ,1.186e+07   ,-1.5  ,-2.5  ,4.9
5406  ,8.280e+05   ,-2.5  ,-2.4  ,3.4
5420  ,2.779e+05   ,-2.3  ,-2.5  ,3.2226
5423  ,1.218e+06   ,1.5  ,-2.4  ,0
5502  ,3.029e+04   ,-2.5  ,-2.3  ,0.1
5504  ,1.140e+04   ,-2.5  ,-2.4  ,0.2
5506  ,4.250e+04   ,-2.4  ,-2.3  ,0
5511  ,4.794e+04   ,-2.5  ,-2.1  ,0.1
5513  ,2.865e+06   ,-2.4  ,0.5  ,0
5517  ,5.079e+05   ,-0.9  ,-2.5  ,0.1
5532  ,3.315e+07   ,-2.4707  ,2.4707  ,4.9
5534  ,4.012e+07   ,2.4  ,-0.7  ,0
5551  ,1.993e+07   ,2.5  ,-2.4  ,3.8
5566  ,8.006e+08   ,2.5  ,2.4  ,1.3811
5603  ,3.063e+07   ,2.4  ,-0.3  ,0
5617  ,2.169e+07   ,-2.1  ,2.5  ,0.1
5637  ,8.102e+06   ,-2.3  ,-1.9695  ,4.8
5641  ,3.566e+07   ,2.3  ,-2.5  ,3.4636
5645  ,8.453e+04   ,-2.4  ,-2.5  ,2
5649  ,8.778e+04   ,-2.4  ,-2.5  ,2.2
5659  ,1.080e+05   ,-2.3  ,-2.5  ,1.7774
5662  ,4.678e+07   ,2.1765  ,-2.5  ,4.8
5666  ,2.526e+07   ,2.4  ,-2.5  ,4.8
5669  ,9.087e+07   ,2.3  ,-2.3412  ,4.8
5695  ,3.322e+06   ,-2.4  ,0.7  ,0
5701  ,3.233e+07   ,-2.5  ,2.4  ,1.6
5715  ,4.560e+07   ,-2.4  ,2.5  ,1.8
5726  ,7.133e+07   ,-0.7  ,2.5  ,0.1
5727  ,4.145e+07   ,-1.1  ,2.4  ,0
5730  ,3.410e+07   ,2.3  ,-2.5  ,1.7774
5746  ,5.739e+08   ,2.5  ,2.4  ,1.7753
5755  ,5.214e+07   ,2.5  ,-2.4  ,4.4
5763  ,3.409e+07   ,2.4  ,-2.5  ,4.4
5773  ,1.130e+09   ,1.0491  ,2.5  ,4.9
5791  ,6.134e+08   ,-0.72473  ,2.4  ,5
5795  ,4.789e+09   ,1.8375  ,2.4  ,5
5803  ,3.738e+07   ,-0.3  ,-2.4  ,5
5810  ,3.186e+09   ,2.4  ,1.6404  ,5
5836  ,1.877e+07   ,-2.5  ,1.3  ,4.9
5860  ,3.381e+07   ,2.5  ,-2.4  ,1.6
5866  ,1.340e+06   ,1.5  ,-2.5  ,0.1
5884  ,6.364e+07   ,-2.4  ,-0.3  ,5
5888  ,5.693e+07   ,-2.5  ,-0.5  ,4.9
5901  ,1.848e+07   ,2.3  ,-2.5  ,2.5
5908  ,1.712e+07   ,2.5  ,-2.4  ,1.2
5909  ,2.050e+07   ,2.5  ,-2.4  ,2
5934  ,4.343e+07   ,1.9  ,-2.5  ,4.9
5938  ,7.267e+07   ,1.933  ,-2.5  ,4.8
5948  ,1.283e+06   ,-2.4  ,-2.5  ,4.6
5950  ,1.624e+06   ,-2.4707  ,-2.4707  ,4.9
5951  ,1.012e+06   ,-2.5  ,-2.4  ,4.8
5952  ,2.263e+06   ,-2.5  ,-2.3  ,4.9
5986  ,2.076e+07   ,2.3  ,-2.5  ,3.7085
5990  ,9.355e+08   ,-0.92182  ,2.5  ,4.9
6019  ,5.060e+07   ,2.5  ,1.9  ,0.1
6025  ,2.925e+07   ,2.4  ,-1.3  ,0
6035  ,2.262e+07   ,-2.5  ,1.9  ,4.9
6044  ,3.794e+07   ,0.1  ,2.5  ,0.1
6054  ,3.408e+07   ,2.4  ,0.1  ,0
6070  ,1.090e+07   ,-2.4  ,2.3  ,0
6071  ,1.506e+07   ,-2.3  ,2.4  ,0
6076  ,1.030e+07   ,-2.4  ,2.1  ,0
6083  ,1.409e+06   ,2.1  ,-2.4  ,0
6084  ,3.707e+07   ,2.4  ,2.3  ,0
6087  ,4.435e+07   ,2.3  ,2.4  ,0
6092  ,2.230e+04   ,-2.4  ,-2.5  ,0.4
6096  ,1.726e+04   ,-2.3  ,-2.5  ,0.1
6099  ,6.111e+05   ,0.7  ,-2.5  ,0.1
6149  ,2.013e+06   ,-2.4  ,-0.9  ,0
6159  ,1.238e+05   ,-2.5  ,-2.4  ,2.6
6183  ,1.511e+09   ,1.2462  ,2.5  ,4.9
6224  ,2.826e+07   ,2.5  ,-2.4  ,4
6228  ,1.521e+07   ,2.4  ,-2.5  ,3.8
6237  ,6.001e+07   ,2.5  ,0.7  ,0.1
6241  ,9.347e+09   ,2.5  ,2.3333  ,4.6998
6245  ,8.808e+08   ,2.5  ,2.4  ,1.5782
6259  ,2.718e+08   ,2.5  ,-2.1044  ,4.9
6265  ,2.523e+08   ,2.3  ,-1.9804  ,4.8
6267  ,1.435e+08   ,2.5  ,-2.3015  ,4.9
6268  ,6.933e+07   ,2.4707  ,-2.4  ,4.9707
6270  ,2.642e+08   ,2.4  ,-2.1044  ,5
6317  ,7.796e+07   ,-2.3  ,0.2278  ,4.8
6349  ,2.161e+08   ,-0.52764  ,2.4  ,5
6391  ,6.006e+08   ,2.4  ,2.5  ,1.7753
6440  ,4.466e+07   ,-2.5  ,2.4  ,3.8
6471  ,1.071e+09   ,2.5  ,-0.92182  ,4.9
6489  ,1.819e+09   ,2.5  ,1.2462  ,4.9
6523  ,4.786e+05   ,-1.1  ,-2.4  ,0
6528  ,4.683e+05   ,-1.1  ,-2.5  ,0.1
6535  ,6.956e+05   ,-0.9  ,-2.4  ,0
6538  ,3.780e+07   ,1.5  ,-2.4  ,5
6541  ,3.875e+07   ,1.5  ,-2.5  ,4.9
6551  ,8.144e+08   ,2.5  ,-0.72473  ,4.9
6564  ,1.932e+10   ,2.1331  ,2.4973  ,4.923
6565  ,8.124e+09   ,2.0345  ,2.5  ,4.9
6572  ,1.089e+07   ,2.4  ,-1.7  ,0
6581  ,2.865e+07   ,0  ,2.3  ,0.2
6592  ,8.055e+06   ,2.3  ,-1.9695  ,0.2
6594  ,3.039e+07   ,0.3  ,2.4  ,0
6601  ,8.000e+07   ,0.5  ,2.5  ,0.1
6605  ,8.121e+05   ,-2.4  ,-1.3  ,0
6606  ,4.925e+05   ,-2.4  ,-1.1  ,0
6615  ,3.881e+06   ,-2.4  ,-0.3  ,0
6634  ,4.798e+07   ,2.1  ,-2.5  ,4.9
6635  ,3.034e+07   ,2.4  ,-2.4707  ,4.9707
6636  ,5.771e+07   ,2.3  ,-2.4  ,5
6647  ,6.861e+05   ,0.5  ,-2.5  ,0.1
6704  ,6.141e+06   ,-2.4707  ,2.4707  ,0.1
6708  ,1.275e+07   ,-2.5  ,2.4  ,0.2
6712  ,5.840e+07   ,-2.4  ,2.5  ,3.6
6715  ,5.670e+07   ,-2.4  ,2.5  ,3.4
6728  ,3.938e+07   ,-2.5  ,0.7  ,4.9
6753  ,1.840e+08   ,-2.1044  ,2.4  ,5
6788  ,5.045e+09   ,2.5  ,2.4  ,4.3375
6791  ,9.130e+06   ,-1.933  ,-2.5  ,4.8
6795  ,8.739e+09   ,2.1998  ,2.5  ,4.8333
6837  ,8.391e+04   ,-2.3  ,-2.5  ,0.8063
6869  ,4.955e+08   ,2.5  ,-1.7102  ,4.9
6873  ,4.351e+08   ,2.4  ,-1.9073  ,5
6880  ,9.975e+08   ,2.4  ,-0.92182  ,5
6885  ,3.270e+08   ,2.4  ,-0.52764  ,5
6893  ,1.722e+09   ,2.4  ,1.2462  ,5
6914  ,1.001e+08   ,0.7  ,2.5  ,0.1
6920  ,7.380e+07   ,0.9  ,2.4  ,0
6923  ,4.812e+07   ,0.7  ,2.4  ,0
6936  ,3.804e+07   ,2.4  ,-2.5  ,3.4
6939  ,4.014e+07   ,2.3  ,-2.5  ,3.2226
6961  ,3.684e+07   ,-0.1  ,-2.5  ,4.9
6967  ,3.176e+06   ,-2.5  ,-1.5  ,4.9
6975  ,3.473e+07   ,-2.4  ,1.1  ,5
6978  ,2.071e+07   ,-2.4  ,2.5  ,0.2
6987  ,6.111e+08   ,2.4  ,-1.316  ,5
6994  ,1.574e+07   ,2.4  ,-1.5  ,0
7004  ,2.189e+07   ,2.4  ,-2.5  ,3.6
7011  ,1.402e+09   ,2.4  ,0.65491  ,5
7016  ,9.106e+08   ,2.4  ,0.45782  ,5
7019  ,1.402e+08   ,2.5  ,2.4  ,2.1695
7021  ,2.008e+08   ,2.5  ,2.4  ,1.9724
7052  ,3.819e+07   ,-1.3  ,2.5  ,0.1
7054  ,6.173e+04   ,-2.4  ,-2.5  ,0.8
7057  ,7.984e+05   ,0.3  ,-2.5  ,0.1
7065  ,7.183e+05   ,0.24243  ,-2.5  ,0.2
7075  ,2.862e+10   ,2.4888  ,2.4325  ,4.6656
7113  ,6.546e+04   ,-2.4  ,-2.5  ,2.6
7121  ,5.236e+04   ,-2.4  ,-2.5  ,2.8
7126  ,9.557e+04   ,-2.5  ,-2.4  ,2.8
7128  ,1.504e+04   ,-2.4707  ,-2.4707  ,0.1
7129  ,1.175e+04   ,-2.4  ,-2.4707  ,0.029289
7141  ,1.206e+07   ,-1.7  ,-2.4  ,5
7145  ,4.956e+07   ,1.1  ,2.4  ,0
7163  ,4.963e+08   ,-1.7102  ,2.4  ,5
7172  ,5.375e+07   ,2.5  ,-2.4  ,3.2
7174  ,4.243e+07   ,-2.5  ,2.4  ,3.6
7183  ,1.281e+07   ,-1.4531  ,-2.5  ,4.8
7204  ,5.639e+08   ,2.3  ,-0.81068  ,4.8
7220  ,2.779e+08   ,2.5  ,0.063638  ,4.9
7227  ,1.350e+07   ,2.5  ,-1.9  ,0.1
7256  ,5.139e+07   ,-0.1  ,-2.4  ,5
7280  ,1.366e+08   ,-0.33054  ,2.4  ,5
7299  ,8.650e+08   ,2.5  ,-1.1189  ,4.9
7316  ,6.267e+04   ,-2.5  ,-2.4  ,0.8
7323  ,1.266e+05   ,-2.4  ,-2.5  ,1
7396  ,1.896e+07   ,1.1  ,-2.4  ,5
7400  ,2.750e+06   ,-2.5  ,0.7  ,0.1
7409  ,2.549e+07   ,1.3  ,-2.4  ,5
7420  ,5.755e+07   ,2.5  ,2.1  ,0.1
7429  ,1.974e+07   ,2.4  ,1.9  ,0
7436  ,1.517e+07   ,2.5  ,-1.7  ,0.1
7438  ,4.440e+07   ,2.4  ,-2.5  ,2.8
7445  ,2.353e+10   ,2.4325  ,2.1656  ,4.9888
7464  ,8.039e+06   ,2.5  ,-1.5  ,0.1
7480  ,5.849e+06   ,2.5  ,-2.4  ,0.2
7482  ,6.177e+05   ,1.9  ,-2.5  ,0.1
7483  ,9.015e+05   ,1.7  ,-2.5  ,0.1
7486  ,3.072e+07   ,1.9  ,-2.4  ,5
7488  ,3.764e+07   ,1.6937  ,-2.5  ,4.8
7492  ,3.349e+07   ,2.1  ,-2.4  ,5
7495  ,6.248e+05   ,0.1  ,-2.5  ,0.1
7504  ,9.722e+05   ,0.3  ,-2.4  ,0
7507  ,1.567e+06   ,0.9  ,-2.5  ,0.1
7533  ,2.577e+06   ,-2.5  ,0.9  ,0.1
7536  ,3.138e+05   ,-2.4  ,-2.5  ,3.2
7540  ,1.229e+05   ,-2.4  ,-2.5  ,3
7545  ,2.067e+05   ,-2.5  ,-2.4  ,3
7582  ,3.474e+07   ,1.3  ,2.5  ,0.1
7588  ,1.945e+08   ,2.5  ,2.4  ,2.3665
7598  ,4.516e+07   ,-2.5  ,2.4  ,4.2
7607  ,8.050e+07   ,1.5333  ,2.3  ,0.2
7627  ,2.213e+07   ,-2.5  ,1.1  ,4.9
7651  ,6.949e+06   ,2.4  ,-1.9  ,0
7656  ,1.890e+08   ,2.5  ,2.4  ,0.39564
7660  ,8.749e+09   ,2.2299  ,2.3  ,4.7299
7668  ,2.785e+07   ,1.4531  ,-2.5  ,4.8
7676  ,3.554e+07   ,0.1  ,-2.5  ,4.9
7683  ,5.097e+07   ,0.1  ,-2.4  ,5
7686  ,2.836e+07   ,-2.4  ,-1.1  ,5
7702  ,1.500e+06   ,-2.3  ,-2.5  ,4.433
7710  ,3.487e+06   ,-2.3  ,-2.5  ,4.6765
7752  ,2.816e+07   ,0.9  ,-2.4  ,5
7763  ,2.214e+07   ,0.24243  ,-2.5  ,4.8
7767  ,4.475e+05   ,-2.5  ,-2.4  ,3.2
7768  ,6.327e+04   ,-2.4  ,-2.1  ,0
7776  ,3.741e+06   ,-2.4  ,0.9  ,0
7786  ,2.414e+07   ,-0.4838  ,-2.5  ,4.8
7800  ,5.338e+07   ,2.5  ,-2.4  ,4.6
7805  ,1.638e+07   ,-2.5  ,-1.3  ,4.9
7811  ,1.691e+07   ,-2.5  ,-1.1  ,4.9
7820  ,1.831e+06   ,2.5  ,-2.1  ,0.1
7824  ,3.387e+06   ,2.4  ,-2.1  ,0
7828  ,2.078e+07   ,2.4  ,-2.5  ,4.2
7831  ,1.994e+07   ,2.4  ,-2.5  ,4
7838  ,3.219e+07   ,2.5  ,-2.4  ,4.2
7839  ,6.481e+08   ,2.5  ,2.4  ,2.7607
7840  ,9.796e+08   ,2.5  ,2.4  ,2.9578
7863  ,6.223e+05   ,-2.4  ,-1.5  ,0
7890  ,4.790e+07   ,2.4  ,0.9  ,0
7897  ,1.529e+06   ,-2.4  ,-0.7  ,0
7912  ,3.342e+05   ,-1.5  ,-2.4  ,0
7917  ,5.371e+05   ,-1.3  ,-2.5  ,0.1
7931  ,3.737e+07   ,0.5  ,2.4  ,0
7934  ,2.535e+06   ,1.1  ,-2.4  ,0
7937  ,6.218e+06   ,2.4  ,-2.5  ,0.8
7941  ,5.159e+04   ,-2.4  ,-2.5  ,0.6
7969  ,7.625e+06   ,-2.5  ,2.3  ,0.1
7971  ,8.590e+06   ,-2.4  ,1.9  ,0
7972  ,1.672e+07   ,-1.9  ,2.5  ,0.1
7978  ,7.230e+06   ,-2.4  ,1.1  ,0
7996  ,6.886e+07   ,-2.4  ,-0.5  ,5
8000  ,6.537e+04   ,-2.5  ,-2.4  ,0.6
8003  ,5.011e+04   ,-2.5  ,-2.4  ,0.4
8025  ,6.943e+07   ,0.9  ,2.5  ,0.1
8035  ,3.529e+07   ,0.3  ,2.5  ,0.1
8039  ,4.489e+06   ,2.3  ,-2.5  ,0.32348
8041  ,4.744e+06   ,2.3  ,-2.3379  ,0.2
8043  ,4.663e+06   ,2.1765  ,-2.5  ,0.2
8045  ,6.760e+05   ,-0.96359  ,-2.5  ,0.2
8054  ,3.650e+07   ,1.3  ,2.4  ,0
8058  ,2.066e+07   ,1.1  ,2.5  ,0.1
8062  ,2.483e+07   ,-2.5  ,2.4  ,1.4
8067  ,1.684e+07   ,-2.5  ,2.4  ,0.8
8087  ,4.201e+06   ,-2.5  ,1.5  ,0.1
8132  ,2.130e+08   ,-0.13345  ,2.4  ,5
8183  ,2.440e+07   ,2.5  ,-0.9  ,0.1
8184  ,5.275e+05   ,1.6937  ,-2.5  ,0.2
8214  ,2.848e+06   ,-2.4707  ,-2.4  ,4.9707
8217  ,6.052e+06   ,-2.1  ,-2.4  ,5
8219  ,1.390e+06   ,-2.4  ,-2.5  ,4.4
8227  ,1.593e+09   ,2.5  ,2.4  ,3.1549
8242  ,3.990e+07   ,0.7  ,-2.5  ,4.9
8248  ,1.553e+07   ,2.5  ,-2.4  ,3.6
8254  ,3.598e+07   ,2.5  ,-0.3  ,0.1
8256  ,5.366e+07   ,2.5  ,-0.5  ,0.1
8258  ,3.009e+07   ,-0.3  ,-2.5  ,4.9
8263  ,1.935e+07   ,-0.5  ,-2.5  ,4.9
8268  ,6.362e+05   ,-2.3  ,-2.5  ,3.7085
8277  ,5.623e+05   ,-0.1  ,-2.5  ,0.1
8285  ,2.184e+07   ,1.1  ,-2.5  ,4.9
8307  ,1.787e+07   ,0.1  ,2.4  ,0
8308  ,5.431e+07   ,-0.1  ,2.5  ,0.1
8309  ,2.866e+07   ,-0.1  ,2.4  ,0
8313  ,5.527e+06   ,2.5  ,-2.3  ,0.1
8318  ,6.096e+07   ,2.5  ,-2.4  ,3
8338  ,1.428e+09   ,2.5  ,2.4  ,3.352
8339  ,1.455e+09   ,2.4  ,2.5  ,3.1549
8344  ,4.543e+07   ,-2.5  ,2.4  ,3.4
8357  ,2.345e+10   ,2.4888  ,2.1656  ,4.9325
8358  ,8.694e+09   ,2.5  ,2.1998  ,4.8333
8383  ,1.649e+05   ,-1.7  ,-2.4  ,0
8396  ,2.031e+06   ,1.1  ,-2.5  ,0.1
8399  ,1.647e+10   ,2.4526  ,2.1331  ,4.9851
8405  ,8.875e+06   ,2.5  ,-2.4  ,1
8412  ,7.935e+06   ,2.3  ,-2.5  ,0.8063
8417  ,9.308e+04   ,-2.3  ,-2.5  ,2.5
8434  ,3.669e+07   ,0.9636  ,-2.5  ,4.8
8438  ,8.690e+05   ,-0.3  ,-2.5  ,0.1
8452  ,2.652e+07   ,-2.4  ,-0.1  ,5
8468  ,1.570e+09   ,2.5  ,2.4  ,3.7462
8471  ,1.208e+07   ,-1.3  ,-2.5  ,4.9
8493  ,1.647e+07   ,-1.1  ,-2.5  ,4.9
8509  ,2.155e+05   ,-2.5  ,-1.7  ,0.1
8517  ,3.834e+07   ,-2.4  ,2.5  ,3
8531  ,5.523e+06   ,-2.4  ,1.7  ,0
8556  ,1.219e+09   ,2.5  ,2.4  ,3.5491
8573  ,6.033e+08   ,-1.316  ,2.4  ,5
8576  ,5.774e+06   ,-2.4  ,1.3  ,0
8611  ,1.561e+07   ,2.3  ,-2.5  ,1.2915
8618  ,3.260e+07   ,-2.4  ,2.5  ,4
8646  ,5.859e+06   ,-2.5  ,1.1  ,0.1
8656  ,3.741e+07   ,2.5  ,-1.3  ,0.1
8657  ,3.555e+07   ,2.4  ,2.1  ,0
8673  ,3.150e+07   ,-1.3  ,2.4  ,0
8692  ,4.307e+07   ,0.72263  ,-2.5  ,4.8
8696  ,1.013e+07   ,2.3  ,-2.5  ,1.0469
8706  ,1.308e+09   ,2.5  ,0.65491  ,4.9
8721  ,1.894e+05   ,-2.4  ,-2.5  ,1.6
8725  ,1.472e+09   ,0.65491  ,2.4  ,5
8739  ,2.331e+10   ,2.1656  ,2.4325  ,4.9888
8741  ,8.867e+09   ,2.1998  ,2.3333  ,5
8746  ,4.218e+04   ,-2.1  ,-2.4  ,0
8748  ,2.260e+05   ,-2.5  ,-2.4  ,1.2
8752  ,1.647e+10   ,2.1331  ,2.4526  ,4.9851
8759  ,8.418e+04   ,-2.3  ,-2.5  ,1.0469
8787  ,7.847e+05   ,-0.1  ,-2.4  ,0
8793  ,6.606e+04   ,-2.3  ,-2.5  ,2.2576
8795  ,1.193e+05   ,-2.4  ,-2.5  ,2.4
8798  ,1.134e+06   ,-2.3  ,-2.5  ,4.1937
8808  ,1.190e+06   ,-2.3  ,-2.5  ,3.9531
8814  ,6.660e+06   ,-2.4  ,-1.5  ,5
8849  ,3.795e+07   ,0.4838  ,-2.5  ,4.8
8851  ,1.120e+06   ,-2.4  ,-2.5  ,4.2
8868  ,4.629e+07   ,2.4  ,-2.5  ,3
8874  ,1.414e+09   ,0.852  ,2.4  ,5
8883  ,1.928e+07   ,-0.5  ,-2.4  ,5
8886  ,3.064e+07   ,-0.72262  ,-2.5  ,4.8
8893  ,2.494e+07   ,-0.7  ,-2.5  ,4.9
8897  ,1.290e+06   ,-2.5  ,-2.4  ,3.6
8899  ,6.026e+05   ,-2.3  ,-2.5  ,3.4636
8900  ,1.343e+05   ,-2.3  ,-1.4729  ,0.2
8906  ,4.794e+05   ,-2.5  ,-1.3  ,0.1
8910  ,1.473e+09   ,0.852  ,2.5  ,4.9
8925  ,2.244e+07   ,-2.4  ,2.5  ,1.4
8941  ,4.005e+07   ,2.4707  ,2.4  ,0.029289
8942  ,6.518e+07   ,2.5  ,2.3  ,0.1
8945  ,1.765e+07   ,-2.5  ,0.1  ,4.9
8950  ,7.122e+07   ,2.4707  ,2.4707  ,0.1
8951  ,4.682e+07   ,2.4  ,2.4707  ,0.029289
8959  ,5.194e+08   ,2.4  ,0.26073  ,5
8965  ,1.019e+09   ,0.45782  ,2.4  ,5
8978  ,1.420e+09   ,2.4  ,0.852  ,5
8983  ,3.437e+07   ,2.5  ,-1.1  ,0.1
8991  ,1.440e+07   ,-2.5  ,2.4  ,0.6
9008  ,1.432e+09   ,2.5  ,0.852  ,4.9
9011  ,2.157e+06   ,-2.4  ,-0.5  ,0
9025  ,2.951e+05   ,-1.5  ,-2.5  ,0.1
9038  ,2.622e+07   ,2.4  ,-2.5  ,2
9041  ,7.092e+07   ,2.5  ,0.9  ,0.1
9050  ,4.940e+07   ,2.5  ,0.5  ,0.1
9054  ,1.841e+06   ,0.9  ,-2.4  ,0
9060  ,2.510e+06   ,2.4  ,-2.5  ,0.4
9062  ,8.909e+06   ,2.3  ,-2.5  ,0.56701
9064  ,8.933e+06   ,2.5  ,-2.4  ,0.4
9069  ,8.010e+06   ,2.4  ,-2.5  ,0.6
9071  ,1.904e+06   ,1.4531  ,-2.5  ,0.2
9082  ,7.913e+04   ,-2.3  ,-2.5  ,1.2915
9086  ,1.750e+05   ,-2.4  ,-2.5  ,1.4
9091  ,2.618e+05   ,-2.5  ,-2.4  ,1.4
9094  ,2.604e+07   ,1.3  ,-2.5  ,4.9
9097  ,9.780e+05   ,-0.7  ,-2.5  ,0.1
9137  ,2.931e+07   ,-2.5  ,-0.7  ,4.9
9143  ,2.634e+07   ,-2.5  ,-0.1  ,4.9
9146  ,2.007e+07   ,-2.1  ,2.4  ,0
9148  ,1.554e+07   ,-2.5  ,1.7  ,4.9
9173  ,5.311e+07   ,-2.5  ,2.4  ,3
9192  ,2.811e+07   ,-0.7  ,-2.4  ,5
9195  ,9.022e+05   ,0.72263  ,-2.5  ,0.2
9209  ,3.702e+07   ,2.5  ,-2.4  ,3.4
9215  ,1.100e+06   ,0.9636  ,-2.5  ,0.2
9217  ,4.254e+07   ,2.4  ,-2.5  ,3.2
9218  ,2.040e+07   ,-0.96359  ,-2.5  ,4.8
9229  ,3.621e+07   ,-2.4  ,2.5  ,2.8
9248  ,4.176e+07   ,2.3  ,-2.5  ,4.433
9255  ,6.439e+07   ,2.5  ,1.3  ,0.1
9257  ,3.738e+07   ,2.4  ,1.5  ,0
9262  ,5.690e+07   ,0.5  ,-2.4  ,5
9264  ,2.889e+08   ,2.4  ,-0.13345  ,5
9272  ,3.686e+08   ,0.063638  ,2.4  ,5
9277  ,1.878e+07   ,-2.5  ,2.4  ,1.2
9279  ,6.042e+08   ,2.5  ,0.26073  ,4.9
9282  ,2.311e+07   ,1.2085  ,-2.5  ,4.8
9286  ,3.352e+07   ,0.9  ,-2.5  ,4.9
9292  ,6.092e+07   ,-2.4  ,2.4707  ,4.9707
9293  ,9.749e+07   ,-2.3015  ,2.4  ,5
9296  ,3.320e+06   ,-2.4  ,-2.1  ,5
9303  ,8.292e+06   ,-2.4  ,-1.9  ,5
9311  ,6.018e+07   ,-2.4  ,2.3  ,5
9313  ,3.127e+07   ,-2.4  ,0.1  ,5
9319  ,1.706e+06   ,-0.5  ,-2.4  ,0
9328  ,9.846e+04   ,-2.3  ,-2.5  ,1.5364
9334  ,2.199e+07   ,-2.3  ,2.5  ,0.1
9338  ,1.490e+05   ,-2.5  ,-2.4  ,2.4
9339  ,5.728e+06   ,-2.5  ,1.3  ,0.1
9341  ,6.269e+04   ,-2.3  ,-2.5  ,2.7424
9344  ,1.389e+05   ,-2.5  ,-2.4  ,2.2
9358  ,3.903e+07   ,-2.3  ,2.3  ,2.5
9364  ,4.075e+06   ,-2.5  ,-2.1  ,4.9
9367  ,6.057e+06   ,-2.4  ,-2.3  ,5
9374  ,2.124e+07   ,-2.4  ,-1.3  ,5
9378  ,2.469e+07   ,-2.5  ,2.4  ,1.8
9384  ,3.245e+07   ,2.3  ,-2.5  ,2.0162
9385  ,3.056e+07   ,-2.5  ,2.4  ,4.4
9389  ,2.465e+07   ,-2.5  ,2.4  ,2
9395  ,1.459e+08   ,2.4  ,-2.3015  ,5
9396  ,1.969e+05   ,-2.4  ,-1.7  ,0
9407  ,1.583e+07   ,-2.3  ,-1.4729  ,4.8
9411  ,8.011e+06   ,-2.5  ,-1.7  ,4.9
9423  ,1.015e+06   ,-2.4  ,-2.5  ,3.6
9432  ,4.616e+07   ,0.7  ,-2.4  ,5
9438  ,1.079e+07   ,-2.5  ,-0.9  ,4.9
9443  ,5.378e+07   ,-2.5  ,-0.3  ,4.9
9445  ,3.264e+07   ,-2.4707  ,2.4  ,4.9707
9448  ,8.851e+08   ,2.4  ,-1.1189  ,5
9453  ,4.711e+07   ,2.4  ,0.7  ,0
9455  ,4.575e+07   ,2.5  ,-2.4  ,2.6
9457  ,3.446e+07   ,2.3  ,-2.5  ,2.9838
9494  ,1.844e+07   ,-2.4  ,2.5  ,1
9500  ,3.863e+07   ,0.3  ,-2.5  ,4.9
9504  ,5.135e+07   ,0.3  ,-2.4  ,5
9506  ,7.350e+05   ,2.1  ,-2.5  ,0.1
9518  ,3.402e+04   ,-1.9  ,-2.5  ,0.1
9528  ,3.038e+06   ,2.3  ,-2.5  ,0.1
9531  ,2.604e+06   ,2.4707  ,-2.4707  ,0.1
9533  ,2.685e+06   ,2.4707  ,-2.4  ,0.029289
9534  ,2.456e+06   ,2.4  ,-2.4707  ,0.029289
9541  ,4.364e+07   ,0.5  ,-2.5  ,4.9
9544  ,1.146e+06   ,-0.5  ,-2.5  ,0.1
9559  ,6.404e+06   ,-2.5  ,-1.9  ,4.9
9562  ,3.991e+07   ,-2.5  ,2.4  ,4.6
9565  ,2.665e+07   ,-2.4  ,2.5  ,2
9571  ,1.475e+06   ,-2.5  ,-2.4  ,3.8
9574  ,1.207e+06   ,-2.4  ,-2.5  ,3.8
9577  ,1.661e+06   ,1.3  ,-2.5  ,0.1
9582  ,1.504e+06   ,-2.5  ,-0.9  ,0.1
9596  ,5.469e+07   ,2.1  ,2.4  ,0
9598  ,5.455e+07   ,-2.4  ,2.5  ,3.2
9602  ,3.532e+07   ,1.5  ,2.5  ,0.1
9610  ,1.783e+08   ,2.4  ,2.5  ,0.39564
9612  ,6.141e+08   ,-0.72473  ,2.5  ,4.9
9614  ,3.852e+07   ,1.7  ,2.5  ,0.1
9635  ,6.719e+07   ,2.5  ,1.7  ,0.1
9646  ,6.310e+07   ,2.3  ,2.5  ,0.1
9651  ,2.367e+10   ,2.1656  ,2.4888  ,4.9325
9653  ,5.913e+08   ,2.5  ,-1.316  ,4.9
9656  ,1.340e+07   ,-2.4  ,-1.7  ,5
9659  ,3.534e+07   ,2.3  ,-2.5  ,4.6765
9661  ,2.021e+07   ,2.3  ,-2.5  ,3.9531
9664  ,5.164e+06   ,-2.3  ,-2.4  ,5
9666  ,1.686e+06   ,1.9  ,-2.4  ,0
9677  ,3.805e+07   ,2.4  ,0.5  ,0
9678  ,8.743e+05   ,-2.5  ,-1.1  ,0.1
9680  ,6.740e+08   ,2.5  ,2.4  ,1.184
9681  ,9.450e+07   ,2.5  ,2.4  ,0.19855
9696  ,9.160e+04   ,-2.3  ,-2.5  ,2.0162
9698  ,8.690e+05   ,2.4  ,-2.3  ,0
9699  ,8.869e+05   ,-0.24243  ,-2.5  ,0.2
9701  ,7.649e+05   ,0.1  ,-2.4  ,0
9704  ,8.407e+05   ,-0.4838  ,-2.5  ,0.2
9718  ,5.055e+05   ,-0.72262  ,-2.5  ,0.2
9726  ,2.948e+07   ,2.3  ,-0.76628  ,0.2
9727  ,1.868e+07   ,-2.5  ,2.4  ,0.4
9730  ,1.777e+07   ,1.9433E-06  ,-2.5  ,4.8
9731  ,1.383e+07   ,-0.24243  ,-2.5  ,4.8
9732  ,2.757e+07   ,-2.5  ,2.4  ,2.2
9738  ,1.827e+06   ,-2.5  ,-2.4  ,4
9743  ,8.846e+06   ,-1.6937  ,-2.5  ,4.8
9744  ,1.423e+06   ,-2.4  ,-2.5  ,4
9750  ,1.649e+05   ,-1.7  ,-2.5  ,0.1
9752  ,1.995e+05   ,-1.6937  ,-2.5  ,0.2
9754  ,6.162e+05   ,-1.3  ,-2.4  ,0
9759  ,2.036e+06   ,-2.4707  ,2.4  ,0.029289
9760  ,6.715e+06   ,-2.4  ,2.4707  ,0.029289
9768  ,3.125e+07   ,2.3  ,-2.5  ,4.1937
9770  ,6.679e+05   ,1.9433E-06  ,-2.5  ,0.2
9771  ,5.674e+05   ,0.4838  ,-2.5  ,0.2
9772  ,3.096e+06   ,2.4  ,-2.5  ,0.2
9773  ,3.261e+07   ,2.4  ,-2.5  ,4.6
9776  ,2.283e+08   ,2.4  ,0.063638  ,5
9780  ,1.536e+09   ,0.65491  ,2.5  ,4.9
9781  ,1.033e+08   ,2.4  ,2.5  ,0.19855
9782  ,1.524e+05   ,-2.3  ,-2.5  ,2.9838
9786  ,4.808e+05   ,-1.2085  ,-2.5  ,0.2
9787  ,2.282e+05   ,-1.4531  ,-2.5  ,0.2
9790  ,8.689e+05   ,2.3  ,-2.4  ,0
9793  ,8.404e+09   ,2.0345  ,2.4  ,5
9797  ,1.341e+07   ,2.3  ,-2.5  ,1.5364
9798  ,1.386e+09   ,2.4  ,1.0491  ,5
9809  ,1.408e+09   ,2.4  ,2.5  ,3.352
