Date:  12:45, Monday, July 10, 2023
Model name: Hollow_DropBox
Study name: DropTest_300fts(-Default-)
Plot type:  Stress1
Plot step: 2   time : 10.4846 Microseconds
Result Type: von Mises 


Node  ,Value (N/m^2)  ,X (in)  ,Y (in)  ,Z (in)
1  ,5.364e+09   ,2.5  ,2.1331  ,4.9
2  ,2.121e+10   ,2.4577  ,2.1908  ,4.9577
3  ,1.051e+10   ,2.4894  ,2.1331  ,4.9447
4  ,5.580e+09   ,2.1331  ,2.5  ,4.9
5  ,1.030e+10   ,2.1331  ,2.4894  ,4.9447
6  ,1.922e+10   ,2.1908  ,2.4577  ,4.9577
7  ,1.954e+06   ,-2.4  ,2.4  ,5
8  ,5.093e+03   ,-2.4  ,-2.4  ,5
9  ,1.225e+05   ,2.4  ,-2.4  ,5
10  ,5.186e+09   ,2.4  ,2.1331  ,5
11  ,5.503e+09   ,2.1331  ,2.4  ,5
12  ,1.182e+05   ,2.5  ,-2.4  ,4.9
13  ,3.686e+03   ,2.5  ,-2.4  ,0.1
14  ,5.230e+06   ,2.5  ,2.4  ,0.1
15  ,5.725e+09   ,2.5  ,2.4  ,4.6331
16  ,4.217e+06   ,2.4  ,2.5  ,0.1
17  ,5.739e+05   ,-2.4  ,2.5  ,0.1
18  ,2.215e+06   ,-2.4  ,2.5  ,4.9
19  ,5.840e+09   ,2.4  ,2.5  ,4.6331
20  ,5.759e+05   ,-2.5  ,2.4  ,0.1
21  ,4.269e+00   ,-2.5  ,-2.4  ,0.1
22  ,2.393e+03   ,-2.5  ,-2.4  ,4.9
23  ,1.756e+06   ,-2.5  ,2.4  ,4.9
24  ,3.485e+00   ,-2.3  ,-2.5  ,0.2
25  ,1.791e+03   ,-2.3  ,-2.5  ,4.8
26  ,8.228e+04   ,2.3  ,-2.5  ,4.8
27  ,2.057e+03   ,2.3  ,-2.5  ,0.2
28  ,1.263e+03   ,-2.4  ,-2.5  ,4.9
29  ,8.810e+04   ,2.4  ,-2.5  ,4.9
30  ,3.343e+00   ,-2.4  ,-2.5  ,0.1
31  ,7.846e+02   ,2.4  ,-2.5  ,0.1
32  ,2.110e+03   ,2.4  ,-2.4  ,0
33  ,4.882e+06   ,2.4  ,2.4  ,0
34  ,2.993e+00   ,-2.4  ,-2.4  ,0
35  ,5.010e+05   ,-2.4  ,2.4  ,0
36  ,2.033e+10   ,2.4577  ,2.4577  ,4.6908
37  ,7.582e+06   ,-2.3  ,2.3  ,4.8
38  ,6.336e+09   ,2.1599  ,2.3  ,4.8
39  ,6.357e+09   ,2.3  ,2.1599  ,4.8
40  ,6.294e+09   ,2.3  ,2.3  ,4.6599
41  ,6.409e+06   ,2.3  ,2.3  ,0.2
42  ,3.969e+05   ,-2.3  ,2.3  ,0.2
43  ,1.067e+06   ,-2.4  ,2.2  ,5
44  ,2.890e+06   ,-2.4  ,2  ,5
45  ,2.502e+06   ,-2.4  ,1.8  ,5
46  ,3.740e+06   ,-2.4  ,1.6  ,5
47  ,3.972e+06   ,-2.4  ,1.4  ,5
48  ,4.420e+06   ,-2.4  ,1.2  ,5
49  ,3.249e+06   ,-2.4  ,1  ,5
50  ,4.571e+06   ,-2.4  ,0.8  ,5
51  ,4.588e+06   ,-2.4  ,0.6  ,5
52  ,3.076e+06   ,-2.4  ,0.4  ,5
53  ,3.706e+06   ,-2.4  ,0.2  ,5
54  ,3.126e+06   ,-2.4  ,5.8879E-16  ,5
55  ,1.590e+06   ,-2.4  ,-0.2  ,5
56  ,3.429e+06   ,-2.4  ,-0.4  ,5
57  ,2.899e+06   ,-2.4  ,-0.6  ,5
58  ,9.043e+05   ,-2.4  ,-0.8  ,5
59  ,8.483e+05   ,-2.4  ,-1  ,5
60  ,1.048e+06   ,-2.4  ,-1.2  ,5
61  ,5.380e+05   ,-2.4  ,-1.4  ,5
62  ,3.328e+05   ,-2.4  ,-1.6  ,5
63  ,1.980e+05   ,-2.4  ,-1.8  ,5
64  ,3.348e+04   ,-2.4  ,-2  ,5
65  ,1.678e+04   ,-2.4  ,-2.2  ,5
66  ,7.344e+03   ,-2.2  ,-2.4  ,5
67  ,3.067e+03   ,-2  ,-2.4  ,5
68  ,5.000e+03   ,-1.8  ,-2.4  ,5
69  ,9.271e+03   ,-1.6  ,-2.4  ,5
70  ,1.756e+04   ,-1.4  ,-2.4  ,5
71  ,1.470e+04   ,-1.2  ,-2.4  ,5
72  ,1.677e+04   ,-1  ,-2.4  ,5
73  ,4.950e+04   ,-0.8  ,-2.4  ,5
74  ,8.887e+04   ,-0.6  ,-2.4  ,5
75  ,8.620e+04   ,-0.4  ,-2.4  ,5
76  ,1.387e+05   ,-0.2  ,-2.4  ,5
77  ,1.478e+05   ,-5.8879E-16  ,-2.4  ,5
78  ,8.495e+04   ,0.2  ,-2.4  ,5
79  ,2.629e+04   ,0.4  ,-2.4  ,5
80  ,6.015e+04   ,0.6  ,-2.4  ,5
81  ,9.368e+04   ,0.8  ,-2.4  ,5
82  ,1.896e+05   ,1  ,-2.4  ,5
83  ,2.414e+05   ,1.2  ,-2.4  ,5
84  ,4.061e+05   ,1.4  ,-2.4  ,5
85  ,5.075e+05   ,1.6  ,-2.4  ,5
86  ,6.097e+05   ,1.8  ,-2.4  ,5
87  ,5.874e+05   ,2  ,-2.4  ,5
88  ,1.428e+05   ,2.2  ,-2.4  ,5
89  ,1.511e+05   ,2.4  ,-2.2029  ,5
90  ,1.418e+06   ,2.4  ,-2.0058  ,5
91  ,1.034e+06   ,2.4  ,-1.8087  ,5
92  ,9.175e+06   ,2.4  ,-1.6116  ,5
93  ,7.736e+06   ,2.4  ,-1.4145  ,5
94  ,2.346e+07   ,2.4  ,-1.2175  ,5
95  ,5.612e+07   ,2.4  ,-1.0204  ,5
96  ,2.409e+07   ,2.4  ,-0.82327  ,5
97  ,1.076e+08   ,2.4  ,-0.62618  ,5
98  ,2.548e+08   ,2.4  ,-0.42909  ,5
99  ,5.776e+07   ,2.4  ,-0.232  ,5
100  ,4.293e+08   ,2.4  ,-0.034907  ,5
101  ,5.822e+08   ,2.4  ,0.16218  ,5
102  ,5.192e+08   ,2.4  ,0.35927  ,5
103  ,6.057e+08   ,2.4  ,0.55637  ,5
104  ,5.610e+08   ,2.4  ,0.75346  ,5
105  ,2.680e+08   ,2.4  ,0.95055  ,5
106  ,4.361e+08   ,2.4  ,1.1476  ,5
107  ,1.172e+09   ,2.4  ,1.3447  ,5
108  ,1.566e+09   ,2.4  ,1.5418  ,5
109  ,2.365e+09   ,2.4  ,1.7389  ,5
110  ,4.005e+09   ,2.4  ,1.936  ,5
111  ,5.754e+09   ,2.2665  ,2.2665  ,5
112  ,4.017e+09   ,1.936  ,2.4  ,5
113  ,2.098e+09   ,1.7389  ,2.4  ,5
114  ,1.509e+09   ,1.5418  ,2.4  ,5
115  ,1.015e+09   ,1.3447  ,2.4  ,5
116  ,4.301e+08   ,1.1476  ,2.4  ,5
117  ,2.628e+08   ,0.95055  ,2.4  ,5
118  ,8.087e+08   ,0.75346  ,2.4  ,5
119  ,6.924e+08   ,0.55637  ,2.4  ,5
120  ,4.056e+08   ,0.35927  ,2.4  ,5
121  ,4.031e+08   ,0.16218  ,2.4  ,5
122  ,3.269e+08   ,-0.034907  ,2.4  ,5
123  ,1.459e+08   ,-0.232  ,2.4  ,5
124  ,4.196e+07   ,-0.42909  ,2.4  ,5
125  ,1.263e+08   ,-0.62618  ,2.4  ,5
126  ,1.305e+08   ,-0.82327  ,2.4  ,5
127  ,4.149e+07   ,-1.0204  ,2.4  ,5
128  ,1.780e+07   ,-1.2175  ,2.4  ,5
129  ,2.797e+07   ,-1.4145  ,2.4  ,5
130  ,2.131e+07   ,-1.6116  ,2.4  ,5
131  ,1.005e+07   ,-1.8087  ,2.4  ,5
132  ,5.388e+06   ,-2.0058  ,2.4  ,5
133  ,3.467e+06   ,-2.2029  ,2.4  ,5
294  ,2.049e+05   ,2.5  ,-2.2029  ,4.9
295  ,1.563e+06   ,2.5  ,-2.0058  ,4.9
296  ,1.566e+06   ,2.5  ,-1.8087  ,4.9
297  ,8.170e+06   ,2.5  ,-1.6116  ,4.9
298  ,7.129e+06   ,2.5  ,-1.4145  ,4.9
299  ,2.506e+07   ,2.5  ,-1.2175  ,4.9
300  ,5.325e+07   ,2.5  ,-1.0204  ,4.9
301  ,2.630e+07   ,2.5  ,-0.82327  ,4.9
302  ,1.157e+08   ,2.5  ,-0.62618  ,4.9
303  ,2.360e+08   ,2.5  ,-0.42909  ,4.9
304  ,8.287e+07   ,2.5  ,-0.232  ,4.9
305  ,3.769e+08   ,2.5  ,-0.034907  ,4.9
306  ,5.369e+08   ,2.5  ,0.16218  ,4.9
307  ,5.199e+08   ,2.5  ,0.35927  ,4.9
308  ,6.436e+08   ,2.5  ,0.55637  ,4.9
309  ,5.674e+08   ,2.5  ,0.75346  ,4.9
310  ,9.192e+07   ,2.5  ,0.95055  ,4.9
311  ,6.092e+08   ,2.5  ,1.1476  ,4.9
312  ,1.126e+09   ,2.5  ,1.3447  ,4.9
313  ,1.442e+09   ,2.5  ,1.5418  ,4.9
314  ,2.881e+09   ,2.5  ,1.7389  ,4.9
315  ,4.270e+09   ,2.5  ,1.936  ,4.9
316  ,1.055e+05   ,2.5  ,-2.4  ,4.7
317  ,5.460e+05   ,2.5  ,-2.4  ,4.5
318  ,3.793e+05   ,2.5  ,-2.4  ,4.3
319  ,1.645e+05   ,2.5  ,-2.4  ,4.1
320  ,2.477e+05   ,2.5  ,-2.4  ,3.9
321  ,2.686e+05   ,2.5  ,-2.4  ,3.7
322  ,8.795e+04   ,2.5  ,-2.4  ,3.5
323  ,1.802e+05   ,2.5  ,-2.4  ,3.3
324  ,8.190e+04   ,2.5  ,-2.4  ,3.1
325  ,6.214e+04   ,2.5  ,-2.4  ,2.9
326  ,1.266e+05   ,2.5  ,-2.4  ,2.7
327  ,1.640e+05   ,2.5  ,-2.4  ,2.5
328  ,9.225e+04   ,2.5  ,-2.4  ,2.3
329  ,4.379e+04   ,2.5  ,-2.4  ,2.1
330  ,6.575e+04   ,2.5  ,-2.4  ,1.9
331  ,4.281e+04   ,2.5  ,-2.4  ,1.7
332  ,1.842e+04   ,2.5  ,-2.4  ,1.5
333  ,3.625e+04   ,2.5  ,-2.4  ,1.3
334  ,2.770e+04   ,2.5  ,-2.4  ,1.1
335  ,1.905e+04   ,2.5  ,-2.4  ,0.9
336  ,1.272e+04   ,2.5  ,-2.4  ,0.7
337  ,1.009e+04   ,2.5  ,-2.4  ,0.5
338  ,7.055e+03   ,2.5  ,-2.4  ,0.3
339  ,8.748e+03   ,2.5  ,-2.2  ,0.1
340  ,2.687e+04   ,2.5  ,-2  ,0.1
341  ,1.772e+05   ,2.5  ,-1.8  ,0.1
342  ,3.097e+05   ,2.5  ,-1.6  ,0.1
343  ,4.712e+05   ,2.5  ,-1.4  ,0.1
344  ,1.449e+06   ,2.5  ,-1.2  ,0.1
345  ,1.293e+06   ,2.5  ,-1  ,0.1
346  ,2.575e+06   ,2.5  ,-0.8  ,0.1
347  ,3.649e+06   ,2.5  ,-0.6  ,0.1
348  ,5.577e+06   ,2.5  ,-0.4  ,0.1
349  ,5.773e+06   ,2.5  ,-0.2  ,0.1
350  ,8.553e+06   ,2.5  ,-1.7664E-15  ,0.1
351  ,9.762e+06   ,2.5  ,0.2  ,0.1
352  ,7.887e+06   ,2.5  ,0.4  ,0.1
353  ,1.715e+07   ,2.5  ,0.6  ,0.1
354  ,2.198e+07   ,2.5  ,0.8  ,0.1
355  ,8.411e+06   ,2.5  ,1  ,0.1
356  ,1.243e+07   ,2.5  ,1.2  ,0.1
357  ,1.202e+07   ,2.5  ,1.4  ,0.1
358  ,1.298e+07   ,2.5  ,1.6  ,0.1
359  ,7.477e+06   ,2.5  ,1.8  ,0.1
360  ,5.943e+06   ,2.5  ,2  ,0.1
361  ,7.397e+06   ,2.5  ,2.2  ,0.1
362  ,3.824e+09   ,2.5  ,2.4  ,4.436
363  ,2.509e+09   ,2.5  ,2.4  ,4.2389
364  ,1.575e+09   ,2.5  ,2.4  ,4.0418
365  ,9.096e+08   ,2.5  ,2.4  ,3.8447
366  ,6.613e+08   ,2.5  ,2.4  ,3.6476
367  ,3.679e+08   ,2.5  ,2.4  ,3.4505
368  ,7.611e+08   ,2.5  ,2.4  ,3.2535
369  ,7.290e+08   ,2.5  ,2.4  ,3.0564
370  ,3.986e+08   ,2.5  ,2.4  ,2.8593
371  ,4.008e+08   ,2.5  ,2.4  ,2.6622
372  ,3.123e+08   ,2.5  ,2.4  ,2.4651
373  ,1.436e+08   ,2.5  ,2.4  ,2.268
374  ,2.812e+07   ,2.5  ,2.4  ,2.0709
375  ,1.208e+08   ,2.5  ,2.4  ,1.8738
376  ,1.462e+08   ,2.5  ,2.4  ,1.6767
377  ,5.073e+07   ,2.5  ,2.4  ,1.4796
378  ,1.199e+07   ,2.5  ,2.4  ,1.2825
379  ,2.661e+07   ,2.5  ,2.4  ,1.0855
380  ,2.610e+07   ,2.5  ,2.4  ,0.88836
381  ,1.451e+07   ,2.5  ,2.4  ,0.69127
382  ,5.900e+06   ,2.5  ,2.4  ,0.49418
383  ,7.212e+06   ,2.5  ,2.4  ,0.29709
384  ,5.891e+09   ,2.5  ,2.2665  ,4.7665
544  ,4.090e+06   ,2.2  ,2.5  ,0.1
545  ,4.385e+06   ,2  ,2.5  ,0.1
546  ,6.281e+06   ,1.8  ,2.5  ,0.1
547  ,8.333e+06   ,1.6  ,2.5  ,0.1
548  ,7.033e+06   ,1.4  ,2.5  ,0.1
549  ,7.904e+06   ,1.2  ,2.5  ,0.1
550  ,6.106e+06   ,1  ,2.5  ,0.1
551  ,1.474e+07   ,0.8  ,2.5  ,0.1
552  ,1.714e+07   ,0.6  ,2.5  ,0.1
553  ,7.010e+06   ,0.4  ,2.5  ,0.1
554  ,7.196e+06   ,0.2  ,2.5  ,0.1
555  ,5.277e+06   ,5.8879E-16  ,2.5  ,0.1
556  ,3.531e+06   ,-0.2  ,2.5  ,0.1
557  ,4.093e+06   ,-0.4  ,2.5  ,0.1
558  ,4.781e+06   ,-0.6  ,2.5  ,0.1
559  ,5.502e+06   ,-0.8  ,2.5  ,0.1
560  ,2.882e+06   ,-1  ,2.5  ,0.1
561  ,2.638e+06   ,-1.2  ,2.5  ,0.1
562  ,2.410e+06   ,-1.4  ,2.5  ,0.1
563  ,1.529e+06   ,-1.6  ,2.5  ,0.1
564  ,8.174e+05   ,-1.8  ,2.5  ,0.1
565  ,1.059e+06   ,-2  ,2.5  ,0.1
566  ,1.496e+06   ,-2.2  ,2.5  ,0.1
567  ,3.765e+06   ,-2.4  ,2.5  ,4.7
568  ,5.671e+06   ,-2.4  ,2.5  ,4.5
569  ,6.350e+06   ,-2.4  ,2.5  ,4.3
570  ,7.778e+06   ,-2.4  ,2.5  ,4.1
571  ,9.929e+06   ,-2.4  ,2.5  ,3.9
572  ,8.157e+06   ,-2.4  ,2.5  ,3.7
573  ,4.895e+06   ,-2.4  ,2.5  ,3.5
574  ,1.177e+07   ,-2.4  ,2.5  ,3.3
575  ,1.063e+07   ,-2.4  ,2.5  ,3.1
576  ,5.932e+06   ,-2.4  ,2.5  ,2.9
577  ,3.748e+06   ,-2.4  ,2.5  ,2.7
578  ,4.504e+06   ,-2.4  ,2.5  ,2.5
579  ,5.206e+06   ,-2.4  ,2.5  ,2.3
580  ,3.668e+06   ,-2.4  ,2.5  ,2.1
581  ,3.038e+06   ,-2.4  ,2.5  ,1.9
582  ,4.153e+06   ,-2.4  ,2.5  ,1.7
583  ,2.444e+06   ,-2.4  ,2.5  ,1.5
584  ,2.039e+06   ,-2.4  ,2.5  ,1.3
585  ,9.802e+05   ,-2.4  ,2.5  ,1.1
586  ,5.702e+05   ,-2.4  ,2.5  ,0.9
587  ,1.095e+06   ,-2.4  ,2.5  ,0.7
588  ,1.761e+06   ,-2.4  ,2.5  ,0.5
589  ,1.685e+06   ,-2.4  ,2.5  ,0.3
590  ,4.356e+09   ,1.936  ,2.5  ,4.9
591  ,1.809e+09   ,1.7389  ,2.5  ,4.9
592  ,1.447e+09   ,1.5418  ,2.5  ,4.9
593  ,1.139e+09   ,1.3447  ,2.5  ,4.9
594  ,3.897e+08   ,1.1476  ,2.5  ,4.9
595  ,3.943e+08   ,0.95055  ,2.5  ,4.9
596  ,7.832e+08   ,0.75346  ,2.5  ,4.9
597  ,7.148e+08   ,0.55637  ,2.5  ,4.9
598  ,3.947e+08   ,0.35927  ,2.5  ,4.9
599  ,4.040e+08   ,0.16218  ,2.5  ,4.9
600  ,3.461e+08   ,-0.034907  ,2.5  ,4.9
601  ,1.476e+08   ,-0.232  ,2.5  ,4.9
602  ,6.116e+07   ,-0.42909  ,2.5  ,4.9
603  ,1.287e+08   ,-0.62618  ,2.5  ,4.9
604  ,1.303e+08   ,-0.82327  ,2.5  ,4.9
605  ,4.598e+07   ,-1.0204  ,2.5  ,4.9
606  ,1.834e+07   ,-1.2175  ,2.5  ,4.9
607  ,2.578e+07   ,-1.4145  ,2.5  ,4.9
608  ,1.918e+07   ,-1.6116  ,2.5  ,4.9
609  ,8.815e+06   ,-1.8087  ,2.5  ,4.9
610  ,2.306e+06   ,-2.0058  ,2.5  ,4.9
611  ,2.134e+06   ,-2.2029  ,2.5  ,4.9
612  ,5.941e+09   ,2.2665  ,2.5  ,4.7665
613  ,3.840e+09   ,2.4  ,2.5  ,4.436
614  ,2.032e+09   ,2.4  ,2.5  ,4.2389
615  ,1.438e+09   ,2.4  ,2.5  ,4.0418
616  ,9.539e+08   ,2.4  ,2.5  ,3.8447
617  ,6.739e+08   ,2.4  ,2.5  ,3.6476
618  ,4.296e+08   ,2.4  ,2.5  ,3.4505
619  ,8.180e+08   ,2.4  ,2.5  ,3.2535
620  ,6.386e+08   ,2.4  ,2.5  ,3.0564
621  ,3.744e+08   ,2.4  ,2.5  ,2.8593
622  ,4.397e+08   ,2.4  ,2.5  ,2.6622
623  ,3.337e+08   ,2.4  ,2.5  ,2.4651
624  ,1.608e+08   ,2.4  ,2.5  ,2.268
625  ,2.691e+07   ,2.4  ,2.5  ,2.0709
626  ,1.246e+08   ,2.4  ,2.5  ,1.8738
627  ,1.522e+08   ,2.4  ,2.5  ,1.6767
628  ,4.780e+07   ,2.4  ,2.5  ,1.4796
629  ,1.407e+07   ,2.4  ,2.5  ,1.2825
630  ,2.820e+07   ,2.4  ,2.5  ,1.0855
631  ,2.864e+07   ,2.4  ,2.5  ,0.88836
632  ,1.825e+07   ,2.4  ,2.5  ,0.69127
633  ,5.902e+06   ,2.4  ,2.5  ,0.49418
634  ,4.684e+06   ,2.4  ,2.5  ,0.29709
796  ,1.264e+06   ,-2.5  ,2.2  ,0.1
797  ,5.356e+05   ,-2.5  ,2  ,0.1
798  ,2.579e+05   ,-2.5  ,1.8  ,0.1
799  ,1.747e+05   ,-2.5  ,1.6  ,0.1
800  ,1.589e+05   ,-2.5  ,1.4  ,0.1
801  ,1.387e+05   ,-2.5  ,1.2  ,0.1
802  ,7.231e+04   ,-2.5  ,1  ,0.1
803  ,2.615e+05   ,-2.5  ,0.8  ,0.1
804  ,1.065e+05   ,-2.5  ,0.6  ,0.1
805  ,8.463e+04   ,-2.5  ,0.4  ,0.1
806  ,7.886e+04   ,-2.5  ,0.2  ,0.1
807  ,4.688e+04   ,-2.5  ,5.8879E-16  ,0.1
808  ,2.236e+04   ,-2.5  ,-0.2  ,0.1
809  ,3.770e+04   ,-2.5  ,-0.4  ,0.1
810  ,1.310e+04   ,-2.5  ,-0.6  ,0.1
811  ,1.073e+04   ,-2.5  ,-0.8  ,0.1
812  ,7.744e+03   ,-2.5  ,-1  ,0.1
813  ,5.070e+03   ,-2.5  ,-1.2  ,0.1
814  ,2.276e+03   ,-2.5  ,-1.4  ,0.1
815  ,7.559e+02   ,-2.5  ,-1.6  ,0.1
816  ,2.600e+02   ,-2.5  ,-1.8  ,0.1
817  ,1.492e+02   ,-2.5  ,-2  ,0.1
818  ,2.097e+01   ,-2.5  ,-2.2  ,0.1
819  ,3.518e+03   ,-2.5  ,-2.4  ,4.7
820  ,2.010e+03   ,-2.5  ,-2.4  ,4.5
821  ,1.823e+03   ,-2.5  ,-2.4  ,4.3
822  ,1.031e+03   ,-2.5  ,-2.4  ,4.1
823  ,7.616e+02   ,-2.5  ,-2.4  ,3.9
824  ,7.959e+02   ,-2.5  ,-2.4  ,3.7
825  ,3.822e+02   ,-2.5  ,-2.4  ,3.5
826  ,2.393e+02   ,-2.5  ,-2.4  ,3.3
827  ,9.043e+01   ,-2.5  ,-2.4  ,3.1
828  ,1.058e+02   ,-2.5  ,-2.4  ,2.9
829  ,9.077e+01   ,-2.5  ,-2.4  ,2.7
830  ,3.569e+01   ,-2.5  ,-2.4  ,2.5
831  ,3.742e+01   ,-2.5  ,-2.4  ,2.3
832  ,5.035e+01   ,-2.5  ,-2.4  ,2.1
833  ,3.936e+01   ,-2.5  ,-2.4  ,1.9
834  ,2.486e+01   ,-2.5  ,-2.4  ,1.7
835  ,3.985e+01   ,-2.5  ,-2.4  ,1.5
836  ,3.385e+01   ,-2.5  ,-2.4  ,1.3
837  ,1.997e+01   ,-2.5  ,-2.4  ,1.1
838  ,2.531e+01   ,-2.5  ,-2.4  ,0.9
839  ,2.059e+01   ,-2.5  ,-2.4  ,0.7
840  ,5.103e+01   ,-2.5  ,-2.4  ,0.5
841  ,1.592e+01   ,-2.5  ,-2.4  ,0.3
842  ,3.392e+06   ,-2.5  ,2.2  ,4.9
843  ,3.880e+06   ,-2.5  ,2  ,4.9
844  ,3.748e+06   ,-2.5  ,1.8  ,4.9
845  ,3.148e+06   ,-2.5  ,1.6  ,4.9
846  ,2.929e+06   ,-2.5  ,1.4  ,4.9
847  ,2.976e+06   ,-2.5  ,1.2  ,4.9
848  ,2.592e+06   ,-2.5  ,1  ,4.9
849  ,2.790e+06   ,-2.5  ,0.8  ,4.9
850  ,2.709e+06   ,-2.5  ,0.6  ,4.9
851  ,1.857e+06   ,-2.5  ,0.4  ,4.9
852  ,1.464e+06   ,-2.5  ,0.2  ,4.9
853  ,2.375e+06   ,-2.5  ,5.8879E-16  ,4.9
854  ,1.243e+06   ,-2.5  ,-0.2  ,4.9
855  ,2.555e+06   ,-2.5  ,-0.4  ,4.9
856  ,2.334e+06   ,-2.5  ,-0.6  ,4.9
857  ,8.936e+05   ,-2.5  ,-0.8  ,4.9
858  ,5.990e+05   ,-2.5  ,-1  ,4.9
859  ,6.321e+05   ,-2.5  ,-1.2  ,4.9
860  ,3.594e+05   ,-2.5  ,-1.4  ,4.9
861  ,2.850e+05   ,-2.5  ,-1.6  ,4.9
862  ,1.052e+05   ,-2.5  ,-1.8  ,4.9
863  ,5.352e+04   ,-2.5  ,-2  ,4.9
864  ,1.453e+04   ,-2.5  ,-2.2  ,4.9
865  ,4.877e+06   ,-2.5  ,2.4  ,4.7
866  ,3.700e+06   ,-2.5  ,2.4  ,4.5
867  ,5.517e+06   ,-2.5  ,2.4  ,4.3
868  ,7.050e+06   ,-2.5  ,2.4  ,4.1
869  ,1.058e+07   ,-2.5  ,2.4  ,3.9
870  ,1.201e+07   ,-2.5  ,2.4  ,3.7
871  ,1.086e+07   ,-2.5  ,2.4  ,3.5
872  ,1.462e+07   ,-2.5  ,2.4  ,3.3
873  ,1.222e+07   ,-2.5  ,2.4  ,3.1
874  ,8.624e+06   ,-2.5  ,2.4  ,2.9
875  ,4.534e+06   ,-2.5  ,2.4  ,2.7
876  ,2.897e+06   ,-2.5  ,2.4  ,2.5
877  ,3.349e+06   ,-2.5  ,2.4  ,2.3
878  ,4.495e+06   ,-2.5  ,2.4  ,2.1
879  ,3.598e+06   ,-2.5  ,2.4  ,1.9
880  ,2.702e+06   ,-2.5  ,2.4  ,1.7
881  ,2.537e+06   ,-2.5  ,2.4  ,1.5
882  ,1.703e+06   ,-2.5  ,2.4  ,1.3
883  ,8.963e+05   ,-2.5  ,2.4  ,1.1
884  ,4.129e+05   ,-2.5  ,2.4  ,0.9
885  ,6.460e+05   ,-2.5  ,2.4  ,0.7
886  ,5.862e+05   ,-2.5  ,2.4  ,0.5
887  ,2.573e+05   ,-2.5  ,2.4  ,0.3
1044  ,2.703e+01   ,-2.3  ,-2.5  ,0.44697
1045  ,3.405e+01   ,-2.3  ,-2.5  ,0.68705
1046  ,8.976e+00   ,-2.3  ,-2.5  ,0.92554
1047  ,2.382e+01   ,-2.3  ,-2.5  ,1.1682
1048  ,3.832e+01   ,-2.3  ,-2.5  ,1.4148
1049  ,1.785e+01   ,-2.3  ,-2.5  ,1.6581
1050  ,1.221e+01   ,-2.3  ,-2.5  ,1.8967
1051  ,2.107e+01   ,-2.3  ,-2.5  ,2.1357
1052  ,1.884e+01   ,-2.3  ,-2.5  ,2.3794
1053  ,5.278e+01   ,-2.3  ,-2.5  ,2.6206
1054  ,5.619e+01   ,-2.3  ,-2.5  ,2.8643
1055  ,5.674e+01   ,-2.3  ,-2.5  ,3.1033
1056  ,5.387e+01   ,-2.3  ,-2.5  ,3.342
1057  ,3.944e+02   ,-2.3  ,-2.5  ,3.5852
1058  ,4.221e+02   ,-2.3  ,-2.5  ,3.8318
1059  ,3.285e+02   ,-2.3  ,-2.5  ,4.0745
1060  ,1.003e+03   ,-2.3  ,-2.5  ,4.3129
1061  ,1.593e+03   ,-2.3  ,-2.5  ,4.553
1062  ,7.044e+03   ,-2.053  ,-2.5  ,4.8
1063  ,1.504e+04   ,-1.8129  ,-2.5  ,4.8
1064  ,1.312e+04   ,-1.5745  ,-2.5  ,4.8
1065  ,2.152e+04   ,-1.3318  ,-2.5  ,4.8
1066  ,1.692e+04   ,-1.0852  ,-2.5  ,4.8
1067  ,2.213e+04   ,-0.84195  ,-2.5  ,4.8
1068  ,9.264e+04   ,-0.60329  ,-2.5  ,4.8
1069  ,8.178e+04   ,-0.3643  ,-2.5  ,4.8
1070  ,4.728e+04   ,-0.12055  ,-2.5  ,4.8
1071  ,6.327e+04   ,0.12056  ,-2.5  ,4.8
1072  ,4.339e+04   ,0.3643  ,-2.5  ,4.8
1073  ,5.164e+04   ,0.6033  ,-2.5  ,4.8
1074  ,6.524e+04   ,0.84195  ,-2.5  ,4.8
1075  ,2.013e+05   ,1.0852  ,-2.5  ,4.8
1076  ,1.263e+05   ,1.3318  ,-2.5  ,4.8
1077  ,7.241e+04   ,1.5745  ,-2.5  ,4.8
1078  ,8.275e+05   ,1.8129  ,-2.5  ,4.8
1079  ,3.863e+05   ,2.053  ,-2.5  ,4.8
1080  ,3.783e+05   ,2.3  ,-2.5  ,4.553
1081  ,4.096e+05   ,2.3  ,-2.5  ,4.3129
1082  ,1.887e+05   ,2.3  ,-2.5  ,4.0745
1083  ,2.123e+05   ,2.3  ,-2.5  ,3.8318
1084  ,1.656e+05   ,2.3  ,-2.5  ,3.5852
1085  ,1.006e+05   ,2.3  ,-2.5  ,3.3419
1086  ,7.054e+04   ,2.3  ,-2.5  ,3.1033
1087  ,3.260e+04   ,2.3  ,-2.5  ,2.8643
1088  ,5.331e+04   ,2.3  ,-2.5  ,2.6206
1089  ,3.730e+04   ,2.3  ,-2.5  ,2.3794
1090  ,3.007e+04   ,2.3  ,-2.5  ,2.1357
1091  ,5.313e+04   ,2.3  ,-2.5  ,1.8967
1092  ,1.185e+04   ,2.3  ,-2.5  ,1.658
1093  ,2.845e+04   ,2.3  ,-2.5  ,1.4148
1094  ,2.148e+04   ,2.3  ,-2.5  ,1.1682
1095  ,1.718e+04   ,2.3  ,-2.5  ,0.92554
1096  ,7.065e+03   ,2.3  ,-2.5  ,0.68705
1097  ,4.565e+03   ,2.3  ,-2.5  ,0.44697
1098  ,6.707e+00   ,-2.053  ,-2.5  ,0.2
1099  ,6.635e+00   ,-1.8129  ,-2.5  ,0.2
1100  ,8.432e+00   ,-1.5745  ,-2.5  ,0.2
1101  ,9.816e+01   ,-1.3318  ,-2.5  ,0.2
1102  ,9.303e+01   ,-1.0852  ,-2.5  ,0.2
1103  ,4.157e+02   ,-0.84195  ,-2.5  ,0.2
1104  ,1.784e+03   ,-0.60329  ,-2.5  ,0.2
1105  ,1.177e+03   ,-0.3643  ,-2.5  ,0.2
1106  ,6.921e+02   ,-0.12055  ,-2.5  ,0.2
1107  ,6.796e+02   ,0.12056  ,-2.5  ,0.2
1108  ,7.079e+02   ,0.3643  ,-2.5  ,0.2
1109  ,6.958e+02   ,0.6033  ,-2.5  ,0.2
1110  ,1.430e+02   ,0.84195  ,-2.5  ,0.2
1111  ,4.334e+02   ,1.0852  ,-2.5  ,0.2
1112  ,1.300e+03   ,1.3318  ,-2.5  ,0.2
1113  ,1.474e+03   ,1.5745  ,-2.5  ,0.2
1114  ,5.619e+03   ,1.8129  ,-2.5  ,0.2
1115  ,3.508e+03   ,2.053  ,-2.5  ,0.2
1116  ,4.645e+03   ,-2.2  ,-2.5  ,4.9
1117  ,9.663e+03   ,-2  ,-2.5  ,4.9
1118  ,5.683e+03   ,-1.8  ,-2.5  ,4.9
1119  ,7.521e+03   ,-1.6  ,-2.5  ,4.9
1120  ,1.259e+04   ,-1.4  ,-2.5  ,4.9
1121  ,1.289e+04   ,-1.2  ,-2.5  ,4.9
1122  ,1.233e+04   ,-1  ,-2.5  ,4.9
1123  ,3.534e+04   ,-0.8  ,-2.5  ,4.9
1124  ,5.203e+04   ,-0.6  ,-2.5  ,4.9
1125  ,5.871e+04   ,-0.4  ,-2.5  ,4.9
1126  ,1.066e+05   ,-0.2  ,-2.5  ,4.9
1127  ,1.061e+05   ,-1.7664E-15  ,-2.5  ,4.9
1128  ,6.692e+04   ,0.2  ,-2.5  ,4.9
1129  ,4.170e+04   ,0.4  ,-2.5  ,4.9
1130  ,5.014e+04   ,0.6  ,-2.5  ,4.9
1131  ,6.209e+04   ,0.8  ,-2.5  ,4.9
1132  ,1.607e+05   ,1  ,-2.5  ,4.9
1133  ,1.196e+05   ,1.2  ,-2.5  ,4.9
1134  ,2.657e+05   ,1.4  ,-2.5  ,4.9
1135  ,3.348e+05   ,1.6  ,-2.5  ,4.9
1136  ,5.299e+05   ,1.8  ,-2.5  ,4.9
1137  ,4.623e+05   ,2  ,-2.5  ,4.9
1138  ,1.363e+05   ,2.2  ,-2.5  ,4.9
1139  ,2.285e+03   ,-2.4  ,-2.5  ,4.7
1140  ,9.430e+02   ,-2.4  ,-2.5  ,4.5
1141  ,1.209e+03   ,-2.4  ,-2.5  ,4.3
1142  ,6.262e+02   ,-2.4  ,-2.5  ,4.1
1143  ,4.086e+02   ,-2.4  ,-2.5  ,3.9
1144  ,4.232e+02   ,-2.4  ,-2.5  ,3.7
1145  ,2.303e+02   ,-2.4  ,-2.5  ,3.5
1146  ,1.265e+02   ,-2.4  ,-2.5  ,3.3
1147  ,4.995e+01   ,-2.4  ,-2.5  ,3.1
1148  ,5.409e+01   ,-2.4  ,-2.5  ,2.9
1149  ,3.003e+01   ,-2.4  ,-2.5  ,2.7
1150  ,1.938e+01   ,-2.4  ,-2.5  ,2.5
1151  ,1.639e+01   ,-2.4  ,-2.5  ,2.3
1152  ,2.289e+01   ,-2.4  ,-2.5  ,2.1
1153  ,1.099e+01   ,-2.4  ,-2.5  ,1.9
1154  ,1.097e+01   ,-2.4  ,-2.5  ,1.7
1155  ,2.831e+01   ,-2.4  ,-2.5  ,1.5
1156  ,1.555e+01   ,-2.4  ,-2.5  ,1.3
1157  ,1.980e+01   ,-2.4  ,-2.5  ,1.1
1158  ,1.139e+01   ,-2.4  ,-2.5  ,0.9
1159  ,1.739e+01   ,-2.4  ,-2.5  ,0.7
1160  ,3.962e+01   ,-2.4  ,-2.5  ,0.5
1161  ,7.801e+00   ,-2.4  ,-2.5  ,0.3
1162  ,7.593e+00   ,-2.2  ,-2.5  ,0.1
1163  ,2.569e+00   ,-2  ,-2.5  ,0.1
1164  ,2.758e+00   ,-1.8  ,-2.5  ,0.1
1165  ,1.099e+01   ,-1.6  ,-2.5  ,0.1
1166  ,4.116e+01   ,-1.4  ,-2.5  ,0.1
1167  ,6.839e+01   ,-1.2  ,-2.5  ,0.1
1168  ,1.963e+02   ,-1  ,-2.5  ,0.1
1169  ,5.657e+02   ,-0.8  ,-2.5  ,0.1
1170  ,9.257e+02   ,-0.6  ,-2.5  ,0.1
1171  ,7.376e+02   ,-0.4  ,-2.5  ,0.1
1172  ,1.314e+03   ,-0.2  ,-2.5  ,0.1
1173  ,1.023e+03   ,-1.7664E-15  ,-2.5  ,0.1
1174  ,7.242e+02   ,0.2  ,-2.5  ,0.1
1175  ,7.472e+02   ,0.4  ,-2.5  ,0.1
1176  ,4.014e+02   ,0.6  ,-2.5  ,0.1
1177  ,2.890e+02   ,0.8  ,-2.5  ,0.1
1178  ,2.426e+02   ,1  ,-2.5  ,0.1
1179  ,7.545e+02   ,1.2  ,-2.5  ,0.1
1180  ,1.140e+03   ,1.4  ,-2.5  ,0.1
1181  ,1.047e+03   ,1.6  ,-2.5  ,0.1
1182  ,2.923e+03   ,1.8  ,-2.5  ,0.1
1183  ,2.089e+03   ,2  ,-2.5  ,0.1
1184  ,2.853e+03   ,2.2  ,-2.5  ,0.1
1185  ,1.759e+05   ,2.4  ,-2.5  ,4.7
1186  ,4.638e+05   ,2.4  ,-2.5  ,4.5
1187  ,3.776e+05   ,2.4  ,-2.5  ,4.3
1188  ,2.085e+05   ,2.4  ,-2.5  ,4.1
1189  ,1.596e+05   ,2.4  ,-2.5  ,3.9
1190  ,1.092e+05   ,2.4  ,-2.5  ,3.7
1191  ,1.173e+05   ,2.4  ,-2.5  ,3.5
1192  ,1.090e+05   ,2.4  ,-2.5  ,3.3
1193  ,6.416e+04   ,2.4  ,-2.5  ,3.1
1194  ,3.913e+04   ,2.4  ,-2.5  ,2.9
1195  ,6.908e+04   ,2.4  ,-2.5  ,2.7
1196  ,8.490e+04   ,2.4  ,-2.5  ,2.5
1197  ,7.383e+04   ,2.4  ,-2.5  ,2.3
1198  ,4.056e+04   ,2.4  ,-2.5  ,2.1
1199  ,4.905e+04   ,2.4  ,-2.5  ,1.9
1200  ,3.078e+04   ,2.4  ,-2.5  ,1.7
1201  ,1.185e+04   ,2.4  ,-2.5  ,1.5
1202  ,1.345e+04   ,2.4  ,-2.5  ,1.3
1203  ,2.127e+04   ,2.4  ,-2.5  ,1.1
1204  ,1.142e+04   ,2.4  ,-2.5  ,0.9
1205  ,8.027e+03   ,2.4  ,-2.5  ,0.7
1206  ,4.387e+03   ,2.4  ,-2.5  ,0.5
1207  ,2.736e+03   ,2.4  ,-2.5  ,0.3
1208  ,1.004e+04   ,2.4  ,-2.2  ,0
1209  ,3.771e+04   ,2.4  ,-2  ,0
1210  ,6.383e+04   ,2.4  ,-1.8  ,0
1211  ,2.424e+05   ,2.4  ,-1.6  ,0
1212  ,3.267e+05   ,2.4  ,-1.4  ,0
1213  ,1.097e+06   ,2.4  ,-1.2  ,0
1214  ,8.853e+05   ,2.4  ,-1  ,0
1215  ,2.394e+06   ,2.4  ,-0.8  ,0
1216  ,4.328e+06   ,2.4  ,-0.6  ,0
1217  ,4.229e+06   ,2.4  ,-0.4  ,0
1218  ,7.447e+06   ,2.4  ,-0.2  ,0
1219  ,7.748e+06   ,2.4  ,-1.7664E-15  ,0
1220  ,6.917e+06   ,2.4  ,0.2  ,0
1221  ,8.423e+06   ,2.4  ,0.4  ,0
1222  ,1.637e+07   ,2.4  ,0.6  ,0
1223  ,2.324e+07   ,2.4  ,0.8  ,0
1224  ,1.970e+07   ,2.4  ,1  ,0
1225  ,1.644e+07   ,2.4  ,1.2  ,0
1226  ,1.154e+07   ,2.4  ,1.4  ,0
1227  ,6.482e+06   ,2.4  ,1.6  ,0
1228  ,5.399e+06   ,2.4  ,1.8  ,0
1229  ,4.363e+06   ,2.4  ,2  ,0
1230  ,7.215e+06   ,2.4  ,2.2  ,0
1231  ,4.036e+00   ,-2.2  ,-2.4  ,0
1232  ,3.957e+00   ,-2  ,-2.4  ,0
1233  ,7.146e+00   ,-1.8  ,-2.4  ,0
1234  ,2.238e+01   ,-1.6  ,-2.4  ,0
1235  ,4.845e+01   ,-1.4  ,-2.4  ,0
1236  ,2.778e+02   ,-1.2  ,-2.4  ,0
1237  ,4.049e+02   ,-1  ,-2.4  ,0
1238  ,9.162e+02   ,-0.8  ,-2.4  ,0
1239  ,1.176e+03   ,-0.6  ,-2.4  ,0
1240  ,1.421e+03   ,-0.4  ,-2.4  ,0
1241  ,1.649e+03   ,-0.2  ,-2.4  ,0
1242  ,2.083e+03   ,5.8879E-16  ,-2.4  ,0
1243  ,1.275e+03   ,0.2  ,-2.4  ,0
1244  ,7.623e+02   ,0.4  ,-2.4  ,0
1245  ,7.762e+02   ,0.6  ,-2.4  ,0
1246  ,3.823e+02   ,0.8  ,-2.4  ,0
1247  ,5.221e+02   ,1  ,-2.4  ,0
1248  ,1.400e+03   ,1.2  ,-2.4  ,0
1249  ,1.289e+03   ,1.4  ,-2.4  ,0
1250  ,1.841e+03   ,1.6  ,-2.4  ,0
1251  ,4.505e+03   ,1.8  ,-2.4  ,0
1252  ,2.359e+03   ,2  ,-2.4  ,0
1253  ,2.510e+03   ,2.2  ,-2.4  ,0
1254  ,1.135e+06   ,-2.4  ,2.2  ,0
1255  ,6.712e+05   ,-2.4  ,2  ,0
1256  ,2.198e+05   ,-2.4  ,1.8  ,0
1257  ,3.025e+05   ,-2.4  ,1.6  ,0
1258  ,1.854e+05   ,-2.4  ,1.4  ,0
1259  ,1.773e+05   ,-2.4  ,1.2  ,0
1260  ,1.098e+05   ,-2.4  ,1  ,0
1261  ,2.652e+05   ,-2.4  ,0.8  ,0
1262  ,1.389e+05   ,-2.4  ,0.6  ,0
1263  ,6.284e+04   ,-2.4  ,0.4  ,0
1264  ,6.882e+04   ,-2.4  ,0.2  ,0
1265  ,4.553e+04   ,-2.4  ,5.8879E-16  ,0
1266  ,7.755e+03   ,-2.4  ,-0.2  ,0
1267  ,4.470e+04   ,-2.4  ,-0.4  ,0
1268  ,9.492e+03   ,-2.4  ,-0.6  ,0
1269  ,1.246e+04   ,-2.4  ,-0.8  ,0
1270  ,5.879e+03   ,-2.4  ,-1  ,0
1271  ,4.835e+03   ,-2.4  ,-1.2  ,0
1272  ,1.499e+03   ,-2.4  ,-1.4  ,0
1273  ,6.497e+02   ,-2.4  ,-1.6  ,0
1274  ,2.295e+02   ,-2.4  ,-1.8  ,0
1275  ,1.513e+02   ,-2.4  ,-2  ,0
1276  ,1.848e+01   ,-2.4  ,-2.2  ,0
1277  ,5.275e+06   ,2.2  ,2.4  ,0
1278  ,3.992e+06   ,2  ,2.4  ,0
1279  ,5.175e+06   ,1.8  ,2.4  ,0
1280  ,7.011e+06   ,1.6  ,2.4  ,0
1281  ,7.578e+06   ,1.4  ,2.4  ,0
1282  ,1.311e+07   ,1.2  ,2.4  ,0
1283  ,1.615e+07   ,1  ,2.4  ,0
1284  ,2.042e+07   ,0.8  ,2.4  ,0
1285  ,2.145e+07   ,0.6  ,2.4  ,0
1286  ,1.164e+07   ,0.4  ,2.4  ,0
1287  ,5.846e+06   ,0.2  ,2.4  ,0
1288  ,5.849e+06   ,5.8879E-16  ,2.4  ,0
1289  ,5.715e+06   ,-0.2  ,2.4  ,0
1290  ,4.888e+06   ,-0.4  ,2.4  ,0
1291  ,5.190e+06   ,-0.6  ,2.4  ,0
1292  ,3.995e+06   ,-0.8  ,2.4  ,0
1293  ,3.938e+06   ,-1  ,2.4  ,0
1294  ,3.157e+06   ,-1.2  ,2.4  ,0
1295  ,1.600e+06   ,-1.4  ,2.4  ,0
1296  ,6.682e+05   ,-1.6  ,2.4  ,0
1297  ,1.077e+06   ,-1.8  ,2.4  ,0
1298  ,7.742e+05   ,-2  ,2.4  ,0
1299  ,5.575e+05   ,-2.2  ,2.4  ,0
1460  ,6.889e+09   ,2.3243  ,2.3243  ,4.9577
1461  ,6.347e+09   ,2.4577  ,2.3243  ,4.8243
1462  ,4.138e+09   ,2.3243  ,2.4577  ,4.8243
1463  ,6.273e+03   ,-2.3  ,-2.1759  ,4.8
1464  ,2.514e+05   ,-2.3  ,-1.7631  ,4.8
1465  ,8.123e+05   ,-2.3  ,-1.1827  ,4.8
1466  ,2.888e+06   ,-2.3  ,-0.34986  ,4.8
1467  ,3.992e+06   ,-2.3  ,0.80545  ,4.8
1468  ,8.241e+07   ,-0.81337  ,2.3  ,4.8
1469  ,8.848e+08   ,0.67326  ,2.3  ,4.8
1470  ,7.058e+05   ,2.3  ,-2.1824  ,4.8
1471  ,4.851e+06   ,2.3  ,-1.7784  ,4.8
1472  ,2.740e+07   ,2.3  ,-1.2138  ,4.8
1473  ,9.932e+07   ,2.3  ,-0.40752  ,4.8
1474  ,9.399e+08   ,2.3  ,0.70532  ,4.8
1516  ,7.741e+07   ,2.3  ,2.3  ,1.6866
1517  ,9.098e+08   ,2.3  ,2.3  ,3.1733
1518  ,6.242e+03   ,2.3  ,-2.1759  ,0.2
1519  ,2.106e+05   ,2.3  ,-1.7631  ,0.2
1520  ,8.512e+05   ,2.3  ,-1.1827  ,0.2
1521  ,3.599e+06   ,2.3  ,-0.34986  ,0.2
1522  ,5.145e+06   ,2.3  ,0.80545  ,0.2
1564  ,2.579e+06   ,-0.76667  ,2.3  ,0.2
1565  ,4.879e+06   ,0.76667  ,2.3  ,0.2
1566  ,6.270e+05   ,-2.3  ,2.3  ,1.7333
1567  ,4.484e+06   ,-2.3  ,2.3  ,3.2667
1574  ,3.820e+01   ,-2.3  ,-2.1759  ,0.2
1575  ,5.855e+02   ,-2.3  ,-1.7631  ,0.2
1576  ,4.506e+03   ,-2.3  ,-1.1827  ,0.2
1577  ,3.212e+04   ,-2.3  ,-0.34986  ,0.2
1578  ,3.250e+05   ,-2.3  ,0.80545  ,0.2
1777  ,9.912e+07   ,-0.52764  ,2.5  ,4.9
1801  ,4.219e+05   ,-2.3  ,1.5527  ,0.2
1825  ,1.003e+06   ,-1.5333  ,2.3  ,0.2
1841  ,4.004e+08   ,0.063638  ,2.5  ,4.9
1876  ,4.513e+06   ,-0.5  ,2.4  ,0
1894  ,6.538e+06   ,2.3  ,1.5527  ,0.2
1907  ,3.788e+06   ,2.1  ,2.5  ,0.1
1928  ,4.827e+06   ,1.9  ,2.4  ,0
1974  ,1.865e+07   ,2.4  ,1.1  ,0
1981  ,1.159e+07   ,2.4  ,2.5  ,0.59273
1987  ,9.529e+06   ,-2.5  ,2.4  ,4
2004  ,4.596e+06   ,-2.4  ,2.5  ,4.6
2009  ,1.384e+07   ,2.4  ,1.3  ,0
2020  ,9.447e+06   ,2.5  ,1.1  ,0.1
2035  ,1.157e+04   ,-2.3  ,-0.76628  ,0.2
2070  ,1.693e+09   ,1.6404  ,2.4  ,5
2081  ,7.395e+07   ,2.4  ,2.5  ,1.9724
2095  ,2.307e+07   ,2.4  ,2.5  ,0.78982
2138  ,2.490e+04   ,-2.4  ,-0.1  ,0
2146  ,8.703e+07   ,-0.92182  ,2.4  ,5
2174  ,2.284e+07   ,2.4  ,2.5  ,1.184
2190  ,2.941e+07   ,2.5  ,2.4  ,0.98691
2203  ,2.123e+08   ,2.5  ,-0.13345  ,4.9
2232  ,2.896e+08   ,2.3  ,0.1489  ,4.8
2242  ,4.372e+08   ,2.4  ,2.5  ,2.9578
2293  ,8.498e+04   ,-2.5  ,0.5  ,0.1
2311  ,1.428e+08   ,2.3  ,2.3  ,2.4299
2313  ,2.074e+07   ,2.5  ,2.4  ,0.78982
2329  ,6.916e+07   ,2.4  ,2.5  ,2.1695
2355  ,5.765e+06   ,-2.4  ,2.5  ,4.4
2380  ,8.338e+02   ,-2.5  ,-1.5  ,0.1
2383  ,5.412e+08   ,0.45782  ,2.5  ,4.9
2408  ,4.067e+06   ,2.3  ,-1.4961  ,4.8
2445  ,1.019e+07   ,2.5  ,-1.5131  ,4.9
2484  ,3.478e+01   ,-2.5  ,-2.4  ,1.6
2495  ,2.927e+06   ,-2.4  ,1.7  ,5
2508  ,6.445e+06   ,2.4  ,0.3  ,0
2514  ,5.926e+06   ,2.3  ,0.2278  ,0.2
2570  ,3.697e+06   ,-2.4  ,1.5  ,5
2580  ,1.785e+09   ,1.6404  ,2.5  ,4.9
2603  ,2.162e+07   ,-1.1189  ,2.5  ,4.9
2695  ,8.512e+06   ,2.3  ,2.3  ,0.94331
2705  ,1.284e+07   ,2.4  ,2.5  ,1.3811
2714  ,5.175e+08   ,2.5  ,0.45782  ,4.9
2734  ,1.178e+06   ,2.4  ,-0.9  ,0
2775  ,6.216e+06   ,2.5  ,-0.1  ,0.1
2779  ,7.144e+06   ,2.4  ,-0.1  ,0
2801  ,3.043e+09   ,1.4166  ,2.3  ,4.8
2814  ,1.276e+09   ,1.4433  ,2.5  ,4.9
2863  ,1.528e+06   ,-2.4  ,2.5  ,0.6
2884  ,8.232e+05   ,-2.4  ,2.5  ,0.8
2886  ,1.420e+06   ,-2.4  ,2.5  ,1.2
2967  ,4.208e+06   ,2.4  ,1.7  ,0
2973  ,1.221e+07   ,2.5  ,1.5  ,0.1
2987  ,3.669e+06   ,-0.3  ,2.5  ,0.1
3008  ,1.207e+06   ,-2.3  ,2.3  ,0.96667
3012  ,3.409e+06   ,-2.5  ,2.4  ,2.6
3021  ,6.471e+06   ,-2.5  ,2.4  ,2.8
3025  ,3.462e+06   ,-2.5  ,2.4  ,2.4
3030  ,4.979e+06   ,-2.4  ,2.5  ,2.4
3033  ,4.373e+06   ,-2.4  ,2.5  ,2.2
3047  ,2.580e+08   ,2.4  ,2.5  ,2.3665
3052  ,3.939e+08   ,2.5  ,2.4  ,2.5636
3061  ,4.025e+08   ,2.4  ,2.5  ,2.5636
3081  ,4.183e+06   ,-2.4  ,1.3  ,5
3088  ,6.707e+06   ,-1.9073  ,2.4  ,5
3099  ,1.892e+06   ,-2.4  ,1.9  ,5
3107  ,9.115e+06   ,-2.4  ,2.5  ,3.8
3139  ,2.685e+07   ,-1.5131  ,2.4  ,5
3145  ,2.415e+07   ,-1.5131  ,2.5  ,4.9
3148  ,1.270e+07   ,-1.7102  ,2.5  ,4.9
3168  ,2.492e+05   ,-2.4  ,1.5  ,0
3188  ,2.520e+01   ,-2.5  ,-2.4  ,1
3202  ,3.664e+08   ,0.26073  ,2.5  ,4.9
3212  ,1.875e+09   ,2.5  ,1.6404  ,4.9
3247  ,3.438e+09   ,2.5  ,1.8375  ,4.9
3265  ,3.173e+09   ,2.3  ,1.4326  ,4.8
3271  ,6.316e+09   ,2.2299  ,2.2299  ,4.8
3284  ,1.284e+09   ,2.4  ,1.4433  ,5
3291  ,1.197e+09   ,2.5  ,1.4433  ,4.9
3296  ,9.204e+05   ,-2.3  ,-0.76628  ,4.8
3303  ,4.539e+05   ,-2.4  ,-0.9  ,5
3311  ,1.590e+06   ,-2.4  ,-0.7  ,5
3315  ,5.293e+06   ,1.9  ,2.5  ,0.1
3336  ,7.267e+04   ,-2.4  ,0.3  ,0
3340  ,6.114e+04   ,-2.5  ,0.1  ,0.1
3344  ,5.819e+04   ,-2.4  ,0.1  ,0
3356  ,5.706e+06   ,-0.3  ,2.4  ,0
3361  ,6.231e+07   ,-0.33054  ,2.5  ,4.9
3364  ,2.433e+08   ,-0.13345  ,2.5  ,4.9
3383  ,4.497e+08   ,2.4  ,2.5  ,3.5491
3402  ,4.742e+09   ,2.4  ,2.5  ,4.5345
3421  ,2.614e+07   ,-1.316  ,2.5  ,4.9
3439  ,1.111e+09   ,2.5  ,2.4  ,3.9433
3447  ,1.163e+09   ,2.4  ,2.5  ,3.9433
3451  ,9.020e+08   ,2.4  ,2.5  ,3.7462
3468  ,1.316e+09   ,1.4433  ,2.4  ,5
3480  ,3.500e+08   ,1.0491  ,2.4  ,5
3519  ,7.240e+06   ,1.5  ,2.4  ,0
3527  ,4.293e+05   ,2.3  ,-1.4729  ,0.2
3550  ,9.743e+05   ,-1.7  ,2.4  ,0
3554  ,9.601e+05   ,-1.7  ,2.5  ,0.1
3558  ,1.259e+06   ,-1.5  ,2.4  ,0
3562  ,2.077e+06   ,-1.5  ,2.5  ,0.1
3574  ,2.266e+06   ,-2.4  ,2.1  ,5
3581  ,2.715e+05   ,-2.5  ,1.7  ,0.1
3583  ,3.432e+05   ,-2.5  ,1.9  ,0.1
3584  ,4.049e+06   ,-1.9073  ,2.5  ,4.9
3591  ,8.947e+06   ,2.5  ,0.3  ,0.1
3595  ,1.022e+07   ,2.5  ,0.1  ,0.1
3603  ,1.035e+10   ,2.4577  ,2.391  ,4.7576
3663  ,5.992e+00   ,-1.933  ,-2.5  ,0.2
3669  ,7.352e+00   ,-2.1765  ,-2.5  ,0.2
3672  ,1.213e+01   ,-2.3  ,-2.3379  ,0.2
3682  ,5.087e+00   ,-1.9  ,-2.4  ,0
3700  ,6.930e+04   ,2.3  ,-2.5  ,2.7424
3712  ,4.842e+03   ,-2.1  ,-2.5  ,4.9
3715  ,4.876e+03   ,-1.9  ,-2.5  ,4.9
3740  ,1.477e+04   ,-1.3  ,-2.4  ,5
3746  ,1.913e+04   ,-1.2085  ,-2.5  ,4.8
3755  ,1.248e+04   ,-1.5  ,-2.4  ,5
3760  ,6.507e+03   ,-1.7  ,-2.5  ,4.9
3786  ,1.051e+08   ,2.4  ,2.5  ,1.5782
3813  ,3.907e+08   ,0.26073  ,2.4  ,5
3858  ,2.555e+04   ,-0.9  ,-2.4  ,5
3863  ,2.739e+06   ,-2.5  ,0.9  ,4.9
3875  ,5.204e+03   ,-1.9  ,-2.4  ,5
3885  ,4.602e+07   ,2.4  ,-0.72473  ,5
3910  ,1.321e+02   ,-2.4  ,-2.5  ,3.4
3959  ,2.056e+09   ,2.5  ,2.4  ,4.1404
3969  ,2.866e+08   ,2.5  ,1.0491  ,4.9
3992  ,1.245e+10   ,2.391  ,2.2576  ,4.9577
3993  ,1.103e+10   ,2.4577  ,2.2576  ,4.891
4016  ,2.444e+06   ,-2.3015  ,2.5  ,4.9
4018  ,2.596e+06   ,-2.4  ,2.5  ,4.8
4021  ,6.563e+08   ,1.2462  ,2.4  ,5
4042  ,1.134e+06   ,2.4  ,-1.1  ,0
4046  ,3.658e+06   ,-0.9  ,2.4  ,0
4055  ,4.595e+05   ,1.7  ,-2.5  ,4.9
4087  ,6.851e+06   ,1.7  ,2.4  ,0
4114  ,1.303e+08   ,2.5  ,-0.33054  ,4.9
4120  ,3.187e+04   ,2.4  ,-2.5  ,1.8
4125  ,2.980e+07   ,2.4  ,2.5  ,0.98691
4144  ,2.943e+09   ,2.4  ,2.5  ,4.3375
4161  ,3.125e+06   ,-2.4  ,0.3  ,5
4201  ,5.762e+03   ,1.933  ,-2.5  ,0.2
4225  ,3.756e+00   ,-2.3  ,-2.4  ,0
4230  ,4.662e+01   ,-2.3  ,-2.5  ,0.56701
4269  ,1.723e+04   ,-0.9  ,-2.5  ,4.9
4277  ,1.433e+04   ,-1.1  ,-2.4  ,5
4288  ,1.405e+08   ,-0.070055  ,2.3  ,4.8
4328  ,1.469e+03   ,-2.5  ,-2.4  ,4.2
4336  ,1.584e+03   ,-2.5  ,-2.4  ,4.4
4342  ,2.294e+03   ,-2.5  ,-2.4  ,4.6
4348  ,1.612e+03   ,-2.4  ,-2.4707  ,4.9707
4352  ,2.248e+03   ,-2.3  ,-2.5  ,4.9
4354  ,3.133e+03   ,-2.1765  ,-2.5  ,4.8
4355  ,7.050e+03   ,-2.3  ,-2.3379  ,4.8
4362  ,8.618e+06   ,2.5  ,2.4  ,0.59273
4364  ,1.133e+05   ,2.5  ,-2.4  ,2.4
4366  ,8.056e+04   ,2.5  ,-2.4  ,2.2
4372  ,8.144e+04   ,2.4  ,-2.5  ,2.2
4385  ,2.610e+02   ,-2.5  ,-1.9  ,0.1
4399  ,1.027e+06   ,-2.5  ,2.1  ,0.1
4407  ,7.251e+02   ,-0.7  ,-2.4  ,0
4436  ,2.873e+04   ,-2.5  ,-0.1  ,0.1
4462  ,5.974e+06   ,-2.3  ,2.3  ,4.0333
4491  ,1.910e+08   ,2.5  ,-0.52764  ,4.9
4494  ,2.128e+04   ,2.5  ,-2.4  ,1.4
4503  ,1.441e+04   ,2.4  ,-2.5  ,1.4
4508  ,2.112e+04   ,2.4  ,-2.5  ,1.2
4515  ,5.645e+04   ,2.5  ,-2.4  ,1.8
4517  ,1.197e+04   ,2.4  ,-2.5  ,1.6
4522  ,6.031e+02   ,0.7  ,-2.4  ,0
4538  ,1.194e+07   ,-1.1189  ,2.4  ,5
4546  ,1.791e+09   ,2.4  ,2.5  ,4.1404
4559  ,3.456e+03   ,1.7  ,-2.4  ,0
4590  ,5.122e+02   ,0.5  ,-2.4  ,0
4631  ,8.186e+04   ,2.4  ,-2.5  ,2.6
4634  ,9.867e+04   ,2.5  ,-2.4  ,2.8
4657  ,4.728e+01   ,-2.5  ,-2.4  ,2
4660  ,3.255e+01   ,-2.5  ,-2.4  ,1.8
4664  ,1.348e+03   ,-0.3  ,-2.4  ,0
4675  ,1.541e+03   ,-2.4  ,-2.5  ,4.8
4681  ,3.512e+04   ,-2.5  ,-0.3  ,0.1
4684  ,5.574e+05   ,1.7  ,-2.4  ,5
4703  ,4.857e+06   ,-2.4  ,0.7  ,5
4707  ,1.416e+06   ,-2.5  ,0.3  ,4.9
4714  ,1.499e+08   ,2.4  ,-0.33054  ,5
4723  ,9.527e+06   ,-1.5567  ,2.3  ,4.8
4739  ,1.990e+06   ,-2.1044  ,2.5  ,4.9
4763  ,1.048e+06   ,-1.9  ,2.4  ,0
4780  ,1.241e+02   ,-2.3  ,-1.9695  ,0.2
4782  ,3.874e+00   ,-2.4707  ,-2.4  ,0.029289
4784  ,2.304e+02   ,-2.4  ,-1.9  ,0
4791  ,1.123e+01   ,-2.4  ,-2.5  ,1.8
4796  ,8.158e+04   ,2.4707  ,-2.4707  ,4.9
4799  ,7.490e+04   ,2.5  ,-2.4  ,4.8
4806  ,1.615e+05   ,2.3  ,-2.5  ,4.9
4809  ,3.176e+09   ,2.3  ,2.3  ,3.9166
4833  ,1.493e+06   ,-2.4  ,2.5  ,0.4
4841  ,4.121e+06   ,-2.4  ,2.5  ,2.6
4846  ,3.059e+06   ,-2.5  ,2.1  ,4.9
4848  ,3.201e+06   ,-2.5  ,2.3  ,4.9
4849  ,3.971e+06   ,-2.5  ,2.4  ,4.8
4893  ,6.682e+06   ,-2.4  ,2.5  ,4.2
4897  ,5.180e+09   ,2.3333  ,2.1998  ,5
4900  ,9.701e+09   ,2.391  ,2.4577  ,4.7576
4908  ,1.028e+10   ,2.2576  ,2.391  ,4.9577
4911  ,9.837e+09   ,2.2576  ,2.4577  ,4.891
4926  ,5.411e+05   ,-2.5  ,2.4  ,1
4932  ,3.528e+06   ,-2.4  ,2.5  ,1.6
4937  ,3.108e+06   ,-1.1  ,2.5  ,0.1
4939  ,6.363e+09   ,2.3  ,2.2299  ,4.7299
4944  ,1.433e+06   ,2.5  ,-1.9073  ,4.9
4987  ,5.934e+06   ,-2.3  ,1.5527  ,4.8
5010  ,8.266e+09   ,2.4973  ,2.1331  ,4.923
5013  ,4.810e+09   ,2.5  ,2.0345  ,4.9
5017  ,4.758e+09   ,2.4  ,2.0345  ,5
5035  ,1.107e+03   ,1.3  ,-2.4  ,0
5038  ,4.740e+02   ,1.2085  ,-2.5  ,0.2
5092  ,2.421e+01   ,-2.4  ,-2.5  ,1.2
5123  ,8.319e+03   ,2.5  ,-2.4  ,0.6
5151  ,2.766e+04   ,-2.5  ,-0.5  ,0.1
5160  ,8.755e+03   ,-2.5  ,-0.7  ,0.1
5164  ,2.655e+06   ,-2.4  ,0.9  ,5
5168  ,3.998e+06   ,-2.4  ,0.5  ,5
5176  ,2.474e+06   ,2.5  ,-0.7  ,0.1
5179  ,3.873e+06   ,2.4  ,-0.5  ,0
5189  ,7.381e+04   ,2.4  ,-2.5  ,2.4
5194  ,3.243e+04   ,2.3  ,-2.5  ,2.2576
5198  ,6.702e+00   ,-2.3  ,-2.5  ,0.32348
5205  ,2.453e+00   ,-2.4  ,-2.5  ,0.2
5207  ,4.088e+00   ,-2.1  ,-2.5  ,0.1
5246  ,1.311e+07   ,-2.5  ,2.4  ,3.2
5257  ,3.631e+06   ,-2.5  ,1.5  ,4.9
5263  ,1.383e+05   ,-2.3  ,0.2278  ,0.2
5272  ,8.404e+04   ,-2.5  ,0.3  ,0.1
5275  ,1.782e+06   ,-2.5  ,0.5  ,4.9
5281  ,2.277e+09   ,1.8375  ,2.5  ,4.9
5297  ,4.335e+06   ,-0.9  ,2.5  ,0.1
5306  ,4.717e+06   ,-0.7  ,2.4  ,0
5309  ,4.638e+06   ,-0.5  ,2.5  ,0.1
5324  ,3.976e+08   ,2.4  ,2.5  ,2.7607
5332  ,1.639e+04   ,2.5  ,-2.4  ,0.8
5334  ,1.463e+04   ,2.4  ,-2.5  ,1
5360  ,4.186e+06   ,2.4  ,-1.7102  ,5
5362  ,1.128e+07   ,2.4  ,-1.5131  ,5
5368  ,3.263e+09   ,2.4  ,1.8375  ,5
5371  ,1.888e+10   ,2.4325  ,2.4888  ,4.6656
5372  ,5.206e+09   ,2.3333  ,2.5  ,4.6998
5376  ,4.000e+09   ,2.4707  ,2.4707  ,4.6331
5377  ,4.858e+09   ,2.5  ,2.4  ,4.5345
5379  ,1.003e+04   ,-1.5  ,-2.5  ,4.9
5406  ,1.974e+02   ,-2.5  ,-2.4  ,3.4
5420  ,1.044e+02   ,-2.3  ,-2.5  ,3.2226
5423  ,1.707e+03   ,1.5  ,-2.4  ,0
5502  ,8.520e+00   ,-2.5  ,-2.3  ,0.1
5504  ,8.341e+00   ,-2.5  ,-2.4  ,0.2
5506  ,3.332e+00   ,-2.4  ,-2.3  ,0
5511  ,2.465e+01   ,-2.5  ,-2.1  ,0.1
5513  ,8.021e+04   ,-2.4  ,0.5  ,0
5517  ,3.860e+02   ,-0.9  ,-2.5  ,0.1
5532  ,1.218e+06   ,-2.4707  ,2.4707  ,4.9
5534  ,3.582e+06   ,2.4  ,-0.7  ,0
5551  ,2.796e+05   ,2.5  ,-2.4  ,3.8
5566  ,2.621e+07   ,2.5  ,2.4  ,1.3811
5603  ,6.011e+06   ,2.4  ,-0.3  ,0
5617  ,1.217e+06   ,-2.1  ,2.5  ,0.1
5637  ,7.220e+04   ,-2.3  ,-1.9695  ,4.8
5641  ,1.624e+05   ,2.3  ,-2.5  ,3.4636
5645  ,1.519e+01   ,-2.4  ,-2.5  ,2
5649  ,2.683e+01   ,-2.4  ,-2.5  ,2.2
5659  ,1.660e+01   ,-2.3  ,-2.5  ,1.7774
5662  ,2.219e+05   ,2.1765  ,-2.5  ,4.8
5666  ,1.593e+05   ,2.4  ,-2.5  ,4.8
5669  ,2.520e+05   ,2.3  ,-2.3412  ,4.8
5695  ,2.507e+05   ,-2.4  ,0.7  ,0
5701  ,2.440e+06   ,-2.5  ,2.4  ,1.6
5715  ,3.755e+06   ,-2.4  ,2.5  ,1.8
5726  ,5.723e+06   ,-0.7  ,2.5  ,0.1
5727  ,3.987e+06   ,-1.1  ,2.4  ,0
5730  ,1.028e+04   ,2.3  ,-2.5  ,1.7774
5746  ,1.421e+08   ,2.5  ,2.4  ,1.7753
5755  ,3.962e+05   ,2.5  ,-2.4  ,4.4
5763  ,4.612e+05   ,2.4  ,-2.5  ,4.4
5773  ,3.567e+08   ,1.0491  ,2.5  ,4.9
5791  ,1.320e+08   ,-0.72473  ,2.4  ,5
5795  ,2.718e+09   ,1.8375  ,2.4  ,5
5803  ,1.076e+05   ,-0.3  ,-2.4  ,5
5810  ,1.839e+09   ,2.4  ,1.6404  ,5
5836  ,2.917e+06   ,-2.5  ,1.3  ,4.9
5860  ,2.356e+04   ,2.5  ,-2.4  ,1.6
5866  ,9.583e+02   ,1.5  ,-2.5  ,0.1
5884  ,1.923e+06   ,-2.4  ,-0.3  ,5
5888  ,3.010e+06   ,-2.5  ,-0.5  ,4.9
5901  ,2.779e+04   ,2.3  ,-2.5  ,2.5
5908  ,3.613e+04   ,2.5  ,-2.4  ,1.2
5909  ,6.607e+04   ,2.5  ,-2.4  ,2
5934  ,5.808e+05   ,1.9  ,-2.5  ,4.9
5938  ,9.125e+05   ,1.933  ,-2.5  ,4.8
5948  ,1.326e+03   ,-2.4  ,-2.5  ,4.6
5950  ,2.353e+03   ,-2.4707  ,-2.4707  ,4.9
5951  ,3.563e+03   ,-2.5  ,-2.4  ,4.8
5952  ,7.632e+03   ,-2.5  ,-2.3  ,4.9
5986  ,1.032e+05   ,2.3  ,-2.5  ,3.7085
5990  ,8.873e+07   ,-0.92182  ,2.5  ,4.9
6019  ,7.499e+06   ,2.5  ,1.9  ,0.1
6025  ,7.136e+05   ,2.4  ,-1.3  ,0
6035  ,4.179e+06   ,-2.5  ,1.9  ,4.9
6044  ,7.614e+06   ,0.1  ,2.5  ,0.1
6054  ,7.177e+06   ,2.4  ,0.1  ,0
6070  ,8.085e+05   ,-2.4  ,2.3  ,0
6071  ,5.897e+05   ,-2.3  ,2.4  ,0
6076  ,8.738e+05   ,-2.4  ,2.1  ,0
6083  ,2.439e+03   ,2.1  ,-2.4  ,0
6084  ,5.344e+06   ,2.4  ,2.3  ,0
6087  ,3.782e+06   ,2.3  ,2.4  ,0
6092  ,1.052e+01   ,-2.4  ,-2.5  ,0.4
6096  ,3.874e+00   ,-2.3  ,-2.5  ,0.1
6099  ,3.558e+02   ,0.7  ,-2.5  ,0.1
6149  ,1.158e+04   ,-2.4  ,-0.9  ,0
6159  ,3.336e+01   ,-2.5  ,-2.4  ,2.6
6183  ,7.101e+08   ,1.2462  ,2.5  ,4.9
6224  ,1.250e+05   ,2.5  ,-2.4  ,4
6228  ,1.163e+05   ,2.4  ,-2.5  ,3.8
6237  ,2.169e+07   ,2.5  ,0.7  ,0.1
6241  ,5.344e+09   ,2.5  ,2.3333  ,4.6998
6245  ,9.361e+07   ,2.5  ,2.4  ,1.5782
6259  ,8.079e+05   ,2.5  ,-2.1044  ,4.9
6265  ,1.012e+06   ,2.3  ,-1.9804  ,4.8
6267  ,1.752e+05   ,2.5  ,-2.3015  ,4.9
6268  ,1.064e+05   ,2.4707  ,-2.4  ,4.9707
6270  ,5.965e+05   ,2.4  ,-2.1044  ,5
6317  ,3.946e+06   ,-2.3  ,0.2278  ,4.8
6349  ,8.621e+07   ,-0.52764  ,2.4  ,5
6391  ,1.487e+08   ,2.4  ,2.5  ,1.7753
6440  ,1.147e+07   ,-2.5  ,2.4  ,3.8
6471  ,4.422e+07   ,2.5  ,-0.92182  ,4.9
6489  ,1.006e+09   ,2.5  ,1.2462  ,4.9
6523  ,2.324e+02   ,-1.1  ,-2.4  ,0
6528  ,6.401e+01   ,-1.1  ,-2.5  ,0.1
6535  ,6.465e+02   ,-0.9  ,-2.4  ,0
6538  ,4.172e+05   ,1.5  ,-2.4  ,5
6541  ,2.829e+05   ,1.5  ,-2.5  ,4.9
6551  ,5.882e+07   ,2.5  ,-0.72473  ,4.9
6564  ,7.825e+09   ,2.1331  ,2.4973  ,4.923
6565  ,5.160e+09   ,2.0345  ,2.5  ,4.9
6572  ,1.219e+05   ,2.4  ,-1.7  ,0
6581  ,4.672e+06   ,0  ,2.3  ,0.2
6592  ,5.410e+04   ,2.3  ,-1.9695  ,0.2
6594  ,8.835e+06   ,0.3  ,2.4  ,0
6601  ,9.322e+06   ,0.5  ,2.5  ,0.1
6605  ,3.804e+03   ,-2.4  ,-1.3  ,0
6606  ,3.194e+03   ,-2.4  ,-1.1  ,0
6615  ,3.965e+04   ,-2.4  ,-0.3  ,0
6634  ,1.091e+05   ,2.1  ,-2.5  ,4.9
6635  ,6.923e+04   ,2.4  ,-2.4707  ,4.9707
6636  ,7.400e+04   ,2.3  ,-2.4  ,5
6647  ,4.860e+02   ,0.5  ,-2.5  ,0.1
6704  ,3.249e+05   ,-2.4707  ,2.4707  ,0.1
6708  ,4.604e+05   ,-2.5  ,2.4  ,0.2
6712  ,6.475e+06   ,-2.4  ,2.5  ,3.6
6715  ,7.468e+06   ,-2.4  ,2.5  ,3.4
6728  ,2.619e+06   ,-2.5  ,0.7  ,4.9
6753  ,5.236e+06   ,-2.1044  ,2.4  ,5
6788  ,2.928e+09   ,2.5  ,2.4  ,4.3375
6791  ,1.286e+04   ,-1.933  ,-2.5  ,4.8
6795  ,5.114e+09   ,2.1998  ,2.5  ,4.8333
6837  ,1.378e+01   ,-2.3  ,-2.5  ,0.8063
6869  ,4.886e+06   ,2.5  ,-1.7102  ,4.9
6873  ,1.598e+06   ,2.4  ,-1.9073  ,5
6880  ,4.299e+07   ,2.4  ,-0.92182  ,5
6885  ,2.002e+08   ,2.4  ,-0.52764  ,5
6893  ,9.711e+08   ,2.4  ,1.2462  ,5
6914  ,1.844e+07   ,0.7  ,2.5  ,0.1
6920  ,1.801e+07   ,0.9  ,2.4  ,0
6923  ,2.120e+07   ,0.7  ,2.4  ,0
6936  ,9.231e+04   ,2.4  ,-2.5  ,3.4
6939  ,9.023e+04   ,2.3  ,-2.5  ,3.2226
6961  ,1.060e+05   ,-0.1  ,-2.5  ,4.9
6967  ,2.687e+05   ,-2.5  ,-1.5  ,4.9
6975  ,2.621e+06   ,-2.4  ,1.1  ,5
6978  ,8.223e+05   ,-2.4  ,2.5  ,0.2
6987  ,7.877e+06   ,2.4  ,-1.316  ,5
6994  ,2.121e+05   ,2.4  ,-1.5  ,0
7004  ,9.950e+04   ,2.4  ,-2.5  ,3.6
7011  ,7.417e+08   ,2.4  ,0.65491  ,5
7016  ,4.892e+08   ,2.4  ,0.45782  ,5
7019  ,5.969e+07   ,2.5  ,2.4  ,2.1695
7021  ,8.611e+07   ,2.5  ,2.4  ,1.9724
7052  ,2.296e+06   ,-1.3  ,2.5  ,0.1
7054  ,8.390e+00   ,-2.4  ,-2.5  ,0.8
7057  ,7.258e+02   ,0.3  ,-2.5  ,0.1
7065  ,3.109e+02   ,0.24243  ,-2.5  ,0.2
7075  ,1.875e+10   ,2.4888  ,2.4325  ,4.6656
7113  ,2.202e+01   ,-2.4  ,-2.5  ,2.6
7121  ,3.921e+01   ,-2.4  ,-2.5  ,2.8
7126  ,1.084e+02   ,-2.5  ,-2.4  ,2.8
7128  ,9.389e-01   ,-2.4707  ,-2.4707  ,0.1
7129  ,2.040e+00   ,-2.4  ,-2.4707  ,0.029289
7141  ,7.918e+03   ,-1.7  ,-2.4  ,5
7145  ,1.474e+07   ,1.1  ,2.4  ,0
7163  ,1.459e+07   ,-1.7102  ,2.4  ,5
7172  ,1.539e+05   ,2.5  ,-2.4  ,3.2
7174  ,1.201e+07   ,-2.5  ,2.4  ,3.6
7183  ,1.620e+04   ,-1.4531  ,-2.5  ,4.8
7204  ,3.333e+07   ,2.3  ,-0.81068  ,4.8
7220  ,4.972e+08   ,2.5  ,0.063638  ,4.9
7227  ,1.017e+05   ,2.5  ,-1.9  ,0.1
7256  ,1.268e+05   ,-0.1  ,-2.4  ,5
7280  ,6.618e+07   ,-0.33054  ,2.4  ,5
7299  ,4.013e+07   ,2.5  ,-1.1189  ,4.9
7316  ,2.136e+01   ,-2.5  ,-2.4  ,0.8
7323  ,1.463e+01   ,-2.4  ,-2.5  ,1
7396  ,1.922e+05   ,1.1  ,-2.4  ,5
7400  ,2.187e+05   ,-2.5  ,0.7  ,0.1
7409  ,2.731e+05   ,1.3  ,-2.4  ,5
7420  ,6.627e+06   ,2.5  ,2.1  ,0.1
7429  ,4.651e+06   ,2.4  ,1.9  ,0
7436  ,1.181e+05   ,2.5  ,-1.7  ,0.1
7438  ,5.049e+04   ,2.4  ,-2.5  ,2.8
7445  ,1.677e+10   ,2.4325  ,2.1656  ,4.9888
7464  ,4.342e+05   ,2.5  ,-1.5  ,0.1
7480  ,5.680e+03   ,2.5  ,-2.4  ,0.2
7482  ,2.430e+03   ,1.9  ,-2.5  ,0.1
7483  ,2.533e+03   ,1.7  ,-2.5  ,0.1
7486  ,5.756e+05   ,1.9  ,-2.4  ,5
7488  ,3.146e+05   ,1.6937  ,-2.5  ,4.8
7492  ,2.513e+05   ,2.1  ,-2.4  ,5
7495  ,8.847e+02   ,0.1  ,-2.5  ,0.1
7504  ,1.139e+03   ,0.3  ,-2.4  ,0
7507  ,2.067e+02   ,0.9  ,-2.5  ,0.1
7533  ,2.064e+05   ,-2.5  ,0.9  ,0.1
7536  ,1.101e+02   ,-2.4  ,-2.5  ,3.2
7540  ,5.323e+01   ,-2.4  ,-2.5  ,3
7545  ,1.075e+02   ,-2.5  ,-2.4  ,3
7582  ,7.812e+06   ,1.3  ,2.5  ,0.1
7588  ,2.322e+08   ,2.5  ,2.4  ,2.3665
7598  ,6.624e+06   ,-2.5  ,2.4  ,4.2
7607  ,4.797e+06   ,1.5333  ,2.3  ,0.2
7627  ,2.737e+06   ,-2.5  ,1.1  ,4.9
7651  ,8.224e+04   ,2.4  ,-1.9  ,0
7656  ,5.967e+06   ,2.5  ,2.4  ,0.39564
7660  ,6.202e+09   ,2.2299  ,2.3  ,4.7299
7668  ,4.126e+04   ,1.4531  ,-2.5  ,4.8
7676  ,9.146e+04   ,0.1  ,-2.5  ,4.9
7683  ,1.221e+05   ,0.1  ,-2.4  ,5
7686  ,9.777e+05   ,-2.4  ,-1.1  ,5
7702  ,1.628e+03   ,-2.3  ,-2.5  ,4.433
7710  ,1.940e+03   ,-2.3  ,-2.5  ,4.6765
7752  ,1.505e+05   ,0.9  ,-2.4  ,5
7763  ,7.793e+04   ,0.24243  ,-2.5  ,4.8
7767  ,2.085e+02   ,-2.5  ,-2.4  ,3.2
7768  ,4.351e+01   ,-2.4  ,-2.1  ,0
7776  ,2.231e+05   ,-2.4  ,0.9  ,0
7786  ,1.165e+05   ,-0.4838  ,-2.5  ,4.8
7800  ,2.083e+05   ,2.5  ,-2.4  ,4.6
7805  ,3.809e+05   ,-2.5  ,-1.3  ,4.9
7811  ,6.065e+05   ,-2.5  ,-1.1  ,4.9
7820  ,2.029e+04   ,2.5  ,-2.1  ,0.1
7824  ,5.967e+03   ,2.4  ,-2.1  ,0
7828  ,2.582e+05   ,2.4  ,-2.5  ,4.2
7831  ,1.377e+05   ,2.4  ,-2.5  ,4
7838  ,2.704e+05   ,2.5  ,-2.4  ,4.2
7839  ,3.586e+08   ,2.5  ,2.4  ,2.7607
7840  ,5.478e+08   ,2.5  ,2.4  ,2.9578
7863  ,9.804e+02   ,-2.4  ,-1.5  ,0
7890  ,1.962e+07   ,2.4  ,0.9  ,0
7897  ,1.171e+04   ,-2.4  ,-0.7  ,0
7912  ,1.944e+01   ,-1.5  ,-2.4  ,0
7917  ,4.146e+01   ,-1.3  ,-2.5  ,0.1
7931  ,1.705e+07   ,0.5  ,2.4  ,0
7934  ,6.656e+02   ,1.1  ,-2.4  ,0
7937  ,1.306e+04   ,2.4  ,-2.5  ,0.8
7941  ,2.073e+01   ,-2.4  ,-2.5  ,0.6
7969  ,9.425e+05   ,-2.5  ,2.3  ,0.1
7971  ,3.985e+05   ,-2.4  ,1.9  ,0
7972  ,9.628e+05   ,-1.9  ,2.5  ,0.1
7978  ,1.331e+05   ,-2.4  ,1.1  ,0
7996  ,3.736e+06   ,-2.4  ,-0.5  ,5
8000  ,2.330e+01   ,-2.5  ,-2.4  ,0.6
8003  ,1.178e+01   ,-2.5  ,-2.4  ,0.4
8025  ,7.781e+06   ,0.9  ,2.5  ,0.1
8035  ,7.749e+06   ,0.3  ,2.5  ,0.1
8039  ,4.547e+03   ,2.3  ,-2.5  ,0.32348
8041  ,2.822e+03   ,2.3  ,-2.3379  ,0.2
8043  ,1.358e+03   ,2.1765  ,-2.5  ,0.2
8045  ,1.293e+02   ,-0.96359  ,-2.5  ,0.2
8054  ,1.039e+07   ,1.3  ,2.4  ,0
8058  ,6.748e+06   ,1.1  ,2.5  ,0.1
8062  ,2.313e+06   ,-2.5  ,2.4  ,1.4
8067  ,5.966e+05   ,-2.5  ,2.4  ,0.8
8087  ,1.599e+05   ,-2.5  ,1.5  ,0.1
8132  ,2.246e+08   ,-0.13345  ,2.4  ,5
8183  ,1.863e+06   ,2.5  ,-0.9  ,0.1
8184  ,3.188e+03   ,1.6937  ,-2.5  ,0.2
8214  ,3.323e+03   ,-2.4707  ,-2.4  ,4.9707
8217  ,5.175e+03   ,-2.1  ,-2.4  ,5
8219  ,1.426e+03   ,-2.4  ,-2.5  ,4.4
8227  ,8.224e+08   ,2.5  ,2.4  ,3.1549
8242  ,4.530e+04   ,0.7  ,-2.5  ,4.9
8248  ,1.495e+05   ,2.5  ,-2.4  ,3.6
8254  ,5.132e+06   ,2.5  ,-0.3  ,0.1
8256  ,4.982e+06   ,2.5  ,-0.5  ,0.1
8258  ,1.030e+05   ,-0.3  ,-2.5  ,4.9
8263  ,6.407e+04   ,-0.5  ,-2.5  ,4.9
8268  ,4.819e+02   ,-2.3  ,-2.5  ,3.7085
8277  ,1.084e+03   ,-0.1  ,-2.5  ,0.1
8285  ,1.495e+05   ,1.1  ,-2.5  ,4.9
8307  ,5.176e+06   ,0.1  ,2.4  ,0
8308  ,2.704e+06   ,-0.1  ,2.5  ,0.1
8309  ,4.605e+06   ,-0.1  ,2.4  ,0
8313  ,3.791e+03   ,2.5  ,-2.3  ,0.1
8318  ,2.529e+04   ,2.5  ,-2.4  ,3
8338  ,5.667e+08   ,2.5  ,2.4  ,3.352
8339  ,8.184e+08   ,2.4  ,2.5  ,3.1549
8344  ,1.252e+07   ,-2.5  ,2.4  ,3.4
8357  ,1.574e+10   ,2.4888  ,2.1656  ,4.9325
8358  ,4.795e+09   ,2.5  ,2.1998  ,4.8333
8383  ,2.245e+01   ,-1.7  ,-2.4  ,0
8396  ,3.890e+02   ,1.1  ,-2.5  ,0.1
8399  ,5.581e+09   ,2.4526  ,2.1331  ,4.9851
8405  ,2.150e+04   ,2.5  ,-2.4  ,1
8412  ,1.795e+04   ,2.3  ,-2.5  ,0.8063
8417  ,2.344e+01   ,-2.3  ,-2.5  ,2.5
8434  ,1.486e+05   ,0.9636  ,-2.5  ,4.8
8438  ,1.196e+03   ,-0.3  ,-2.5  ,0.1
8452  ,2.624e+06   ,-2.4  ,-0.1  ,5
8468  ,7.722e+08   ,2.5  ,2.4  ,3.7462
8471  ,1.418e+04   ,-1.3  ,-2.5  ,4.9
8493  ,1.353e+04   ,-1.1  ,-2.5  ,4.9
8509  ,4.280e+02   ,-2.5  ,-1.7  ,0.1
8517  ,7.132e+06   ,-2.4  ,2.5  ,3
8531  ,2.858e+05   ,-2.4  ,1.7  ,0
8556  ,4.774e+08   ,2.5  ,2.4  ,3.5491
8573  ,2.621e+07   ,-1.316  ,2.4  ,5
8576  ,1.528e+05   ,-2.4  ,1.3  ,0
8611  ,1.879e+04   ,2.3  ,-2.5  ,1.2915
8618  ,6.981e+06   ,-2.4  ,2.5  ,4
8646  ,1.575e+05   ,-2.5  ,1.1  ,0.1
8656  ,6.713e+05   ,2.5  ,-1.3  ,0.1
8657  ,5.549e+06   ,2.4  ,2.1  ,0
8673  ,2.348e+06   ,-1.3  ,2.4  ,0
8692  ,4.053e+04   ,0.72263  ,-2.5  ,4.8
8696  ,1.522e+04   ,2.3  ,-2.5  ,1.0469
8706  ,7.376e+08   ,2.5  ,0.65491  ,4.9
8721  ,3.239e+01   ,-2.4  ,-2.5  ,1.6
8725  ,8.855e+08   ,0.65491  ,2.4  ,5
8739  ,1.677e+10   ,2.1656  ,2.4325  ,4.9888
8741  ,5.192e+09   ,2.1998  ,2.3333  ,5
8746  ,2.535e+00   ,-2.1  ,-2.4  ,0
8748  ,2.476e+01   ,-2.5  ,-2.4  ,1.2
8752  ,6.609e+09   ,2.1331  ,2.4526  ,4.9851
8759  ,1.142e+01   ,-2.3  ,-2.5  ,1.0469
8787  ,1.731e+03   ,-0.1  ,-2.4  ,0
8793  ,2.450e+01   ,-2.3  ,-2.5  ,2.2576
8795  ,4.917e+00   ,-2.4  ,-2.5  ,2.4
8798  ,3.543e+02   ,-2.3  ,-2.5  ,4.1937
8808  ,2.307e+02   ,-2.3  ,-2.5  ,3.9531
8814  ,4.124e+05   ,-2.4  ,-1.5  ,5
8849  ,4.535e+04   ,0.4838  ,-2.5  ,4.8
8851  ,5.544e+02   ,-2.4  ,-2.5  ,4.2
8868  ,4.061e+04   ,2.4  ,-2.5  ,3
8874  ,5.188e+08   ,0.852  ,2.4  ,5
8883  ,8.910e+04   ,-0.5  ,-2.4  ,5
8886  ,4.283e+04   ,-0.72262  ,-2.5  ,4.8
8893  ,3.170e+04   ,-0.7  ,-2.5  ,4.9
8897  ,6.829e+02   ,-2.5  ,-2.4  ,3.6
8899  ,1.479e+02   ,-2.3  ,-2.5  ,3.4636
8900  ,1.953e+03   ,-2.3  ,-1.4729  ,0.2
8906  ,3.951e+03   ,-2.5  ,-1.3  ,0.1
8910  ,6.391e+08   ,0.852  ,2.5  ,4.9
8925  ,2.184e+06   ,-2.4  ,2.5  ,1.4
8941  ,4.297e+06   ,2.4707  ,2.4  ,0.029289
8942  ,6.066e+06   ,2.5  ,2.3  ,0.1
8945  ,1.903e+06   ,-2.5  ,0.1  ,4.9
8950  ,3.867e+06   ,2.4707  ,2.4707  ,0.1
8951  ,3.131e+06   ,2.4  ,2.4707  ,0.029289
8959  ,5.448e+08   ,2.4  ,0.26073  ,5
8965  ,4.982e+08   ,0.45782  ,2.4  ,5
8978  ,3.274e+08   ,2.4  ,0.852  ,5
8983  ,1.284e+06   ,2.5  ,-1.1  ,0.1
8991  ,7.161e+05   ,-2.5  ,2.4  ,0.6
9008  ,2.704e+08   ,2.5  ,0.852  ,4.9
9011  ,2.935e+04   ,-2.4  ,-0.5  ,0
9025  ,1.994e+01   ,-1.5  ,-2.5  ,0.1
9038  ,4.691e+04   ,2.4  ,-2.5  ,2
9041  ,1.530e+07   ,2.5  ,0.9  ,0.1
9050  ,9.761e+06   ,2.5  ,0.5  ,0.1
9054  ,3.667e+02   ,0.9  ,-2.4  ,0
9060  ,3.099e+03   ,2.4  ,-2.5  ,0.4
9062  ,3.271e+03   ,2.3  ,-2.5  ,0.56701
9064  ,8.637e+03   ,2.5  ,-2.4  ,0.4
9069  ,3.968e+03   ,2.4  ,-2.5  ,0.6
9071  ,1.119e+03   ,1.4531  ,-2.5  ,0.2
9082  ,2.591e+01   ,-2.3  ,-2.5  ,1.2915
9086  ,7.702e+00   ,-2.4  ,-2.5  ,1.4
9091  ,1.283e+01   ,-2.5  ,-2.4  ,1.4
9094  ,1.473e+05   ,1.3  ,-2.5  ,4.9
9097  ,5.485e+02   ,-0.7  ,-2.5  ,0.1
9137  ,1.400e+06   ,-2.5  ,-0.7  ,4.9
9143  ,6.046e+05   ,-2.5  ,-0.1  ,4.9
9146  ,8.981e+05   ,-2.1  ,2.4  ,0
9148  ,3.336e+06   ,-2.5  ,1.7  ,4.9
9173  ,1.121e+07   ,-2.5  ,2.4  ,3
9192  ,4.799e+04   ,-0.7  ,-2.4  ,5
9195  ,4.469e+02   ,0.72263  ,-2.5  ,0.2
9209  ,1.937e+05   ,2.5  ,-2.4  ,3.4
9215  ,4.479e+02   ,0.9636  ,-2.5  ,0.2
9217  ,1.190e+05   ,2.4  ,-2.5  ,3.2
9218  ,8.640e+03   ,-0.96359  ,-2.5  ,4.8
9229  ,3.462e+06   ,-2.4  ,2.5  ,2.8
9248  ,5.167e+05   ,2.3  ,-2.5  ,4.433
9255  ,1.205e+07   ,2.5  ,1.3  ,0.1
9257  ,9.326e+06   ,2.4  ,1.5  ,0
9262  ,5.213e+04   ,0.5  ,-2.4  ,5
9264  ,2.186e+08   ,2.4  ,-0.13345  ,5
9272  ,3.839e+08   ,0.063638  ,2.4  ,5
9277  ,1.332e+06   ,-2.5  ,2.4  ,1.2
9279  ,5.368e+08   ,2.5  ,0.26073  ,4.9
9282  ,1.588e+05   ,1.2085  ,-2.5  ,4.8
9286  ,1.037e+05   ,0.9  ,-2.5  ,4.9
9292  ,1.771e+06   ,-2.4  ,2.4707  ,4.9707
9293  ,2.694e+06   ,-2.3015  ,2.4  ,5
9296  ,2.167e+04   ,-2.4  ,-2.1  ,5
9303  ,1.034e+05   ,-2.4  ,-1.9  ,5
9311  ,1.395e+06   ,-2.4  ,2.3  ,5
9313  ,3.468e+06   ,-2.4  ,0.1  ,5
9319  ,1.413e+03   ,-0.5  ,-2.4  ,0
9328  ,4.604e+01   ,-2.3  ,-2.5  ,1.5364
9334  ,8.146e+05   ,-2.3  ,2.5  ,0.1
9338  ,1.827e+01   ,-2.5  ,-2.4  ,2.4
9339  ,1.671e+05   ,-2.5  ,1.3  ,0.1
9341  ,2.234e+01   ,-2.3  ,-2.5  ,2.7424
9344  ,4.085e+01   ,-2.5  ,-2.4  ,2.2
9358  ,3.838e+06   ,-2.3  ,2.3  ,2.5
9364  ,9.830e+03   ,-2.5  ,-2.1  ,4.9
9367  ,7.357e+03   ,-2.4  ,-2.3  ,5
9374  ,2.913e+05   ,-2.4  ,-1.3  ,5
9378  ,3.089e+06   ,-2.5  ,2.4  ,1.8
9384  ,6.403e+04   ,2.3  ,-2.5  ,2.0162
9385  ,4.499e+06   ,-2.5  ,2.4  ,4.4
9389  ,4.136e+06   ,-2.5  ,2.4  ,2
9395  ,1.633e+05   ,2.4  ,-2.3015  ,5
9396  ,2.465e+02   ,-2.4  ,-1.7  ,0
9407  ,4.510e+05   ,-2.3  ,-1.4729  ,4.8
9411  ,1.378e+05   ,-2.5  ,-1.7  ,4.9
9423  ,3.233e+02   ,-2.4  ,-2.5  ,3.6
9432  ,6.941e+04   ,0.7  ,-2.4  ,5
9438  ,5.056e+05   ,-2.5  ,-0.9  ,4.9
9443  ,2.176e+06   ,-2.5  ,-0.3  ,4.9
9445  ,8.401e+05   ,-2.4707  ,2.4  ,4.9707
9448  ,4.233e+07   ,2.4  ,-1.1189  ,5
9453  ,1.889e+07   ,2.4  ,0.7  ,0
9455  ,1.373e+05   ,2.5  ,-2.4  ,2.6
9457  ,5.648e+04   ,2.3  ,-2.5  ,2.9838
9494  ,8.883e+05   ,-2.4  ,2.5  ,1
9500  ,4.263e+04   ,0.3  ,-2.5  ,4.9
9504  ,4.711e+04   ,0.3  ,-2.4  ,5
9506  ,2.105e+03   ,2.1  ,-2.5  ,0.1
9518  ,2.144e+00   ,-1.9  ,-2.5  ,0.1
9528  ,7.927e+02   ,2.3  ,-2.5  ,0.1
9531  ,1.054e+03   ,2.4707  ,-2.4707  ,0.1
9533  ,1.582e+03   ,2.4707  ,-2.4  ,0.029289
9534  ,1.520e+03   ,2.4  ,-2.4707  ,0.029289
9541  ,5.716e+04   ,0.5  ,-2.5  ,4.9
9544  ,1.031e+03   ,-0.5  ,-2.5  ,0.1
9559  ,1.009e+05   ,-2.5  ,-1.9  ,4.9
9562  ,3.970e+06   ,-2.5  ,2.4  ,4.6
9565  ,3.048e+06   ,-2.4  ,2.5  ,2
9571  ,8.352e+02   ,-2.5  ,-2.4  ,3.8
9574  ,4.541e+02   ,-2.4  ,-2.5  ,3.8
9577  ,1.008e+03   ,1.3  ,-2.5  ,0.1
9582  ,1.074e+04   ,-2.5  ,-0.9  ,0.1
9596  ,4.121e+06   ,2.1  ,2.4  ,0
9598  ,1.305e+07   ,-2.4  ,2.5  ,3.2
9602  ,8.010e+06   ,1.5  ,2.5  ,0.1
9610  ,2.940e+06   ,2.4  ,2.5  ,0.39564
9612  ,1.351e+08   ,-0.72473  ,2.5  ,4.9
9614  ,6.753e+06   ,1.7  ,2.5  ,0.1
9635  ,1.064e+07   ,2.5  ,1.7  ,0.1
9646  ,3.715e+06   ,2.3  ,2.5  ,0.1
9651  ,1.529e+10   ,2.1656  ,2.4888  ,4.9325
9653  ,1.134e+07   ,2.5  ,-1.316  ,4.9
9656  ,1.417e+05   ,-2.4  ,-1.7  ,5
9659  ,2.567e+05   ,2.3  ,-2.5  ,4.6765
9661  ,2.315e+05   ,2.3  ,-2.5  ,3.9531
9664  ,6.087e+03   ,-2.3  ,-2.4  ,5
9666  ,3.938e+03   ,1.9  ,-2.4  ,0
9677  ,1.393e+07   ,2.4  ,0.5  ,0
9678  ,3.809e+03   ,-2.5  ,-1.1  ,0.1
9680  ,2.048e+07   ,2.5  ,2.4  ,1.184
9681  ,7.316e+06   ,2.5  ,2.4  ,0.19855
9696  ,7.345e+00   ,-2.3  ,-2.5  ,2.0162
9698  ,5.353e+03   ,2.4  ,-2.3  ,0
9699  ,6.058e+02   ,-0.24243  ,-2.5  ,0.2
9701  ,1.753e+03   ,0.1  ,-2.4  ,0
9704  ,2.096e+03   ,-0.4838  ,-2.5  ,0.2
9718  ,8.617e+02   ,-0.72262  ,-2.5  ,0.2
9726  ,1.725e+06   ,2.3  ,-0.76628  ,0.2
9727  ,3.858e+05   ,-2.5  ,2.4  ,0.4
9730  ,3.233e+04   ,1.9433E-06  ,-2.5  ,4.8
9731  ,4.206e+04   ,-0.24243  ,-2.5  ,4.8
9732  ,4.212e+06   ,-2.5  ,2.4  ,2.2
9738  ,6.576e+02   ,-2.5  ,-2.4  ,4
9743  ,1.227e+04   ,-1.6937  ,-2.5  ,4.8
9744  ,5.090e+02   ,-2.4  ,-2.5  ,4
9750  ,4.241e+00   ,-1.7  ,-2.5  ,0.1
9752  ,9.858e+00   ,-1.6937  ,-2.5  ,0.2
9754  ,1.332e+02   ,-1.3  ,-2.4  ,0
9759  ,5.381e+05   ,-2.4707  ,2.4  ,0.029289
9760  ,3.381e+05   ,-2.4  ,2.4707  ,0.029289
9768  ,1.617e+05   ,2.3  ,-2.5  ,4.1937
9770  ,4.033e+02   ,1.9433E-06  ,-2.5  ,0.2
9771  ,8.314e+02   ,0.4838  ,-2.5  ,0.2
9772  ,2.008e+03   ,2.4  ,-2.5  ,0.2
9773  ,1.667e+05   ,2.4  ,-2.5  ,4.6
9776  ,5.548e+08   ,2.4  ,0.063638  ,5
9780  ,7.740e+08   ,0.65491  ,2.5  ,4.9
9781  ,5.070e+06   ,2.4  ,2.5  ,0.19855
9782  ,4.071e+01   ,-2.3  ,-2.5  ,2.9838
9786  ,5.923e+01   ,-1.2085  ,-2.5  ,0.2
9787  ,3.014e+01   ,-1.4531  ,-2.5  ,0.2
9790  ,2.696e+03   ,2.3  ,-2.4  ,0
9793  ,5.130e+09   ,2.0345  ,2.4  ,5
9797  ,2.820e+04   ,2.3  ,-2.5  ,1.5364
9798  ,3.599e+08   ,2.4  ,1.0491  ,5
9809  ,5.665e+08   ,2.4  ,2.5  ,3.352
