Date:  12:49, Monday, July 10, 2023
Model name: Hollow_DropBox
Study name: DropTest_300fts(-Default-)
Plot type:  Stress1
Plot step: 5   time : 26.2184 Microseconds
Result Type: von Mises 


Node  ,Value (N/m^2)  ,X (in)  ,Y (in)  ,Z (in)
1  ,1.383e+10   ,2.5  ,2.1331  ,4.9
2  ,2.537e+10   ,2.4577  ,2.1908  ,4.9577
3  ,3.255e+10   ,2.4894  ,2.1331  ,4.9447
4  ,1.454e+10   ,2.1331  ,2.5  ,4.9
5  ,3.374e+10   ,2.1331  ,2.4894  ,4.9447
6  ,2.384e+10   ,2.1908  ,2.4577  ,4.9577
7  ,1.668e+08   ,-2.4  ,2.4  ,5
8  ,1.628e+07   ,-2.4  ,-2.4  ,5
9  ,3.773e+07   ,2.4  ,-2.4  ,5
10  ,1.194e+10   ,2.4  ,2.1331  ,5
11  ,1.406e+10   ,2.1331  ,2.4  ,5
12  ,5.053e+07   ,2.5  ,-2.4  ,4.9
13  ,1.319e+07   ,2.5  ,-2.4  ,0.1
14  ,1.710e+08   ,2.5  ,2.4  ,0.1
15  ,1.473e+10   ,2.5  ,2.4  ,4.6331
16  ,1.695e+08   ,2.4  ,2.5  ,0.1
17  ,6.650e+06   ,-2.4  ,2.5  ,0.1
18  ,1.537e+08   ,-2.4  ,2.5  ,4.9
19  ,1.477e+10   ,2.4  ,2.5  ,4.6331
20  ,3.358e+07   ,-2.5  ,2.4  ,0.1
21  ,1.841e+05   ,-2.5  ,-2.4  ,0.1
22  ,2.942e+06   ,-2.5  ,-2.4  ,4.9
23  ,1.153e+08   ,-2.5  ,2.4  ,4.9
24  ,3.806e+05   ,-2.3  ,-2.5  ,0.2
25  ,1.814e+07   ,-2.3  ,-2.5  ,4.8
26  ,1.238e+08   ,2.3  ,-2.5  ,4.8
27  ,1.263e+07   ,2.3  ,-2.5  ,0.2
28  ,6.775e+06   ,-2.4  ,-2.5  ,4.9
29  ,3.859e+07   ,2.4  ,-2.5  ,4.9
30  ,2.572e+05   ,-2.4  ,-2.5  ,0.1
31  ,8.411e+06   ,2.4  ,-2.5  ,0.1
32  ,4.670e+06   ,2.4  ,-2.4  ,0
33  ,1.473e+08   ,2.4  ,2.4  ,0
34  ,2.894e+05   ,-2.4  ,-2.4  ,0
35  ,2.634e+07   ,-2.4  ,2.4  ,0
36  ,3.134e+10   ,2.4577  ,2.4577  ,4.6908
37  ,3.562e+08   ,-2.3  ,2.3  ,4.8
38  ,1.203e+10   ,2.1599  ,2.3  ,4.8
39  ,1.184e+10   ,2.3  ,2.1599  ,4.8
40  ,1.170e+10   ,2.3  ,2.3  ,4.6599
41  ,4.124e+08   ,2.3  ,2.3  ,0.2
42  ,5.516e+07   ,-2.3  ,2.3  ,0.2
43  ,1.823e+08   ,-2.4  ,2.2  ,5
44  ,1.772e+08   ,-2.4  ,2  ,5
45  ,1.424e+08   ,-2.4  ,1.8  ,5
46  ,1.738e+08   ,-2.4  ,1.6  ,5
47  ,1.618e+08   ,-2.4  ,1.4  ,5
48  ,1.690e+08   ,-2.4  ,1.2  ,5
49  ,1.204e+08   ,-2.4  ,1  ,5
50  ,1.165e+08   ,-2.4  ,0.8  ,5
51  ,1.269e+08   ,-2.4  ,0.6  ,5
52  ,1.325e+08   ,-2.4  ,0.4  ,5
53  ,1.299e+08   ,-2.4  ,0.2  ,5
54  ,1.652e+08   ,-2.4  ,5.8879E-16  ,5
55  ,2.550e+08   ,-2.4  ,-0.2  ,5
56  ,2.454e+08   ,-2.4  ,-0.4  ,5
57  ,1.238e+08   ,-2.4  ,-0.6  ,5
58  ,8.307e+07   ,-2.4  ,-0.8  ,5
59  ,7.004e+07   ,-2.4  ,-1  ,5
60  ,5.743e+07   ,-2.4  ,-1.2  ,5
61  ,4.435e+07   ,-2.4  ,-1.4  ,5
62  ,5.761e+07   ,-2.4  ,-1.6  ,5
63  ,4.490e+07   ,-2.4  ,-1.8  ,5
64  ,1.228e+07   ,-2.4  ,-2  ,5
65  ,1.946e+07   ,-2.4  ,-2.2  ,5
66  ,3.410e+07   ,-2.2  ,-2.4  ,5
67  ,3.831e+07   ,-2  ,-2.4  ,5
68  ,5.525e+07   ,-1.8  ,-2.4  ,5
69  ,4.096e+07   ,-1.6  ,-2.4  ,5
70  ,5.579e+07   ,-1.4  ,-2.4  ,5
71  ,9.173e+07   ,-1.2  ,-2.4  ,5
72  ,1.548e+08   ,-1  ,-2.4  ,5
73  ,2.092e+08   ,-0.8  ,-2.4  ,5
74  ,1.989e+08   ,-0.6  ,-2.4  ,5
75  ,1.641e+08   ,-0.4  ,-2.4  ,5
76  ,1.521e+08   ,-0.2  ,-2.4  ,5
77  ,1.639e+08   ,-5.8879E-16  ,-2.4  ,5
78  ,1.581e+08   ,0.2  ,-2.4  ,5
79  ,1.090e+08   ,0.4  ,-2.4  ,5
80  ,1.145e+08   ,0.6  ,-2.4  ,5
81  ,1.135e+08   ,0.8  ,-2.4  ,5
82  ,1.260e+08   ,1  ,-2.4  ,5
83  ,1.301e+08   ,1.2  ,-2.4  ,5
84  ,1.831e+08   ,1.4  ,-2.4  ,5
85  ,2.336e+08   ,1.6  ,-2.4  ,5
86  ,2.151e+08   ,1.8  ,-2.4  ,5
87  ,2.366e+08   ,2  ,-2.4  ,5
88  ,1.346e+08   ,2.2  ,-2.4  ,5
89  ,9.526e+07   ,2.4  ,-2.2029  ,5
90  ,1.329e+08   ,2.4  ,-2.0058  ,5
91  ,2.822e+08   ,2.4  ,-1.8087  ,5
92  ,4.969e+08   ,2.4  ,-1.6116  ,5
93  ,6.207e+08   ,2.4  ,-1.4145  ,5
94  ,4.919e+08   ,2.4  ,-1.2175  ,5
95  ,1.539e+08   ,2.4  ,-1.0204  ,5
96  ,1.069e+08   ,2.4  ,-0.82327  ,5
97  ,9.867e+07   ,2.4  ,-0.62618  ,5
98  ,3.376e+08   ,2.4  ,-0.42909  ,5
99  ,6.753e+08   ,2.4  ,-0.232  ,5
100  ,8.032e+08   ,2.4  ,-0.034907  ,5
101  ,1.034e+09   ,2.4  ,0.16218  ,5
102  ,1.256e+09   ,2.4  ,0.35927  ,5
103  ,1.574e+09   ,2.4  ,0.55637  ,5
104  ,1.620e+09   ,2.4  ,0.75346  ,5
105  ,1.647e+09   ,2.4  ,0.95055  ,5
106  ,1.645e+09   ,2.4  ,1.1476  ,5
107  ,2.376e+09   ,2.4  ,1.3447  ,5
108  ,3.668e+09   ,2.4  ,1.5418  ,5
109  ,4.833e+09   ,2.4  ,1.7389  ,5
110  ,8.192e+09   ,2.4  ,1.936  ,5
111  ,1.071e+10   ,2.2665  ,2.2665  ,5
112  ,8.436e+09   ,1.936  ,2.4  ,5
113  ,4.781e+09   ,1.7389  ,2.4  ,5
114  ,3.543e+09   ,1.5418  ,2.4  ,5
115  ,2.715e+09   ,1.3447  ,2.4  ,5
116  ,1.959e+09   ,1.1476  ,2.4  ,5
117  ,1.973e+09   ,0.95055  ,2.4  ,5
118  ,1.531e+09   ,0.75346  ,2.4  ,5
119  ,1.187e+09   ,0.55637  ,2.4  ,5
120  ,1.103e+09   ,0.35927  ,2.4  ,5
121  ,1.083e+09   ,0.16218  ,2.4  ,5
122  ,8.380e+08   ,-0.034907  ,2.4  ,5
123  ,8.339e+08   ,-0.232  ,2.4  ,5
124  ,4.551e+08   ,-0.42909  ,2.4  ,5
125  ,2.468e+08   ,-0.62618  ,2.4  ,5
126  ,1.374e+08   ,-0.82327  ,2.4  ,5
127  ,3.446e+08   ,-1.0204  ,2.4  ,5
128  ,4.375e+08   ,-1.2175  ,2.4  ,5
129  ,6.128e+08   ,-1.4145  ,2.4  ,5
130  ,6.426e+08   ,-1.6116  ,2.4  ,5
131  ,5.335e+08   ,-1.8087  ,2.4  ,5
132  ,4.503e+08   ,-2.0058  ,2.4  ,5
133  ,2.482e+08   ,-2.2029  ,2.4  ,5
294  ,7.286e+07   ,2.5  ,-2.2029  ,4.9
295  ,1.235e+08   ,2.5  ,-2.0058  ,4.9
296  ,2.746e+08   ,2.5  ,-1.8087  ,4.9
297  ,4.885e+08   ,2.5  ,-1.6116  ,4.9
298  ,6.639e+08   ,2.5  ,-1.4145  ,4.9
299  ,4.776e+08   ,2.5  ,-1.2175  ,4.9
300  ,2.220e+08   ,2.5  ,-1.0204  ,4.9
301  ,1.011e+08   ,2.5  ,-0.82327  ,4.9
302  ,1.412e+08   ,2.5  ,-0.62618  ,4.9
303  ,3.467e+08   ,2.5  ,-0.42909  ,4.9
304  ,6.921e+08   ,2.5  ,-0.232  ,4.9
305  ,8.726e+08   ,2.5  ,-0.034907  ,4.9
306  ,1.131e+09   ,2.5  ,0.16218  ,4.9
307  ,1.235e+09   ,2.5  ,0.35927  ,4.9
308  ,1.448e+09   ,2.5  ,0.55637  ,4.9
309  ,1.514e+09   ,2.5  ,0.75346  ,4.9
310  ,1.676e+09   ,2.5  ,0.95055  ,4.9
311  ,2.121e+09   ,2.5  ,1.1476  ,4.9
312  ,2.588e+09   ,2.5  ,1.3447  ,4.9
313  ,3.688e+09   ,2.5  ,1.5418  ,4.9
314  ,6.017e+09   ,2.5  ,1.7389  ,4.9
315  ,8.949e+09   ,2.5  ,1.936  ,4.9
316  ,1.495e+08   ,2.5  ,-2.4  ,4.7
317  ,2.209e+08   ,2.5  ,-2.4  ,4.5
318  ,1.876e+08   ,2.5  ,-2.4  ,4.3
319  ,1.814e+08   ,2.5  ,-2.4  ,4.1
320  ,1.303e+08   ,2.5  ,-2.4  ,3.9
321  ,9.377e+07   ,2.5  ,-2.4  ,3.7
322  ,8.998e+07   ,2.5  ,-2.4  ,3.5
323  ,7.577e+07   ,2.5  ,-2.4  ,3.3
324  ,7.295e+07   ,2.5  ,-2.4  ,3.1
325  ,9.494e+07   ,2.5  ,-2.4  ,2.9
326  ,1.384e+08   ,2.5  ,-2.4  ,2.7
327  ,1.443e+08   ,2.5  ,-2.4  ,2.5
328  ,1.542e+08   ,2.5  ,-2.4  ,2.3
329  ,1.770e+08   ,2.5  ,-2.4  ,2.1
330  ,2.114e+08   ,2.5  ,-2.4  ,1.9
331  ,1.935e+08   ,2.5  ,-2.4  ,1.7
332  ,1.351e+08   ,2.5  ,-2.4  ,1.5
333  ,6.986e+07   ,2.5  ,-2.4  ,1.3
334  ,5.018e+07   ,2.5  ,-2.4  ,1.1
335  ,3.668e+07   ,2.5  ,-2.4  ,0.9
336  ,2.910e+07   ,2.5  ,-2.4  ,0.7
337  ,2.663e+07   ,2.5  ,-2.4  ,0.5
338  ,2.593e+07   ,2.5  ,-2.4  ,0.3
339  ,1.301e+07   ,2.5  ,-2.2  ,0.1
340  ,2.944e+07   ,2.5  ,-2  ,0.1
341  ,6.450e+07   ,2.5  ,-1.8  ,0.1
342  ,3.803e+07   ,2.5  ,-1.6  ,0.1
343  ,3.021e+07   ,2.5  ,-1.4  ,0.1
344  ,7.542e+07   ,2.5  ,-1.2  ,0.1
345  ,4.588e+07   ,2.5  ,-1  ,0.1
346  ,8.597e+07   ,2.5  ,-0.8  ,0.1
347  ,1.474e+08   ,2.5  ,-0.6  ,0.1
348  ,2.393e+08   ,2.5  ,-0.4  ,0.1
349  ,2.287e+08   ,2.5  ,-0.2  ,0.1
350  ,1.335e+08   ,2.5  ,-1.7664E-15  ,0.1
351  ,1.131e+08   ,2.5  ,0.2  ,0.1
352  ,1.198e+08   ,2.5  ,0.4  ,0.1
353  ,1.425e+08   ,2.5  ,0.6  ,0.1
354  ,1.816e+08   ,2.5  ,0.8  ,0.1
355  ,1.871e+08   ,2.5  ,1  ,0.1
356  ,1.680e+08   ,2.5  ,1.2  ,0.1
357  ,1.878e+08   ,2.5  ,1.4  ,0.1
358  ,1.789e+08   ,2.5  ,1.6  ,0.1
359  ,1.700e+08   ,2.5  ,1.8  ,0.1
360  ,1.694e+08   ,2.5  ,2  ,0.1
361  ,1.546e+08   ,2.5  ,2.2  ,0.1
362  ,8.759e+09   ,2.5  ,2.4  ,4.436
363  ,5.673e+09   ,2.5  ,2.4  ,4.2389
364  ,3.339e+09   ,2.5  ,2.4  ,4.0418
365  ,2.777e+09   ,2.5  ,2.4  ,3.8447
366  ,1.856e+09   ,2.5  ,2.4  ,3.6476
367  ,1.801e+09   ,2.5  ,2.4  ,3.4505
368  ,1.516e+09   ,2.5  ,2.4  ,3.2535
369  ,1.193e+09   ,2.5  ,2.4  ,3.0564
370  ,1.074e+09   ,2.5  ,2.4  ,2.8593
371  ,9.469e+08   ,2.5  ,2.4  ,2.6622
372  ,1.032e+09   ,2.5  ,2.4  ,2.4651
373  ,8.158e+08   ,2.5  ,2.4  ,2.268
374  ,5.781e+08   ,2.5  ,2.4  ,2.0709
375  ,1.999e+08   ,2.5  ,2.4  ,1.8738
376  ,2.659e+08   ,2.5  ,2.4  ,1.6767
377  ,3.043e+08   ,2.5  ,2.4  ,1.4796
378  ,4.164e+08   ,2.5  ,2.4  ,1.2825
379  ,5.298e+08   ,2.5  ,2.4  ,1.0855
380  ,5.921e+08   ,2.5  ,2.4  ,0.88836
381  ,5.782e+08   ,2.5  ,2.4  ,0.69127
382  ,5.131e+08   ,2.5  ,2.4  ,0.49418
383  ,2.643e+08   ,2.5  ,2.4  ,0.29709
384  ,1.045e+10   ,2.5  ,2.2665  ,4.7665
544  ,1.630e+08   ,2.2  ,2.5  ,0.1
545  ,1.386e+08   ,2  ,2.5  ,0.1
546  ,1.335e+08   ,1.8  ,2.5  ,0.1
547  ,1.089e+08   ,1.6  ,2.5  ,0.1
548  ,9.498e+07   ,1.4  ,2.5  ,0.1
549  ,1.120e+08   ,1.2  ,2.5  ,0.1
550  ,1.473e+08   ,1  ,2.5  ,0.1
551  ,2.097e+08   ,0.8  ,2.5  ,0.1
552  ,1.805e+08   ,0.6  ,2.5  ,0.1
553  ,1.341e+08   ,0.4  ,2.5  ,0.1
554  ,1.421e+08   ,0.2  ,2.5  ,0.1
555  ,1.369e+08   ,5.8879E-16  ,2.5  ,0.1
556  ,1.055e+08   ,-0.2  ,2.5  ,0.1
557  ,1.212e+08   ,-0.4  ,2.5  ,0.1
558  ,2.025e+08   ,-0.6  ,2.5  ,0.1
559  ,2.555e+08   ,-0.8  ,2.5  ,0.1
560  ,7.656e+07   ,-1  ,2.5  ,0.1
561  ,7.597e+07   ,-1.2  ,2.5  ,0.1
562  ,7.185e+07   ,-1.4  ,2.5  ,0.1
563  ,6.406e+07   ,-1.6  ,2.5  ,0.1
564  ,5.451e+07   ,-1.8  ,2.5  ,0.1
565  ,4.839e+07   ,-2  ,2.5  ,0.1
566  ,2.241e+07   ,-2.2  ,2.5  ,0.1
567  ,1.424e+08   ,-2.4  ,2.5  ,4.7
568  ,9.565e+07   ,-2.4  ,2.5  ,4.5
569  ,9.880e+07   ,-2.4  ,2.5  ,4.3
570  ,9.640e+07   ,-2.4  ,2.5  ,4.1
571  ,1.008e+08   ,-2.4  ,2.5  ,3.9
572  ,1.114e+08   ,-2.4  ,2.5  ,3.7
573  ,1.555e+08   ,-2.4  ,2.5  ,3.5
574  ,2.081e+08   ,-2.4  ,2.5  ,3.3
575  ,1.412e+08   ,-2.4  ,2.5  ,3.1
576  ,1.182e+08   ,-2.4  ,2.5  ,2.9
577  ,1.304e+08   ,-2.4  ,2.5  ,2.7
578  ,1.368e+08   ,-2.4  ,2.5  ,2.5
579  ,1.568e+08   ,-2.4  ,2.5  ,2.3
580  ,1.567e+08   ,-2.4  ,2.5  ,2.1
581  ,1.559e+08   ,-2.4  ,2.5  ,1.9
582  ,1.578e+08   ,-2.4  ,2.5  ,1.7
583  ,7.024e+07   ,-2.4  ,2.5  ,1.5
584  ,4.834e+07   ,-2.4  ,2.5  ,1.3
585  ,4.958e+07   ,-2.4  ,2.5  ,1.1
586  ,4.168e+07   ,-2.4  ,2.5  ,0.9
587  ,3.249e+07   ,-2.4  ,2.5  ,0.7
588  ,3.080e+07   ,-2.4  ,2.5  ,0.5
589  ,2.415e+07   ,-2.4  ,2.5  ,0.3
590  ,9.273e+09   ,1.936  ,2.5  ,4.9
591  ,4.429e+09   ,1.7389  ,2.5  ,4.9
592  ,3.476e+09   ,1.5418  ,2.5  ,4.9
593  ,2.578e+09   ,1.3447  ,2.5  ,4.9
594  ,1.980e+09   ,1.1476  ,2.5  ,4.9
595  ,1.752e+09   ,0.95055  ,2.5  ,4.9
596  ,1.652e+09   ,0.75346  ,2.5  ,4.9
597  ,1.186e+09   ,0.55637  ,2.5  ,4.9
598  ,1.184e+09   ,0.35927  ,2.5  ,4.9
599  ,1.030e+09   ,0.16218  ,2.5  ,4.9
600  ,8.300e+08   ,-0.034907  ,2.5  ,4.9
601  ,7.278e+08   ,-0.232  ,2.5  ,4.9
602  ,5.246e+08   ,-0.42909  ,2.5  ,4.9
603  ,2.815e+08   ,-0.62618  ,2.5  ,4.9
604  ,2.002e+08   ,-0.82327  ,2.5  ,4.9
605  ,3.281e+08   ,-1.0204  ,2.5  ,4.9
606  ,4.314e+08   ,-1.2175  ,2.5  ,4.9
607  ,6.306e+08   ,-1.4145  ,2.5  ,4.9
608  ,6.397e+08   ,-1.6116  ,2.5  ,4.9
609  ,5.335e+08   ,-1.8087  ,2.5  ,4.9
610  ,4.625e+08   ,-2.0058  ,2.5  ,4.9
611  ,2.542e+08   ,-2.2029  ,2.5  ,4.9
612  ,1.086e+10   ,2.2665  ,2.5  ,4.7665
613  ,7.654e+09   ,2.4  ,2.5  ,4.436
614  ,4.897e+09   ,2.4  ,2.5  ,4.2389
615  ,3.353e+09   ,2.4  ,2.5  ,4.0418
616  ,2.583e+09   ,2.4  ,2.5  ,3.8447
617  ,1.902e+09   ,2.4  ,2.5  ,3.6476
618  ,1.852e+09   ,2.4  ,2.5  ,3.4505
619  ,1.586e+09   ,2.4  ,2.5  ,3.2535
620  ,1.286e+09   ,2.4  ,2.5  ,3.0564
621  ,1.125e+09   ,2.4  ,2.5  ,2.8593
622  ,9.257e+08   ,2.4  ,2.5  ,2.6622
623  ,8.863e+08   ,2.4  ,2.5  ,2.4651
624  ,8.118e+08   ,2.4  ,2.5  ,2.268
625  ,5.527e+08   ,2.4  ,2.5  ,2.0709
626  ,1.319e+08   ,2.4  ,2.5  ,1.8738
627  ,2.329e+08   ,2.4  ,2.5  ,1.6767
628  ,2.122e+08   ,2.4  ,2.5  ,1.4796
629  ,4.131e+08   ,2.4  ,2.5  ,1.2825
630  ,5.612e+08   ,2.4  ,2.5  ,1.0855
631  ,6.502e+08   ,2.4  ,2.5  ,0.88836
632  ,5.953e+08   ,2.4  ,2.5  ,0.69127
633  ,5.204e+08   ,2.4  ,2.5  ,0.49418
634  ,2.629e+08   ,2.4  ,2.5  ,0.29709
796  ,6.376e+07   ,-2.5  ,2.2  ,0.1
797  ,3.524e+07   ,-2.5  ,2  ,0.1
798  ,2.378e+07   ,-2.5  ,1.8  ,0.1
799  ,2.785e+07   ,-2.5  ,1.6  ,0.1
800  ,2.879e+07   ,-2.5  ,1.4  ,0.1
801  ,2.745e+07   ,-2.5  ,1.2  ,0.1
802  ,1.511e+07   ,-2.5  ,1  ,0.1
803  ,6.678e+06   ,-2.5  ,0.8  ,0.1
804  ,7.416e+06   ,-2.5  ,0.6  ,0.1
805  ,5.669e+06   ,-2.5  ,0.4  ,0.1
806  ,3.885e+06   ,-2.5  ,0.2  ,0.1
807  ,3.050e+06   ,-2.5  ,5.8879E-16  ,0.1
808  ,6.956e+06   ,-2.5  ,-0.2  ,0.1
809  ,8.491e+06   ,-2.5  ,-0.4  ,0.1
810  ,2.475e+06   ,-2.5  ,-0.6  ,0.1
811  ,2.600e+06   ,-2.5  ,-0.8  ,0.1
812  ,4.009e+06   ,-2.5  ,-1  ,0.1
813  ,2.711e+06   ,-2.5  ,-1.2  ,0.1
814  ,9.437e+05   ,-2.5  ,-1.4  ,0.1
815  ,1.899e+06   ,-2.5  ,-1.6  ,0.1
816  ,8.445e+05   ,-2.5  ,-1.8  ,0.1
817  ,6.004e+05   ,-2.5  ,-2  ,0.1
818  ,2.672e+05   ,-2.5  ,-2.2  ,0.1
819  ,7.173e+06   ,-2.5  ,-2.4  ,4.7
820  ,6.593e+06   ,-2.5  ,-2.4  ,4.5
821  ,6.070e+06   ,-2.5  ,-2.4  ,4.3
822  ,5.648e+06   ,-2.5  ,-2.4  ,4.1
823  ,4.381e+06   ,-2.5  ,-2.4  ,3.9
824  ,5.386e+06   ,-2.5  ,-2.4  ,3.7
825  ,4.026e+06   ,-2.5  ,-2.4  ,3.5
826  ,1.356e+06   ,-2.5  ,-2.4  ,3.3
827  ,1.273e+06   ,-2.5  ,-2.4  ,3.1
828  ,1.420e+06   ,-2.5  ,-2.4  ,2.9
829  ,1.165e+06   ,-2.5  ,-2.4  ,2.7
830  ,4.546e+05   ,-2.5  ,-2.4  ,2.5
831  ,5.325e+05   ,-2.5  ,-2.4  ,2.3
832  ,4.849e+05   ,-2.5  ,-2.4  ,2.1
833  ,8.704e+05   ,-2.5  ,-2.4  ,1.9
834  ,9.236e+05   ,-2.5  ,-2.4  ,1.7
835  ,2.821e+05   ,-2.5  ,-2.4  ,1.5
836  ,4.685e+05   ,-2.5  ,-2.4  ,1.3
837  ,5.372e+05   ,-2.5  ,-2.4  ,1.1
838  ,3.587e+05   ,-2.5  ,-2.4  ,0.9
839  ,2.302e+05   ,-2.5  ,-2.4  ,0.7
840  ,1.920e+05   ,-2.5  ,-2.4  ,0.5
841  ,2.387e+05   ,-2.5  ,-2.4  ,0.3
842  ,1.984e+08   ,-2.5  ,2.2  ,4.9
843  ,1.654e+08   ,-2.5  ,2  ,4.9
844  ,1.767e+08   ,-2.5  ,1.8  ,4.9
845  ,1.651e+08   ,-2.5  ,1.6  ,4.9
846  ,1.568e+08   ,-2.5  ,1.4  ,4.9
847  ,1.228e+08   ,-2.5  ,1.2  ,4.9
848  ,8.493e+07   ,-2.5  ,1  ,4.9
849  ,1.104e+08   ,-2.5  ,0.8  ,4.9
850  ,9.369e+07   ,-2.5  ,0.6  ,4.9
851  ,8.356e+07   ,-2.5  ,0.4  ,4.9
852  ,7.812e+07   ,-2.5  ,0.2  ,4.9
853  ,8.481e+07   ,-2.5  ,5.8879E-16  ,4.9
854  ,1.387e+08   ,-2.5  ,-0.2  ,4.9
855  ,1.977e+08   ,-2.5  ,-0.4  ,4.9
856  ,9.696e+07   ,-2.5  ,-0.6  ,4.9
857  ,4.652e+07   ,-2.5  ,-0.8  ,4.9
858  ,3.239e+07   ,-2.5  ,-1  ,4.9
859  ,4.341e+07   ,-2.5  ,-1.2  ,4.9
860  ,2.292e+07   ,-2.5  ,-1.4  ,4.9
861  ,2.442e+07   ,-2.5  ,-1.6  ,4.9
862  ,3.093e+07   ,-2.5  ,-1.8  ,4.9
863  ,1.604e+07   ,-2.5  ,-2  ,4.9
864  ,6.942e+06   ,-2.5  ,-2.2  ,4.9
865  ,1.808e+08   ,-2.5  ,2.4  ,4.7
866  ,1.352e+08   ,-2.5  ,2.4  ,4.5
867  ,1.605e+08   ,-2.5  ,2.4  ,4.3
868  ,1.058e+08   ,-2.5  ,2.4  ,4.1
869  ,1.614e+08   ,-2.5  ,2.4  ,3.9
870  ,1.509e+08   ,-2.5  ,2.4  ,3.7
871  ,1.778e+08   ,-2.5  ,2.4  ,3.5
872  ,1.837e+08   ,-2.5  ,2.4  ,3.3
873  ,1.215e+08   ,-2.5  ,2.4  ,3.1
874  ,1.257e+08   ,-2.5  ,2.4  ,2.9
875  ,1.057e+08   ,-2.5  ,2.4  ,2.7
876  ,1.094e+08   ,-2.5  ,2.4  ,2.5
877  ,1.033e+08   ,-2.5  ,2.4  ,2.3
878  ,8.862e+07   ,-2.5  ,2.4  ,2.1
879  ,7.475e+07   ,-2.5  ,2.4  ,1.9
880  ,9.807e+07   ,-2.5  ,2.4  ,1.7
881  ,7.063e+07   ,-2.5  ,2.4  ,1.5
882  ,3.959e+07   ,-2.5  ,2.4  ,1.3
883  ,2.571e+07   ,-2.5  ,2.4  ,1.1
884  ,2.475e+07   ,-2.5  ,2.4  ,0.9
885  ,2.248e+07   ,-2.5  ,2.4  ,0.7
886  ,3.520e+07   ,-2.5  ,2.4  ,0.5
887  ,3.866e+07   ,-2.5  ,2.4  ,0.3
1044  ,3.477e+05   ,-2.3  ,-2.5  ,0.44697
1045  ,2.172e+05   ,-2.3  ,-2.5  ,0.68705
1046  ,2.907e+05   ,-2.3  ,-2.5  ,0.92554
1047  ,5.215e+05   ,-2.3  ,-2.5  ,1.1682
1048  ,5.146e+05   ,-2.3  ,-2.5  ,1.4148
1049  ,1.487e+05   ,-2.3  ,-2.5  ,1.6581
1050  ,4.711e+05   ,-2.3  ,-2.5  ,1.8967
1051  ,6.221e+05   ,-2.3  ,-2.5  ,2.1357
1052  ,9.782e+05   ,-2.3  ,-2.5  ,2.3794
1053  ,6.191e+05   ,-2.3  ,-2.5  ,2.6206
1054  ,4.026e+05   ,-2.3  ,-2.5  ,2.8643
1055  ,1.558e+06   ,-2.3  ,-2.5  ,3.1033
1056  ,1.607e+06   ,-2.3  ,-2.5  ,3.342
1057  ,2.768e+06   ,-2.3  ,-2.5  ,3.5852
1058  ,4.309e+06   ,-2.3  ,-2.5  ,3.8318
1059  ,5.016e+06   ,-2.3  ,-2.5  ,4.0745
1060  ,2.316e+06   ,-2.3  ,-2.5  ,4.3129
1061  ,6.082e+06   ,-2.3  ,-2.5  ,4.553
1062  ,3.407e+07   ,-2.053  ,-2.5  ,4.8
1063  ,5.786e+07   ,-1.8129  ,-2.5  ,4.8
1064  ,5.171e+07   ,-1.5745  ,-2.5  ,4.8
1065  ,3.734e+07   ,-1.3318  ,-2.5  ,4.8
1066  ,4.774e+07   ,-1.0852  ,-2.5  ,4.8
1067  ,8.214e+07   ,-0.84195  ,-2.5  ,4.8
1068  ,8.018e+07   ,-0.60329  ,-2.5  ,4.8
1069  ,9.752e+07   ,-0.3643  ,-2.5  ,4.8
1070  ,1.354e+08   ,-0.12055  ,-2.5  ,4.8
1071  ,1.382e+08   ,0.12056  ,-2.5  ,4.8
1072  ,1.469e+08   ,0.3643  ,-2.5  ,4.8
1073  ,1.704e+08   ,0.6033  ,-2.5  ,4.8
1074  ,1.183e+08   ,0.84195  ,-2.5  ,4.8
1075  ,5.352e+07   ,1.0852  ,-2.5  ,4.8
1076  ,8.195e+07   ,1.3318  ,-2.5  ,4.8
1077  ,9.751e+07   ,1.5745  ,-2.5  ,4.8
1078  ,1.751e+08   ,1.8129  ,-2.5  ,4.8
1079  ,1.349e+08   ,2.053  ,-2.5  ,4.8
1080  ,1.311e+08   ,2.3  ,-2.5  ,4.553
1081  ,1.656e+08   ,2.3  ,-2.5  ,4.3129
1082  ,1.000e+08   ,2.3  ,-2.5  ,4.0745
1083  ,1.044e+08   ,2.3  ,-2.5  ,3.8318
1084  ,6.379e+07   ,2.3  ,-2.5  ,3.5852
1085  ,8.984e+07   ,2.3  ,-2.5  ,3.3419
1086  ,1.356e+08   ,2.3  ,-2.5  ,3.1033
1087  ,1.332e+08   ,2.3  ,-2.5  ,2.8643
1088  ,1.278e+08   ,2.3  ,-2.5  ,2.6206
1089  ,1.303e+08   ,2.3  ,-2.5  ,2.3794
1090  ,9.605e+07   ,2.3  ,-2.5  ,2.1357
1091  ,7.729e+07   ,2.3  ,-2.5  ,1.8967
1092  ,6.368e+07   ,2.3  ,-2.5  ,1.658
1093  ,4.715e+07   ,2.3  ,-2.5  ,1.4148
1094  ,4.567e+07   ,2.3  ,-2.5  ,1.1682
1095  ,4.375e+07   ,2.3  ,-2.5  ,0.92554
1096  ,3.355e+07   ,2.3  ,-2.5  ,0.68705
1097  ,2.076e+07   ,2.3  ,-2.5  ,0.44697
1098  ,5.447e+05   ,-2.053  ,-2.5  ,0.2
1099  ,7.780e+05   ,-1.8129  ,-2.5  ,0.2
1100  ,1.596e+06   ,-1.5745  ,-2.5  ,0.2
1101  ,2.494e+06   ,-1.3318  ,-2.5  ,0.2
1102  ,1.596e+06   ,-1.0852  ,-2.5  ,0.2
1103  ,2.513e+06   ,-0.84195  ,-2.5  ,0.2
1104  ,2.045e+06   ,-0.60329  ,-2.5  ,0.2
1105  ,1.114e+06   ,-0.3643  ,-2.5  ,0.2
1106  ,8.374e+05   ,-0.12055  ,-2.5  ,0.2
1107  ,1.449e+06   ,0.12056  ,-2.5  ,0.2
1108  ,1.637e+06   ,0.3643  ,-2.5  ,0.2
1109  ,2.352e+06   ,0.6033  ,-2.5  ,0.2
1110  ,4.459e+06   ,0.84195  ,-2.5  ,0.2
1111  ,4.784e+06   ,1.0852  ,-2.5  ,0.2
1112  ,3.154e+06   ,1.3318  ,-2.5  ,0.2
1113  ,5.568e+06   ,1.5745  ,-2.5  ,0.2
1114  ,5.186e+06   ,1.8129  ,-2.5  ,0.2
1115  ,9.626e+06   ,2.053  ,-2.5  ,0.2
1116  ,2.589e+07   ,-2.2  ,-2.5  ,4.9
1117  ,3.847e+07   ,-2  ,-2.5  ,4.9
1118  ,5.243e+07   ,-1.8  ,-2.5  ,4.9
1119  ,3.874e+07   ,-1.6  ,-2.5  ,4.9
1120  ,4.606e+07   ,-1.4  ,-2.5  ,4.9
1121  ,5.596e+07   ,-1.2  ,-2.5  ,4.9
1122  ,9.279e+07   ,-1  ,-2.5  ,4.9
1123  ,1.241e+08   ,-0.8  ,-2.5  ,4.9
1124  ,1.034e+08   ,-0.6  ,-2.5  ,4.9
1125  ,9.334e+07   ,-0.4  ,-2.5  ,4.9
1126  ,1.257e+08   ,-0.2  ,-2.5  ,4.9
1127  ,1.559e+08   ,-1.7664E-15  ,-2.5  ,4.9
1128  ,1.474e+08   ,0.2  ,-2.5  ,4.9
1129  ,1.449e+08   ,0.4  ,-2.5  ,4.9
1130  ,1.255e+08   ,0.6  ,-2.5  ,4.9
1131  ,1.249e+08   ,0.8  ,-2.5  ,4.9
1132  ,8.377e+07   ,1  ,-2.5  ,4.9
1133  ,9.446e+07   ,1.2  ,-2.5  ,4.9
1134  ,1.215e+08   ,1.4  ,-2.5  ,4.9
1135  ,1.591e+08   ,1.6  ,-2.5  ,4.9
1136  ,1.305e+08   ,1.8  ,-2.5  ,4.9
1137  ,1.307e+08   ,2  ,-2.5  ,4.9
1138  ,1.539e+08   ,2.2  ,-2.5  ,4.9
1139  ,1.236e+07   ,-2.4  ,-2.5  ,4.7
1140  ,6.052e+06   ,-2.4  ,-2.5  ,4.5
1141  ,4.506e+06   ,-2.4  ,-2.5  ,4.3
1142  ,6.282e+06   ,-2.4  ,-2.5  ,4.1
1143  ,5.340e+06   ,-2.4  ,-2.5  ,3.9
1144  ,4.685e+06   ,-2.4  ,-2.5  ,3.7
1145  ,2.746e+06   ,-2.4  ,-2.5  ,3.5
1146  ,1.133e+06   ,-2.4  ,-2.5  ,3.3
1147  ,1.041e+06   ,-2.4  ,-2.5  ,3.1
1148  ,9.394e+05   ,-2.4  ,-2.5  ,2.9
1149  ,8.089e+05   ,-2.4  ,-2.5  ,2.7
1150  ,4.885e+05   ,-2.4  ,-2.5  ,2.5
1151  ,6.968e+05   ,-2.4  ,-2.5  ,2.3
1152  ,4.791e+05   ,-2.4  ,-2.5  ,2.1
1153  ,5.351e+05   ,-2.4  ,-2.5  ,1.9
1154  ,5.037e+05   ,-2.4  ,-2.5  ,1.7
1155  ,2.352e+05   ,-2.4  ,-2.5  ,1.5
1156  ,4.236e+05   ,-2.4  ,-2.5  ,1.3
1157  ,3.986e+05   ,-2.4  ,-2.5  ,1.1
1158  ,2.537e+05   ,-2.4  ,-2.5  ,0.9
1159  ,2.041e+05   ,-2.4  ,-2.5  ,0.7
1160  ,2.042e+05   ,-2.4  ,-2.5  ,0.5
1161  ,3.585e+05   ,-2.4  ,-2.5  ,0.3
1162  ,2.657e+05   ,-2.2  ,-2.5  ,0.1
1163  ,8.263e+05   ,-2  ,-2.5  ,0.1
1164  ,7.232e+05   ,-1.8  ,-2.5  ,0.1
1165  ,1.054e+06   ,-1.6  ,-2.5  ,0.1
1166  ,2.120e+06   ,-1.4  ,-2.5  ,0.1
1167  ,2.194e+06   ,-1.2  ,-2.5  ,0.1
1168  ,2.648e+06   ,-1  ,-2.5  ,0.1
1169  ,2.568e+06   ,-0.8  ,-2.5  ,0.1
1170  ,1.505e+06   ,-0.6  ,-2.5  ,0.1
1171  ,1.394e+06   ,-0.4  ,-2.5  ,0.1
1172  ,1.301e+06   ,-0.2  ,-2.5  ,0.1
1173  ,1.437e+06   ,-1.7664E-15  ,-2.5  ,0.1
1174  ,1.803e+06   ,0.2  ,-2.5  ,0.1
1175  ,2.266e+06   ,0.4  ,-2.5  ,0.1
1176  ,2.545e+06   ,0.6  ,-2.5  ,0.1
1177  ,4.144e+06   ,0.8  ,-2.5  ,0.1
1178  ,5.194e+06   ,1  ,-2.5  ,0.1
1179  ,5.455e+06   ,1.2  ,-2.5  ,0.1
1180  ,5.902e+06   ,1.4  ,-2.5  ,0.1
1181  ,6.931e+06   ,1.6  ,-2.5  ,0.1
1182  ,6.449e+06   ,1.8  ,-2.5  ,0.1
1183  ,1.045e+07   ,2  ,-2.5  ,0.1
1184  ,7.310e+06   ,2.2  ,-2.5  ,0.1
1185  ,1.499e+08   ,2.4  ,-2.5  ,4.7
1186  ,1.164e+08   ,2.4  ,-2.5  ,4.5
1187  ,1.325e+08   ,2.4  ,-2.5  ,4.3
1188  ,1.321e+08   ,2.4  ,-2.5  ,4.1
1189  ,1.180e+08   ,2.4  ,-2.5  ,3.9
1190  ,9.385e+07   ,2.4  ,-2.5  ,3.7
1191  ,6.602e+07   ,2.4  ,-2.5  ,3.5
1192  ,7.794e+07   ,2.4  ,-2.5  ,3.3
1193  ,9.829e+07   ,2.4  ,-2.5  ,3.1
1194  ,1.342e+08   ,2.4  ,-2.5  ,2.9
1195  ,1.287e+08   ,2.4  ,-2.5  ,2.7
1196  ,1.355e+08   ,2.4  ,-2.5  ,2.5
1197  ,1.151e+08   ,2.4  ,-2.5  ,2.3
1198  ,9.344e+07   ,2.4  ,-2.5  ,2.1
1199  ,1.097e+08   ,2.4  ,-2.5  ,1.9
1200  ,1.235e+08   ,2.4  ,-2.5  ,1.7
1201  ,8.085e+07   ,2.4  ,-2.5  ,1.5
1202  ,4.592e+07   ,2.4  ,-2.5  ,1.3
1203  ,4.773e+07   ,2.4  ,-2.5  ,1.1
1204  ,3.891e+07   ,2.4  ,-2.5  ,0.9
1205  ,2.474e+07   ,2.4  ,-2.5  ,0.7
1206  ,2.485e+07   ,2.4  ,-2.5  ,0.5
1207  ,1.590e+07   ,2.4  ,-2.5  ,0.3
1208  ,1.471e+07   ,2.4  ,-2.2  ,0
1209  ,2.714e+07   ,2.4  ,-2  ,0
1210  ,3.205e+07   ,2.4  ,-1.8  ,0
1211  ,1.720e+07   ,2.4  ,-1.6  ,0
1212  ,2.644e+07   ,2.4  ,-1.4  ,0
1213  ,3.961e+07   ,2.4  ,-1.2  ,0
1214  ,5.382e+07   ,2.4  ,-1  ,0
1215  ,7.123e+07   ,2.4  ,-0.8  ,0
1216  ,9.554e+07   ,2.4  ,-0.6  ,0
1217  ,1.712e+08   ,2.4  ,-0.4  ,0
1218  ,1.202e+08   ,2.4  ,-0.2  ,0
1219  ,1.094e+08   ,2.4  ,-1.7664E-15  ,0
1220  ,1.031e+08   ,2.4  ,0.2  ,0
1221  ,1.216e+08   ,2.4  ,0.4  ,0
1222  ,1.376e+08   ,2.4  ,0.6  ,0
1223  ,1.543e+08   ,2.4  ,0.8  ,0
1224  ,1.818e+08   ,2.4  ,1  ,0
1225  ,1.728e+08   ,2.4  ,1.2  ,0
1226  ,1.734e+08   ,2.4  ,1.4  ,0
1227  ,1.584e+08   ,2.4  ,1.6  ,0
1228  ,1.212e+08   ,2.4  ,1.8  ,0
1229  ,1.331e+08   ,2.4  ,2  ,0
1230  ,2.261e+08   ,2.4  ,2.2  ,0
1231  ,2.953e+05   ,-2.2  ,-2.4  ,0
1232  ,7.625e+05   ,-2  ,-2.4  ,0
1233  ,6.697e+05   ,-1.8  ,-2.4  ,0
1234  ,1.597e+06   ,-1.6  ,-2.4  ,0
1235  ,2.250e+06   ,-1.4  ,-2.4  ,0
1236  ,2.638e+06   ,-1.2  ,-2.4  ,0
1237  ,3.738e+06   ,-1  ,-2.4  ,0
1238  ,3.301e+06   ,-0.8  ,-2.4  ,0
1239  ,2.112e+06   ,-0.6  ,-2.4  ,0
1240  ,1.753e+06   ,-0.4  ,-2.4  ,0
1241  ,1.994e+06   ,-0.2  ,-2.4  ,0
1242  ,1.841e+06   ,5.8879E-16  ,-2.4  ,0
1243  ,2.301e+06   ,0.2  ,-2.4  ,0
1244  ,3.259e+06   ,0.4  ,-2.4  ,0
1245  ,4.624e+06   ,0.6  ,-2.4  ,0
1246  ,5.784e+06   ,0.8  ,-2.4  ,0
1247  ,6.131e+06   ,1  ,-2.4  ,0
1248  ,6.432e+06   ,1.2  ,-2.4  ,0
1249  ,7.507e+06   ,1.4  ,-2.4  ,0
1250  ,9.240e+06   ,1.6  ,-2.4  ,0
1251  ,1.057e+07   ,1.8  ,-2.4  ,0
1252  ,1.284e+07   ,2  ,-2.4  ,0
1253  ,1.134e+07   ,2.2  ,-2.4  ,0
1254  ,6.561e+07   ,-2.4  ,2.2  ,0
1255  ,3.083e+07   ,-2.4  ,2  ,0
1256  ,2.350e+07   ,-2.4  ,1.8  ,0
1257  ,2.418e+07   ,-2.4  ,1.6  ,0
1258  ,2.582e+07   ,-2.4  ,1.4  ,0
1259  ,2.589e+07   ,-2.4  ,1.2  ,0
1260  ,1.870e+07   ,-2.4  ,1  ,0
1261  ,4.988e+06   ,-2.4  ,0.8  ,0
1262  ,7.526e+06   ,-2.4  ,0.6  ,0
1263  ,5.093e+06   ,-2.4  ,0.4  ,0
1264  ,3.727e+06   ,-2.4  ,0.2  ,0
1265  ,8.592e+05   ,-2.4  ,5.8879E-16  ,0
1266  ,6.562e+06   ,-2.4  ,-0.2  ,0
1267  ,1.187e+07   ,-2.4  ,-0.4  ,0
1268  ,1.019e+06   ,-2.4  ,-0.6  ,0
1269  ,4.730e+06   ,-2.4  ,-0.8  ,0
1270  ,5.068e+06   ,-2.4  ,-1  ,0
1271  ,2.582e+06   ,-2.4  ,-1.2  ,0
1272  ,1.835e+06   ,-2.4  ,-1.4  ,0
1273  ,2.201e+06   ,-2.4  ,-1.6  ,0
1274  ,3.527e+05   ,-2.4  ,-1.8  ,0
1275  ,7.863e+05   ,-2.4  ,-2  ,0
1276  ,2.410e+05   ,-2.4  ,-2.2  ,0
1277  ,2.031e+08   ,2.2  ,2.4  ,0
1278  ,1.868e+08   ,2  ,2.4  ,0
1279  ,2.003e+08   ,1.8  ,2.4  ,0
1280  ,1.334e+08   ,1.6  ,2.4  ,0
1281  ,1.121e+08   ,1.4  ,2.4  ,0
1282  ,1.525e+08   ,1.2  ,2.4  ,0
1283  ,1.658e+08   ,1  ,2.4  ,0
1284  ,2.083e+08   ,0.8  ,2.4  ,0
1285  ,1.758e+08   ,0.6  ,2.4  ,0
1286  ,1.334e+08   ,0.4  ,2.4  ,0
1287  ,8.525e+07   ,0.2  ,2.4  ,0
1288  ,1.052e+08   ,5.8879E-16  ,2.4  ,0
1289  ,8.182e+07   ,-0.2  ,2.4  ,0
1290  ,7.589e+07   ,-0.4  ,2.4  ,0
1291  ,1.018e+08   ,-0.6  ,2.4  ,0
1292  ,1.723e+08   ,-0.8  ,2.4  ,0
1293  ,1.144e+08   ,-1  ,2.4  ,0
1294  ,5.305e+07   ,-1.2  ,2.4  ,0
1295  ,4.238e+07   ,-1.4  ,2.4  ,0
1296  ,4.092e+07   ,-1.6  ,2.4  ,0
1297  ,3.952e+07   ,-1.8  ,2.4  ,0
1298  ,4.650e+07   ,-2  ,2.4  ,0
1299  ,3.729e+07   ,-2.2  ,2.4  ,0
1460  ,1.413e+10   ,2.3243  ,2.3243  ,4.9577
1461  ,1.382e+10   ,2.4577  ,2.3243  ,4.8243
1462  ,1.127e+10   ,2.3243  ,2.4577  ,4.8243
1463  ,2.890e+07   ,-2.3  ,-2.1759  ,4.8
1464  ,3.773e+07   ,-2.3  ,-1.7631  ,4.8
1465  ,7.824e+07   ,-2.3  ,-1.1827  ,4.8
1466  ,2.774e+08   ,-2.3  ,-0.34986  ,4.8
1467  ,3.268e+08   ,-2.3  ,0.80545  ,4.8
1468  ,7.591e+08   ,-0.81337  ,2.3  ,4.8
1469  ,2.476e+09   ,0.67326  ,2.3  ,4.8
1470  ,1.928e+08   ,2.3  ,-2.1824  ,4.8
1471  ,4.656e+08   ,2.3  ,-1.7784  ,4.8
1472  ,3.668e+08   ,2.3  ,-1.2138  ,4.8
1473  ,1.068e+09   ,2.3  ,-0.40752  ,4.8
1474  ,2.517e+09   ,2.3  ,0.70532  ,4.8
1516  ,7.539e+08   ,2.3  ,2.3  ,1.6866
1517  ,2.428e+09   ,2.3  ,2.3  ,3.1733
1518  ,3.514e+07   ,2.3  ,-2.1759  ,0.2
1519  ,3.214e+07   ,2.3  ,-1.7631  ,0.2
1520  ,5.828e+07   ,2.3  ,-1.1827  ,0.2
1521  ,2.504e+08   ,2.3  ,-0.34986  ,0.2
1522  ,2.986e+08   ,2.3  ,0.80545  ,0.2
1564  ,1.703e+08   ,-0.76667  ,2.3  ,0.2
1565  ,3.275e+08   ,0.76667  ,2.3  ,0.2
1566  ,1.396e+08   ,-2.3  ,2.3  ,1.7333
1567  ,3.198e+08   ,-2.3  ,2.3  ,3.2667
1574  ,5.648e+05   ,-2.3  ,-2.1759  ,0.2
1575  ,1.431e+06   ,-2.3  ,-1.7631  ,0.2
1576  ,2.497e+06   ,-2.3  ,-1.1827  ,0.2
1577  ,4.638e+06   ,-2.3  ,-0.34986  ,0.2
1578  ,2.730e+07   ,-2.3  ,0.80545  ,0.2
1777  ,3.741e+08   ,-0.52764  ,2.5  ,4.9
1801  ,2.077e+07   ,-2.3  ,1.5527  ,0.2
1825  ,8.425e+07   ,-1.5333  ,2.3  ,0.2
1841  ,9.612e+08   ,0.063638  ,2.5  ,4.9
1876  ,8.863e+07   ,-0.5  ,2.4  ,0
1894  ,5.762e+08   ,2.3  ,1.5527  ,0.2
1907  ,1.452e+08   ,2.1  ,2.5  ,0.1
1928  ,1.771e+08   ,1.9  ,2.4  ,0
1974  ,1.734e+08   ,2.4  ,1.1  ,0
1981  ,5.533e+08   ,2.4  ,2.5  ,0.59273
1987  ,1.677e+08   ,-2.5  ,2.4  ,4
2004  ,1.205e+08   ,-2.4  ,2.5  ,4.6
2009  ,1.623e+08   ,2.4  ,1.3  ,0
2020  ,1.740e+08   ,2.5  ,1.1  ,0.1
2035  ,3.081e+06   ,-2.3  ,-0.76628  ,0.2
2070  ,4.243e+09   ,1.6404  ,2.4  ,5
2081  ,3.205e+08   ,2.4  ,2.5  ,1.9724
2095  ,6.353e+08   ,2.4  ,2.5  ,0.78982
2138  ,3.735e+06   ,-2.4  ,-0.1  ,0
2146  ,2.305e+08   ,-0.92182  ,2.4  ,5
2174  ,4.945e+08   ,2.4  ,2.5  ,1.184
2190  ,5.821e+08   ,2.5  ,2.4  ,0.98691
2203  ,7.791e+08   ,2.5  ,-0.13345  ,4.9
2232  ,1.974e+09   ,2.3  ,0.1489  ,4.8
2242  ,1.200e+09   ,2.4  ,2.5  ,2.9578
2293  ,6.347e+06   ,-2.5  ,0.5  ,0.1
2311  ,2.033e+09   ,2.3  ,2.3  ,2.4299
2313  ,5.927e+08   ,2.5  ,2.4  ,0.78982
2329  ,7.261e+08   ,2.4  ,2.5  ,2.1695
2355  ,9.674e+07   ,-2.4  ,2.5  ,4.4
2380  ,1.507e+06   ,-2.5  ,-1.5  ,0.1
2383  ,1.155e+09   ,0.45782  ,2.5  ,4.9
2408  ,3.106e+08   ,2.3  ,-1.4961  ,4.8
2445  ,6.059e+08   ,2.5  ,-1.5131  ,4.9
2484  ,4.450e+05   ,-2.5  ,-2.4  ,1.6
2495  ,1.545e+08   ,-2.4  ,1.7  ,5
2508  ,1.029e+08   ,2.4  ,0.3  ,0
2514  ,3.315e+08   ,2.3  ,0.2278  ,0.2
2570  ,1.662e+08   ,-2.4  ,1.5  ,5
2580  ,4.141e+09   ,1.6404  ,2.5  ,4.9
2603  ,3.422e+08   ,-1.1189  ,2.5  ,4.9
2695  ,4.586e+08   ,2.3  ,2.3  ,0.94331
2705  ,3.362e+08   ,2.4  ,2.5  ,1.3811
2714  ,1.384e+09   ,2.5  ,0.45782  ,4.9
2734  ,5.583e+07   ,2.4  ,-0.9  ,0
2775  ,1.706e+08   ,2.5  ,-0.1  ,0.1
2779  ,1.098e+08   ,2.4  ,-0.1  ,0
2801  ,5.174e+09   ,1.4166  ,2.3  ,4.8
2814  ,2.933e+09   ,1.4433  ,2.5  ,4.9
2863  ,2.753e+07   ,-2.4  ,2.5  ,0.6
2884  ,3.689e+07   ,-2.4  ,2.5  ,0.8
2886  ,4.816e+07   ,-2.4  ,2.5  ,1.2
2967  ,1.276e+08   ,2.4  ,1.7  ,0
2973  ,1.828e+08   ,2.5  ,1.5  ,0.1
2987  ,1.238e+08   ,-0.3  ,2.5  ,0.1
3008  ,8.183e+07   ,-2.3  ,2.3  ,0.96667
3012  ,1.080e+08   ,-2.5  ,2.4  ,2.6
3021  ,1.120e+08   ,-2.5  ,2.4  ,2.8
3025  ,1.169e+08   ,-2.5  ,2.4  ,2.4
3030  ,1.401e+08   ,-2.4  ,2.5  ,2.4
3033  ,1.427e+08   ,-2.4  ,2.5  ,2.2
3047  ,8.555e+08   ,2.4  ,2.5  ,2.3665
3052  ,9.824e+08   ,2.5  ,2.4  ,2.5636
3061  ,8.953e+08   ,2.4  ,2.5  ,2.5636
3081  ,1.707e+08   ,-2.4  ,1.3  ,5
3088  ,5.002e+08   ,-1.9073  ,2.4  ,5
3099  ,1.334e+08   ,-2.4  ,1.9  ,5
3107  ,1.054e+08   ,-2.4  ,2.5  ,3.8
3139  ,6.581e+08   ,-1.5131  ,2.4  ,5
3145  ,6.615e+08   ,-1.5131  ,2.5  ,4.9
3148  ,5.893e+08   ,-1.7102  ,2.5  ,4.9
3168  ,2.420e+07   ,-2.4  ,1.5  ,0
3188  ,4.098e+05   ,-2.5  ,-2.4  ,1
3202  ,1.058e+09   ,0.26073  ,2.5  ,4.9
3212  ,4.351e+09   ,2.5  ,1.6404  ,4.9
3247  ,7.021e+09   ,2.5  ,1.8375  ,4.9
3265  ,5.441e+09   ,2.3  ,1.4326  ,4.8
3271  ,1.169e+10   ,2.2299  ,2.2299  ,4.8
3284  ,3.024e+09   ,2.4  ,1.4433  ,5
3291  ,3.041e+09   ,2.5  ,1.4433  ,4.9
3296  ,1.703e+08   ,-2.3  ,-0.76628  ,4.8
3303  ,6.988e+07   ,-2.4  ,-0.9  ,5
3311  ,7.279e+07   ,-2.4  ,-0.7  ,5
3315  ,1.366e+08   ,1.9  ,2.5  ,0.1
3336  ,4.160e+06   ,-2.4  ,0.3  ,0
3340  ,3.086e+06   ,-2.5  ,0.1  ,0.1
3344  ,1.913e+06   ,-2.4  ,0.1  ,0
3356  ,7.210e+07   ,-0.3  ,2.4  ,0
3361  ,6.951e+08   ,-0.33054  ,2.5  ,4.9
3364  ,7.412e+08   ,-0.13345  ,2.5  ,4.9
3383  ,1.864e+09   ,2.4  ,2.5  ,3.5491
3402  ,9.604e+09   ,2.4  ,2.5  ,4.5345
3421  ,5.463e+08   ,-1.316  ,2.5  ,4.9
3439  ,2.883e+09   ,2.5  ,2.4  ,3.9433
3447  ,2.983e+09   ,2.4  ,2.5  ,3.9433
3451  ,2.111e+09   ,2.4  ,2.5  ,3.7462
3468  ,2.926e+09   ,1.4433  ,2.4  ,5
3480  ,1.956e+09   ,1.0491  ,2.4  ,5
3519  ,1.651e+08   ,1.5  ,2.4  ,0
3527  ,4.014e+07   ,2.3  ,-1.4729  ,0.2
3550  ,3.815e+07   ,-1.7  ,2.4  ,0
3554  ,6.026e+07   ,-1.7  ,2.5  ,0.1
3558  ,3.622e+07   ,-1.5  ,2.4  ,0
3562  ,6.685e+07   ,-1.5  ,2.5  ,0.1
3574  ,1.604e+08   ,-2.4  ,2.1  ,5
3581  ,2.745e+07   ,-2.5  ,1.7  ,0.1
3583  ,2.472e+07   ,-2.5  ,1.9  ,0.1
3584  ,4.883e+08   ,-1.9073  ,2.5  ,4.9
3591  ,8.595e+07   ,2.5  ,0.3  ,0.1
3595  ,1.240e+08   ,2.5  ,0.1  ,0.1
3603  ,2.039e+10   ,2.4577  ,2.391  ,4.7576
3663  ,8.949e+05   ,-1.933  ,-2.5  ,0.2
3669  ,2.113e+05   ,-2.1765  ,-2.5  ,0.2
3672  ,4.336e+05   ,-2.3  ,-2.3379  ,0.2
3682  ,8.236e+05   ,-1.9  ,-2.4  ,0
3700  ,1.087e+08   ,2.3  ,-2.5  ,2.7424
3712  ,2.824e+07   ,-2.1  ,-2.5  ,4.9
3715  ,4.393e+07   ,-1.9  ,-2.5  ,4.9
3740  ,7.164e+07   ,-1.3  ,-2.4  ,5
3746  ,3.507e+07   ,-1.2085  ,-2.5  ,4.8
3755  ,4.557e+07   ,-1.5  ,-2.4  ,5
3760  ,5.521e+07   ,-1.7  ,-2.5  ,4.9
3786  ,2.063e+08   ,2.4  ,2.5  ,1.5782
3813  ,1.117e+09   ,0.26073  ,2.4  ,5
3858  ,1.697e+08   ,-0.9  ,-2.4  ,5
3863  ,8.507e+07   ,-2.5  ,0.9  ,4.9
3875  ,4.529e+07   ,-1.9  ,-2.4  ,5
3885  ,7.853e+07   ,2.4  ,-0.72473  ,5
3910  ,1.563e+06   ,-2.4  ,-2.5  ,3.4
3959  ,4.223e+09   ,2.5  ,2.4  ,4.1404
3969  ,1.922e+09   ,2.5  ,1.0491  ,4.9
3992  ,1.891e+10   ,2.391  ,2.2576  ,4.9577
3993  ,2.004e+10   ,2.4577  ,2.2576  ,4.891
4016  ,1.640e+08   ,-2.3015  ,2.5  ,4.9
4018  ,1.343e+08   ,-2.4  ,2.5  ,4.8
4021  ,2.276e+09   ,1.2462  ,2.4  ,5
4042  ,4.363e+07   ,2.4  ,-1.1  ,0
4046  ,1.379e+08   ,-0.9  ,2.4  ,0
4055  ,1.502e+08   ,1.7  ,-2.5  ,4.9
4087  ,2.002e+08   ,1.7  ,2.4  ,0
4114  ,5.526e+08   ,2.5  ,-0.33054  ,4.9
4120  ,1.201e+08   ,2.4  ,-2.5  ,1.8
4125  ,6.140e+08   ,2.4  ,2.5  ,0.98691
4144  ,6.315e+09   ,2.4  ,2.5  ,4.3375
4161  ,1.223e+08   ,-2.4  ,0.3  ,5
4201  ,7.411e+06   ,1.933  ,-2.5  ,0.2
4225  ,3.668e+05   ,-2.3  ,-2.4  ,0
4230  ,2.995e+05   ,-2.3  ,-2.5  ,0.56701
4269  ,1.171e+08   ,-0.9  ,-2.5  ,4.9
4277  ,1.064e+08   ,-1.1  ,-2.4  ,5
4288  ,1.725e+09   ,-0.070055  ,2.3  ,4.8
4328  ,5.824e+06   ,-2.5  ,-2.4  ,4.2
4336  ,6.267e+06   ,-2.5  ,-2.4  ,4.4
4342  ,6.655e+06   ,-2.5  ,-2.4  ,4.6
4348  ,7.532e+06   ,-2.4  ,-2.4707  ,4.9707
4352  ,1.968e+07   ,-2.3  ,-2.5  ,4.9
4354  ,1.923e+07   ,-2.1765  ,-2.5  ,4.8
4355  ,1.211e+07   ,-2.3  ,-2.3379  ,4.8
4362  ,5.451e+08   ,2.5  ,2.4  ,0.59273
4364  ,1.461e+08   ,2.5  ,-2.4  ,2.4
4366  ,1.623e+08   ,2.5  ,-2.4  ,2.2
4372  ,1.135e+08   ,2.4  ,-2.5  ,2.2
4385  ,3.324e+05   ,-2.5  ,-1.9  ,0.1
4399  ,5.140e+07   ,-2.5  ,2.1  ,0.1
4407  ,2.901e+06   ,-0.7  ,-2.4  ,0
4436  ,4.629e+06   ,-2.5  ,-0.1  ,0.1
4462  ,4.184e+08   ,-2.3  ,2.3  ,4.0333
4491  ,2.193e+08   ,2.5  ,-0.52764  ,4.9
4494  ,8.731e+07   ,2.5  ,-2.4  ,1.4
4503  ,5.457e+07   ,2.4  ,-2.5  ,1.4
4508  ,4.585e+07   ,2.4  ,-2.5  ,1.2
4515  ,2.102e+08   ,2.5  ,-2.4  ,1.8
4517  ,9.409e+07   ,2.4  ,-2.5  ,1.6
4522  ,5.066e+06   ,0.7  ,-2.4  ,0
4538  ,3.952e+08   ,-1.1189  ,2.4  ,5
4546  ,3.744e+09   ,2.4  ,2.5  ,4.1404
4559  ,9.539e+06   ,1.7  ,-2.4  ,0
4590  ,3.624e+06   ,0.5  ,-2.4  ,0
4631  ,1.238e+08   ,2.4  ,-2.5  ,2.6
4634  ,1.019e+08   ,2.5  ,-2.4  ,2.8
4657  ,7.131e+05   ,-2.5  ,-2.4  ,2
4660  ,8.902e+05   ,-2.5  ,-2.4  ,1.8
4664  ,1.859e+06   ,-0.3  ,-2.4  ,0
4675  ,9.275e+06   ,-2.4  ,-2.5  ,4.8
4681  ,7.643e+06   ,-2.5  ,-0.3  ,0.1
4684  ,2.132e+08   ,1.7  ,-2.4  ,5
4703  ,1.125e+08   ,-2.4  ,0.7  ,5
4707  ,7.410e+07   ,-2.5  ,0.3  ,4.9
4714  ,5.036e+08   ,2.4  ,-0.33054  ,5
4723  ,5.200e+08   ,-1.5567  ,2.3  ,4.8
4739  ,3.861e+08   ,-2.1044  ,2.5  ,4.9
4763  ,4.216e+07   ,-1.9  ,2.4  ,0
4780  ,5.816e+05   ,-2.3  ,-1.9695  ,0.2
4782  ,1.592e+05   ,-2.4707  ,-2.4  ,0.029289
4784  ,7.126e+05   ,-2.4  ,-1.9  ,0
4791  ,5.584e+05   ,-2.4  ,-2.5  ,1.8
4796  ,2.600e+07   ,2.4707  ,-2.4707  ,4.9
4799  ,1.027e+08   ,2.5  ,-2.4  ,4.8
4806  ,8.863e+07   ,2.3  ,-2.5  ,4.9
4809  ,5.341e+09   ,2.3  ,2.3  ,3.9166
4833  ,3.049e+07   ,-2.4  ,2.5  ,0.4
4841  ,1.380e+08   ,-2.4  ,2.5  ,2.6
4846  ,1.405e+08   ,-2.5  ,2.1  ,4.9
4848  ,1.520e+08   ,-2.5  ,2.3  ,4.9
4849  ,1.493e+08   ,-2.5  ,2.4  ,4.8
4893  ,1.027e+08   ,-2.4  ,2.5  ,4.2
4897  ,1.000e+10   ,2.3333  ,2.1998  ,5
4900  ,1.981e+10   ,2.391  ,2.4577  ,4.7576
4908  ,1.949e+10   ,2.2576  ,2.391  ,4.9577
4911  ,2.019e+10   ,2.2576  ,2.4577  ,4.891
4926  ,2.329e+07   ,-2.5  ,2.4  ,1
4932  ,1.034e+08   ,-2.4  ,2.5  ,1.6
4937  ,7.339e+07   ,-1.1  ,2.5  ,0.1
4939  ,1.145e+10   ,2.3  ,2.2299  ,4.7299
4944  ,1.897e+08   ,2.5  ,-1.9073  ,4.9
4987  ,4.607e+08   ,-2.3  ,1.5527  ,4.8
5010  ,2.592e+10   ,2.4973  ,2.1331  ,4.923
5013  ,9.524e+09   ,2.5  ,2.0345  ,4.9
5017  ,1.046e+10   ,2.4  ,2.0345  ,5
5035  ,6.033e+06   ,1.3  ,-2.4  ,0
5038  ,4.459e+06   ,1.2085  ,-2.5  ,0.2
5092  ,4.387e+05   ,-2.4  ,-2.5  ,1.2
5123  ,2.752e+07   ,2.5  ,-2.4  ,0.6
5151  ,5.615e+06   ,-2.5  ,-0.5  ,0.1
5160  ,1.273e+06   ,-2.5  ,-0.7  ,0.1
5164  ,1.122e+08   ,-2.4  ,0.9  ,5
5168  ,1.296e+08   ,-2.4  ,0.5  ,5
5176  ,8.380e+07   ,2.5  ,-0.7  ,0.1
5179  ,1.384e+08   ,2.4  ,-0.5  ,0
5189  ,1.330e+08   ,2.4  ,-2.5  ,2.4
5194  ,9.683e+07   ,2.3  ,-2.5  ,2.2576
5198  ,4.277e+05   ,-2.3  ,-2.5  ,0.32348
5205  ,2.804e+05   ,-2.4  ,-2.5  ,0.2
5207  ,5.462e+05   ,-2.1  ,-2.5  ,0.1
5246  ,1.403e+08   ,-2.5  ,2.4  ,3.2
5257  ,1.514e+08   ,-2.5  ,1.5  ,4.9
5263  ,4.248e+06   ,-2.3  ,0.2278  ,0.2
5272  ,3.999e+06   ,-2.5  ,0.3  ,0.1
5275  ,7.949e+07   ,-2.5  ,0.5  ,4.9
5281  ,5.227e+09   ,1.8375  ,2.5  ,4.9
5297  ,1.520e+08   ,-0.9  ,2.5  ,0.1
5306  ,1.395e+08   ,-0.7  ,2.4  ,0
5309  ,1.555e+08   ,-0.5  ,2.5  ,0.1
5324  ,1.022e+09   ,2.4  ,2.5  ,2.7607
5332  ,3.605e+07   ,2.5  ,-2.4  ,0.8
5334  ,4.764e+07   ,2.4  ,-2.5  ,1
5360  ,3.853e+08   ,2.4  ,-1.7102  ,5
5362  ,5.948e+08   ,2.4  ,-1.5131  ,5
5368  ,5.580e+09   ,2.4  ,1.8375  ,5
5371  ,3.285e+10   ,2.4325  ,2.4888  ,4.6656
5372  ,1.180e+10   ,2.3333  ,2.5  ,4.6998
5376  ,1.556e+10   ,2.4707  ,2.4707  ,4.6331
5377  ,1.053e+10   ,2.5  ,2.4  ,4.5345
5379  ,4.567e+07   ,-1.5  ,-2.5  ,4.9
5406  ,2.283e+06   ,-2.5  ,-2.4  ,3.4
5420  ,1.890e+06   ,-2.3  ,-2.5  ,3.2226
5423  ,7.699e+06   ,1.5  ,-2.4  ,0
5502  ,1.548e+05   ,-2.5  ,-2.3  ,0.1
5504  ,2.391e+05   ,-2.5  ,-2.4  ,0.2
5506  ,3.421e+05   ,-2.4  ,-2.3  ,0
5511  ,5.081e+05   ,-2.5  ,-2.1  ,0.1
5513  ,5.581e+06   ,-2.4  ,0.5  ,0
5517  ,3.074e+06   ,-0.9  ,-2.5  ,0.1
5532  ,9.921e+07   ,-2.4707  ,2.4707  ,4.9
5534  ,7.163e+07   ,2.4  ,-0.7  ,0
5551  ,1.104e+08   ,2.5  ,-2.4  ,3.8
5566  ,3.567e+08   ,2.5  ,2.4  ,1.3811
5603  ,1.522e+08   ,2.4  ,-0.3  ,0
5617  ,3.894e+07   ,-2.1  ,2.5  ,0.1
5637  ,3.485e+07   ,-2.3  ,-1.9695  ,4.8
5641  ,5.836e+07   ,2.3  ,-2.5  ,3.4636
5645  ,5.534e+05   ,-2.4  ,-2.5  ,2
5649  ,6.766e+05   ,-2.4  ,-2.5  ,2.2
5659  ,3.034e+05   ,-2.3  ,-2.5  ,1.7774
5662  ,1.411e+08   ,2.1765  ,-2.5  ,4.8
5666  ,8.775e+07   ,2.4  ,-2.5  ,4.8
5669  ,1.240e+08   ,2.3  ,-2.3412  ,4.8
5695  ,7.891e+06   ,-2.4  ,0.7  ,0
5701  ,8.071e+07   ,-2.5  ,2.4  ,1.6
5715  ,1.604e+08   ,-2.4  ,2.5  ,1.8
5726  ,2.377e+08   ,-0.7  ,2.5  ,0.1
5727  ,7.679e+07   ,-1.1  ,2.4  ,0
5730  ,7.793e+07   ,2.3  ,-2.5  ,1.7774
5746  ,1.100e+08   ,2.5  ,2.4  ,1.7753
5755  ,1.846e+08   ,2.5  ,-2.4  ,4.4
5763  ,1.309e+08   ,2.4  ,-2.5  ,4.4
5773  ,2.019e+09   ,1.0491  ,2.5  ,4.9
5791  ,1.005e+08   ,-0.72473  ,2.4  ,5
5795  ,5.624e+09   ,1.8375  ,2.4  ,5
5803  ,1.556e+08   ,-0.3  ,-2.4  ,5
5810  ,4.183e+09   ,2.4  ,1.6404  ,5
5836  ,1.280e+08   ,-2.5  ,1.3  ,4.9
5860  ,1.597e+08   ,2.5  ,-2.4  ,1.6
5866  ,6.954e+06   ,1.5  ,-2.5  ,0.1
5884  ,2.641e+08   ,-2.4  ,-0.3  ,5
5888  ,1.489e+08   ,-2.5  ,-0.5  ,4.9
5901  ,1.201e+08   ,2.3  ,-2.5  ,2.5
5908  ,5.845e+07   ,2.5  ,-2.4  ,1.2
5909  ,1.995e+08   ,2.5  ,-2.4  ,2
5934  ,1.373e+08   ,1.9  ,-2.5  ,4.9
5938  ,1.571e+08   ,1.933  ,-2.5  ,4.8
5948  ,7.871e+06   ,-2.4  ,-2.5  ,4.6
5950  ,3.384e+06   ,-2.4707  ,-2.4707  ,4.9
5951  ,4.546e+06   ,-2.5  ,-2.4  ,4.8
5952  ,5.635e+06   ,-2.5  ,-2.3  ,4.9
5986  ,7.972e+07   ,2.3  ,-2.5  ,3.7085
5990  ,2.914e+08   ,-0.92182  ,2.5  ,4.9
6019  ,1.476e+08   ,2.5  ,1.9  ,0.1
6025  ,3.566e+07   ,2.4  ,-1.3  ,0
6035  ,1.875e+08   ,-2.5  ,1.9  ,4.9
6044  ,1.462e+08   ,0.1  ,2.5  ,0.1
6054  ,1.083e+08   ,2.4  ,0.1  ,0
6070  ,4.450e+07   ,-2.4  ,2.3  ,0
6071  ,2.486e+07   ,-2.3  ,2.4  ,0
6076  ,4.252e+07   ,-2.4  ,2.1  ,0
6083  ,1.019e+07   ,2.1  ,-2.4  ,0
6084  ,1.846e+08   ,2.4  ,2.3  ,0
6087  ,1.703e+08   ,2.3  ,2.4  ,0
6092  ,2.180e+05   ,-2.4  ,-2.5  ,0.4
6096  ,3.000e+05   ,-2.3  ,-2.5  ,0.1
6099  ,3.424e+06   ,0.7  ,-2.5  ,0.1
6149  ,5.229e+06   ,-2.4  ,-0.9  ,0
6159  ,6.179e+05   ,-2.5  ,-2.4  ,2.6
6183  ,2.224e+09   ,1.2462  ,2.5  ,4.9
6224  ,1.490e+08   ,2.5  ,-2.4  ,4
6228  ,1.039e+08   ,2.4  ,-2.5  ,3.8
6237  ,1.582e+08   ,2.5  ,0.7  ,0.1
6241  ,1.199e+10   ,2.5  ,2.3333  ,4.6998
6245  ,1.675e+08   ,2.5  ,2.4  ,1.5782
6259  ,8.035e+07   ,2.5  ,-2.1044  ,4.9
6265  ,3.857e+08   ,2.3  ,-1.9804  ,4.8
6267  ,7.414e+07   ,2.5  ,-2.3015  ,4.9
6268  ,3.776e+07   ,2.4707  ,-2.4  ,4.9707
6270  ,9.127e+07   ,2.4  ,-2.1044  ,5
6317  ,2.347e+08   ,-2.3  ,0.2278  ,4.8
6349  ,3.656e+08   ,-0.52764  ,2.4  ,5
6391  ,1.350e+08   ,2.4  ,2.5  ,1.7753
6440  ,1.573e+08   ,-2.5  ,2.4  ,3.8
6471  ,1.242e+08   ,2.5  ,-0.92182  ,4.9
6489  ,2.359e+09   ,2.5  ,1.2462  ,4.9
6523  ,2.758e+06   ,-1.1  ,-2.4  ,0
6528  ,2.177e+06   ,-1.1  ,-2.5  ,0.1
6535  ,3.459e+06   ,-0.9  ,-2.4  ,0
6538  ,1.916e+08   ,1.5  ,-2.4  ,5
6541  ,1.371e+08   ,1.5  ,-2.5  ,4.9
6551  ,1.885e+08   ,2.5  ,-0.72473  ,4.9
6564  ,2.697e+10   ,2.1331  ,2.4973  ,4.923
6565  ,9.934e+09   ,2.0345  ,2.5  ,4.9
6572  ,2.327e+07   ,2.4  ,-1.7  ,0
6581  ,3.189e+08   ,0  ,2.3  ,0.2
6592  ,3.701e+07   ,2.3  ,-1.9695  ,0.2
6594  ,9.768e+07   ,0.3  ,2.4  ,0
6601  ,1.792e+08   ,0.5  ,2.5  ,0.1
6605  ,7.975e+05   ,-2.4  ,-1.3  ,0
6606  ,4.012e+06   ,-2.4  ,-1.1  ,0
6615  ,1.050e+07   ,-2.4  ,-0.3  ,0
6634  ,1.395e+08   ,2.1  ,-2.5  ,4.9
6635  ,2.302e+07   ,2.4  ,-2.4707  ,4.9707
6636  ,8.415e+07   ,2.3  ,-2.4  ,5
6647  ,2.506e+06   ,0.5  ,-2.5  ,0.1
6704  ,1.024e+07   ,-2.4707  ,2.4707  ,0.1
6708  ,2.646e+07   ,-2.5  ,2.4  ,0.2
6712  ,1.324e+08   ,-2.4  ,2.5  ,3.6
6715  ,1.929e+08   ,-2.4  ,2.5  ,3.4
6728  ,1.086e+08   ,-2.5  ,0.7  ,4.9
6753  ,3.769e+08   ,-2.1044  ,2.4  ,5
6788  ,6.787e+09   ,2.5  ,2.4  ,4.3375
6791  ,5.019e+07   ,-1.933  ,-2.5  ,4.8
6795  ,1.114e+10   ,2.1998  ,2.5  ,4.8333
6837  ,2.891e+05   ,-2.3  ,-2.5  ,0.8063
6869  ,3.783e+08   ,2.5  ,-1.7102  ,4.9
6873  ,1.990e+08   ,2.4  ,-1.9073  ,5
6880  ,1.436e+08   ,2.4  ,-0.92182  ,5
6885  ,2.147e+08   ,2.4  ,-0.52764  ,5
6893  ,1.998e+09   ,2.4  ,1.2462  ,5
6914  ,1.914e+08   ,0.7  ,2.5  ,0.1
6920  ,1.894e+08   ,0.9  ,2.4  ,0
6923  ,1.864e+08   ,0.7  ,2.4  ,0
6936  ,7.545e+07   ,2.4  ,-2.5  ,3.4
6939  ,1.173e+08   ,2.3  ,-2.5  ,3.2226
6961  ,1.493e+08   ,-0.1  ,-2.5  ,4.9
6967  ,2.400e+07   ,-2.5  ,-1.5  ,4.9
6975  ,1.467e+08   ,-2.4  ,1.1  ,5
6978  ,1.689e+07   ,-2.4  ,2.5  ,0.2
6987  ,5.854e+08   ,2.4  ,-1.316  ,5
6994  ,1.709e+07   ,2.4  ,-1.5  ,0
7004  ,7.384e+07   ,2.4  ,-2.5  ,3.6
7011  ,1.662e+09   ,2.4  ,0.65491  ,5
7016  ,1.453e+09   ,2.4  ,0.45782  ,5
7019  ,6.943e+08   ,2.5  ,2.4  ,2.1695
7021  ,3.525e+08   ,2.5  ,2.4  ,1.9724
7052  ,6.401e+07   ,-1.3  ,2.5  ,0.1
7054  ,1.663e+05   ,-2.4  ,-2.5  ,0.8
7057  ,2.104e+06   ,0.3  ,-2.5  ,0.1
7065  ,1.725e+06   ,0.24243  ,-2.5  ,0.2
7075  ,3.270e+10   ,2.4888  ,2.4325  ,4.6656
7113  ,5.183e+05   ,-2.4  ,-2.5  ,2.6
7121  ,8.058e+05   ,-2.4  ,-2.5  ,2.8
7126  ,1.207e+06   ,-2.5  ,-2.4  ,2.8
7128  ,1.599e+05   ,-2.4707  ,-2.4707  ,0.1
7129  ,2.499e+05   ,-2.4  ,-2.4707  ,0.029289
7141  ,5.268e+07   ,-1.7  ,-2.4  ,5
7145  ,1.545e+08   ,1.1  ,2.4  ,0
7163  ,5.859e+08   ,-1.7102  ,2.4  ,5
7172  ,8.490e+07   ,2.5  ,-2.4  ,3.2
7174  ,1.585e+08   ,-2.5  ,2.4  ,3.6
7183  ,4.558e+07   ,-1.4531  ,-2.5  ,4.8
7204  ,7.369e+08   ,2.3  ,-0.81068  ,4.8
7220  ,1.034e+09   ,2.5  ,0.063638  ,4.9
7227  ,4.764e+07   ,2.5  ,-1.9  ,0.1
7256  ,1.542e+08   ,-0.1  ,-2.4  ,5
7280  ,6.571e+08   ,-0.33054  ,2.4  ,5
7299  ,3.149e+08   ,2.5  ,-1.1189  ,4.9
7316  ,2.391e+05   ,-2.5  ,-2.4  ,0.8
7323  ,3.201e+05   ,-2.4  ,-2.5  ,1
7396  ,1.228e+08   ,1.1  ,-2.4  ,5
7400  ,8.147e+06   ,-2.5  ,0.7  ,0.1
7409  ,1.438e+08   ,1.3  ,-2.4  ,5
7420  ,1.459e+08   ,2.5  ,2.1  ,0.1
7429  ,1.203e+08   ,2.4  ,1.9  ,0
7436  ,5.197e+07   ,2.5  ,-1.7  ,0.1
7438  ,1.460e+08   ,2.4  ,-2.5  ,2.8
7445  ,2.756e+10   ,2.4325  ,2.1656  ,4.9888
7464  ,2.007e+07   ,2.5  ,-1.5  ,0.1
7480  ,1.935e+07   ,2.5  ,-2.4  ,0.2
7482  ,5.260e+06   ,1.9  ,-2.5  ,0.1
7483  ,6.824e+06   ,1.7  ,-2.5  ,0.1
7486  ,2.056e+08   ,1.9  ,-2.4  ,5
7488  ,1.356e+08   ,1.6937  ,-2.5  ,4.8
7492  ,2.058e+08   ,2.1  ,-2.4  ,5
7495  ,1.847e+06   ,0.1  ,-2.5  ,0.1
7504  ,2.584e+06   ,0.3  ,-2.4  ,0
7507  ,5.910e+06   ,0.9  ,-2.5  ,0.1
7533  ,6.688e+06   ,-2.5  ,0.9  ,0.1
7536  ,1.436e+06   ,-2.4  ,-2.5  ,3.2
7540  ,8.663e+05   ,-2.4  ,-2.5  ,3
7545  ,1.403e+06   ,-2.5  ,-2.4  ,3
7582  ,1.017e+08   ,1.3  ,2.5  ,0.1
7588  ,9.407e+08   ,2.5  ,2.4  ,2.3665
7598  ,1.755e+08   ,-2.5  ,2.4  ,4.2
7607  ,5.035e+08   ,1.5333  ,2.3  ,0.2
7627  ,9.214e+07   ,-2.5  ,1.1  ,4.9
7651  ,3.040e+07   ,2.4  ,-1.9  ,0
7656  ,4.309e+08   ,2.5  ,2.4  ,0.39564
7660  ,1.157e+10   ,2.2299  ,2.3  ,4.7299
7668  ,7.050e+07   ,1.4531  ,-2.5  ,4.8
7676  ,1.442e+08   ,0.1  ,-2.5  ,4.9
7683  ,1.673e+08   ,0.1  ,-2.4  ,5
7686  ,6.366e+07   ,-2.4  ,-1.1  ,5
7702  ,3.910e+06   ,-2.3  ,-2.5  ,4.433
7710  ,1.366e+07   ,-2.3  ,-2.5  ,4.6765
7752  ,1.130e+08   ,0.9  ,-2.4  ,5
7763  ,1.080e+08   ,0.24243  ,-2.5  ,4.8
7767  ,1.025e+06   ,-2.5  ,-2.4  ,3.2
7768  ,4.703e+05   ,-2.4  ,-2.1  ,0
7776  ,9.275e+06   ,-2.4  ,0.9  ,0
7786  ,7.370e+07   ,-0.4838  ,-2.5  ,4.8
7800  ,2.054e+08   ,2.5  ,-2.4  ,4.6
7805  ,3.153e+07   ,-2.5  ,-1.3  ,4.9
7811  ,4.093e+07   ,-2.5  ,-1.1  ,4.9
7820  ,7.212e+06   ,2.5  ,-2.1  ,0.1
7824  ,2.068e+07   ,2.4  ,-2.1  ,0
7828  ,1.316e+08   ,2.4  ,-2.5  ,4.2
7831  ,1.184e+08   ,2.4  ,-2.5  ,4
7838  ,1.774e+08   ,2.5  ,-2.4  ,4.2
7839  ,9.689e+08   ,2.5  ,2.4  ,2.7607
7840  ,1.109e+09   ,2.5  ,2.4  ,2.9578
7863  ,2.539e+06   ,-2.4  ,-1.5  ,0
7890  ,1.578e+08   ,2.4  ,0.9  ,0
7897  ,2.777e+06   ,-2.4  ,-0.7  ,0
7912  ,2.225e+06   ,-1.5  ,-2.4  ,0
7917  ,2.264e+06   ,-1.3  ,-2.5  ,0.1
7931  ,1.569e+08   ,0.5  ,2.4  ,0
7934  ,6.640e+06   ,1.1  ,-2.4  ,0
7937  ,3.895e+07   ,2.4  ,-2.5  ,0.8
7941  ,2.315e+05   ,-2.4  ,-2.5  ,0.6
7969  ,4.376e+07   ,-2.5  ,2.3  ,0.1
7971  ,2.666e+07   ,-2.4  ,1.9  ,0
7972  ,4.378e+07   ,-1.9  ,2.5  ,0.1
7978  ,2.318e+07   ,-2.4  ,1.1  ,0
7996  ,1.887e+08   ,-2.4  ,-0.5  ,5
8000  ,2.420e+05   ,-2.5  ,-2.4  ,0.6
8003  ,1.570e+05   ,-2.5  ,-2.4  ,0.4
8025  ,1.961e+08   ,0.9  ,2.5  ,0.1
8035  ,1.419e+08   ,0.3  ,2.5  ,0.1
8039  ,1.344e+07   ,2.3  ,-2.5  ,0.32348
8041  ,1.864e+07   ,2.3  ,-2.3379  ,0.2
8043  ,6.756e+06   ,2.1765  ,-2.5  ,0.2
8045  ,1.699e+06   ,-0.96359  ,-2.5  ,0.2
8054  ,1.450e+08   ,1.3  ,2.4  ,0
8058  ,1.367e+08   ,1.1  ,2.5  ,0.1
8062  ,4.641e+07   ,-2.5  ,2.4  ,1.4
8067  ,2.204e+07   ,-2.5  ,2.4  ,0.8
8087  ,2.829e+07   ,-2.5  ,1.5  ,0.1
8132  ,8.190e+08   ,-0.13345  ,2.4  ,5
8183  ,6.859e+07   ,2.5  ,-0.9  ,0.1
8184  ,5.266e+06   ,1.6937  ,-2.5  ,0.2
8214  ,7.335e+06   ,-2.4707  ,-2.4  ,4.9707
8217  ,3.309e+07   ,-2.1  ,-2.4  ,5
8219  ,4.905e+06   ,-2.4  ,-2.5  ,4.4
8227  ,1.335e+09   ,2.5  ,2.4  ,3.1549
8242  ,1.478e+08   ,0.7  ,-2.5  ,4.9
8248  ,8.429e+07   ,2.5  ,-2.4  ,3.6
8254  ,2.439e+08   ,2.5  ,-0.3  ,0.1
8256  ,1.773e+08   ,2.5  ,-0.5  ,0.1
8258  ,1.203e+08   ,-0.3  ,-2.5  ,4.9
8263  ,1.035e+08   ,-0.5  ,-2.5  ,4.9
8268  ,3.868e+06   ,-2.3  ,-2.5  ,3.7085
8277  ,1.311e+06   ,-0.1  ,-2.5  ,0.1
8285  ,8.514e+07   ,1.1  ,-2.5  ,4.9
8307  ,8.663e+07   ,0.1  ,2.4  ,0
8308  ,1.439e+08   ,-0.1  ,2.5  ,0.1
8309  ,9.540e+07   ,-0.1  ,2.4  ,0
8313  ,1.527e+07   ,2.5  ,-2.3  ,0.1
8318  ,7.732e+07   ,2.5  ,-2.4  ,3
8338  ,1.604e+09   ,2.5  ,2.4  ,3.352
8339  ,1.393e+09   ,2.4  ,2.5  ,3.1549
8344  ,1.783e+08   ,-2.5  ,2.4  ,3.4
8357  ,2.708e+10   ,2.4888  ,2.1656  ,4.9325
8358  ,1.099e+10   ,2.5  ,2.1998  ,4.8333
8383  ,6.516e+05   ,-1.7  ,-2.4  ,0
8396  ,5.592e+06   ,1.1  ,-2.5  ,0.1
8399  ,2.481e+10   ,2.4526  ,2.1331  ,4.9851
8405  ,4.684e+07   ,2.5  ,-2.4  ,1
8412  ,4.277e+07   ,2.3  ,-2.5  ,0.8063
8417  ,8.284e+05   ,-2.3  ,-2.5  ,2.5
8434  ,7.177e+07   ,0.9636  ,-2.5  ,4.8
8438  ,1.445e+06   ,-0.3  ,-2.5  ,0.1
8452  ,2.012e+08   ,-2.4  ,-0.1  ,5
8468  ,2.194e+09   ,2.5  ,2.4  ,3.7462
8471  ,4.961e+07   ,-1.3  ,-2.5  ,4.9
8493  ,6.446e+07   ,-1.1  ,-2.5  ,4.9
8509  ,1.547e+06   ,-2.5  ,-1.7  ,0.1
8517  ,1.211e+08   ,-2.4  ,2.5  ,3
8531  ,2.534e+07   ,-2.4  ,1.7  ,0
8556  ,1.967e+09   ,2.5  ,2.4  ,3.5491
8573  ,5.188e+08   ,-1.316  ,2.4  ,5
8576  ,2.570e+07   ,-2.4  ,1.3  ,0
8611  ,4.628e+07   ,2.3  ,-2.5  ,1.2915
8618  ,9.333e+07   ,-2.4  ,2.5  ,4
8646  ,2.256e+07   ,-2.5  ,1.1  ,0.1
8656  ,5.177e+07   ,2.5  ,-1.3  ,0.1
8657  ,1.371e+08   ,2.4  ,2.1  ,0
8673  ,4.117e+07   ,-1.3  ,2.4  ,0
8692  ,1.532e+08   ,0.72263  ,-2.5  ,4.8
8696  ,4.659e+07   ,2.3  ,-2.5  ,1.0469
8706  ,1.432e+09   ,2.5  ,0.65491  ,4.9
8721  ,2.170e+05   ,-2.4  ,-2.5  ,1.6
8725  ,1.308e+09   ,0.65491  ,2.4  ,5
8739  ,2.792e+10   ,2.1656  ,2.4325  ,4.9888
8741  ,1.148e+10   ,2.1998  ,2.3333  ,5
8746  ,3.350e+05   ,-2.1  ,-2.4  ,0
8748  ,5.575e+05   ,-2.5  ,-2.4  ,1.2
8752  ,2.603e+10   ,2.1331  ,2.4526  ,4.9851
8759  ,3.273e+05   ,-2.3  ,-2.5  ,1.0469
8787  ,1.776e+06   ,-0.1  ,-2.4  ,0
8793  ,7.894e+05   ,-2.3  ,-2.5  ,2.2576
8795  ,6.793e+05   ,-2.4  ,-2.5  ,2.4
8798  ,3.904e+06   ,-2.3  ,-2.5  ,4.1937
8808  ,4.857e+06   ,-2.3  ,-2.5  ,3.9531
8814  ,4.671e+07   ,-2.4  ,-1.5  ,5
8849  ,1.594e+08   ,0.4838  ,-2.5  ,4.8
8851  ,6.102e+06   ,-2.4  ,-2.5  ,4.2
8868  ,1.406e+08   ,2.4  ,-2.5  ,3
8874  ,1.772e+09   ,0.852  ,2.4  ,5
8883  ,1.879e+08   ,-0.5  ,-2.4  ,5
8886  ,9.168e+07   ,-0.72262  ,-2.5  ,4.8
8893  ,1.255e+08   ,-0.7  ,-2.5  ,4.9
8897  ,5.125e+06   ,-2.5  ,-2.4  ,3.6
8899  ,1.847e+06   ,-2.3  ,-2.5  ,3.4636
8900  ,9.940e+05   ,-2.3  ,-1.4729  ,0.2
8906  ,1.326e+06   ,-2.5  ,-1.3  ,0.1
8910  ,1.736e+09   ,0.852  ,2.5  ,4.9
8925  ,4.815e+07   ,-2.4  ,2.5  ,1.4
8941  ,1.238e+08   ,2.4707  ,2.4  ,0.029289
8942  ,1.622e+08   ,2.5  ,2.3  ,0.1
8945  ,7.628e+07   ,-2.5  ,0.1  ,4.9
8950  ,1.521e+08   ,2.4707  ,2.4707  ,0.1
8951  ,1.177e+08   ,2.4  ,2.4707  ,0.029289
8959  ,1.112e+09   ,2.4  ,0.26073  ,5
8965  ,1.070e+09   ,0.45782  ,2.4  ,5
8978  ,1.500e+09   ,2.4  ,0.852  ,5
8983  ,5.135e+07   ,2.5  ,-1.1  ,0.1
8991  ,2.773e+07   ,-2.5  ,2.4  ,0.6
9008  ,1.423e+09   ,2.5  ,0.852  ,4.9
9011  ,6.077e+06   ,-2.4  ,-0.5  ,0
9025  ,2.318e+06   ,-1.5  ,-2.5  ,0.1
9038  ,1.142e+08   ,2.4  ,-2.5  ,2
9041  ,1.658e+08   ,2.5  ,0.9  ,0.1
9050  ,1.307e+08   ,2.5  ,0.5  ,0.1
9054  ,6.276e+06   ,0.9  ,-2.4  ,0
9060  ,1.537e+07   ,2.4  ,-2.5  ,0.4
9062  ,2.953e+07   ,2.3  ,-2.5  ,0.56701
9064  ,2.546e+07   ,2.5  ,-2.4  ,0.4
9069  ,3.101e+07   ,2.4  ,-2.5  ,0.6
9071  ,3.660e+06   ,1.4531  ,-2.5  ,0.2
9082  ,4.761e+05   ,-2.3  ,-2.5  ,1.2915
9086  ,3.130e+05   ,-2.4  ,-2.5  ,1.4
9091  ,2.770e+05   ,-2.5  ,-2.4  ,1.4
9094  ,1.043e+08   ,1.3  ,-2.5  ,4.9
9097  ,2.318e+06   ,-0.7  ,-2.5  ,0.1
9137  ,4.847e+07   ,-2.5  ,-0.7  ,4.9
9143  ,8.550e+07   ,-2.5  ,-0.1  ,4.9
9146  ,4.218e+07   ,-2.1  ,2.4  ,0
9148  ,1.514e+08   ,-2.5  ,1.7  ,4.9
9173  ,1.235e+08   ,-2.5  ,2.4  ,3
9192  ,2.141e+08   ,-0.7  ,-2.4  ,5
9195  ,3.129e+06   ,0.72263  ,-2.5  ,0.2
9209  ,6.877e+07   ,2.5  ,-2.4  ,3.4
9215  ,5.279e+06   ,0.9636  ,-2.5  ,0.2
9217  ,1.130e+08   ,2.4  ,-2.5  ,3.2
9218  ,7.197e+07   ,-0.96359  ,-2.5  ,4.8
9229  ,9.955e+07   ,-2.4  ,2.5  ,2.8
9248  ,1.519e+08   ,2.3  ,-2.5  ,4.433
9255  ,1.737e+08   ,2.5  ,1.3  ,0.1
9257  ,1.524e+08   ,2.4  ,1.5  ,0
9262  ,1.015e+08   ,0.5  ,-2.4  ,5
9264  ,7.739e+08   ,2.4  ,-0.13345  ,5
9272  ,9.275e+08   ,0.063638  ,2.4  ,5
9277  ,2.967e+07   ,-2.5  ,2.4  ,1.2
9279  ,1.151e+09   ,2.5  ,0.26073  ,4.9
9282  ,6.988e+07   ,1.2085  ,-2.5  ,4.8
9286  ,1.029e+08   ,0.9  ,-2.5  ,4.9
9292  ,1.415e+08   ,-2.4  ,2.4707  ,4.9707
9293  ,1.857e+08   ,-2.3015  ,2.4  ,5
9296  ,1.520e+07   ,-2.4  ,-2.1  ,5
9303  ,2.285e+07   ,-2.4  ,-1.9  ,5
9311  ,1.669e+08   ,-2.4  ,2.3  ,5
9313  ,1.402e+08   ,-2.4  ,0.1  ,5
9319  ,2.165e+06   ,-0.5  ,-2.4  ,0
9328  ,4.040e+05   ,-2.3  ,-2.5  ,1.5364
9334  ,1.668e+07   ,-2.3  ,2.5  ,0.1
9338  ,5.503e+05   ,-2.5  ,-2.4  ,2.4
9339  ,3.015e+07   ,-2.5  ,1.3  ,0.1
9341  ,4.474e+05   ,-2.3  ,-2.5  ,2.7424
9344  ,4.836e+05   ,-2.5  ,-2.4  ,2.2
9358  ,3.462e+08   ,-2.3  ,2.3  ,2.5
9364  ,1.156e+07   ,-2.5  ,-2.1  ,4.9
9367  ,1.777e+07   ,-2.4  ,-2.3  ,5
9374  ,4.013e+07   ,-2.4  ,-1.3  ,5
9378  ,8.366e+07   ,-2.5  ,2.4  ,1.8
9384  ,7.600e+07   ,2.3  ,-2.5  ,2.0162
9385  ,1.416e+08   ,-2.5  ,2.4  ,4.4
9389  ,8.760e+07   ,-2.5  ,2.4  ,2
9395  ,6.616e+07   ,2.4  ,-2.3015  ,5
9396  ,1.190e+06   ,-2.4  ,-1.7  ,0
9407  ,3.055e+07   ,-2.3  ,-1.4729  ,4.8
9411  ,2.875e+07   ,-2.5  ,-1.7  ,4.9
9423  ,3.994e+06   ,-2.4  ,-2.5  ,3.6
9432  ,1.136e+08   ,0.7  ,-2.4  ,5
9438  ,2.473e+07   ,-2.5  ,-0.9  ,4.9
9443  ,1.793e+08   ,-2.5  ,-0.3  ,4.9
9445  ,1.134e+08   ,-2.4707  ,2.4  ,4.9707
9448  ,2.736e+08   ,2.4  ,-1.1189  ,5
9453  ,1.406e+08   ,2.4  ,0.7  ,0
9455  ,1.468e+08   ,2.5  ,-2.4  ,2.6
9457  ,1.290e+08   ,2.3  ,-2.5  ,2.9838
9494  ,4.447e+07   ,-2.4  ,2.5  ,1
9500  ,1.588e+08   ,0.3  ,-2.5  ,4.9
9504  ,1.218e+08   ,0.3  ,-2.4  ,5
9506  ,9.056e+06   ,2.1  ,-2.5  ,0.1
9518  ,8.110e+05   ,-1.9  ,-2.5  ,0.1
9528  ,6.367e+06   ,2.3  ,-2.5  ,0.1
9531  ,7.036e+06   ,2.4707  ,-2.4707  ,0.1
9533  ,7.726e+06   ,2.4707  ,-2.4  ,0.029289
9534  ,4.988e+06   ,2.4  ,-2.4707  ,0.029289
9541  ,1.646e+08   ,0.5  ,-2.5  ,4.9
9544  ,1.779e+06   ,-0.5  ,-2.5  ,0.1
9559  ,2.291e+07   ,-2.5  ,-1.9  ,4.9
9562  ,1.223e+08   ,-2.5  ,2.4  ,4.6
9565  ,1.471e+08   ,-2.4  ,2.5  ,2
9571  ,4.807e+06   ,-2.5  ,-2.4  ,3.8
9574  ,4.676e+06   ,-2.4  ,-2.5  ,3.8
9577  ,5.196e+06   ,1.3  ,-2.5  ,0.1
9582  ,3.584e+06   ,-2.5  ,-0.9  ,0.1
9596  ,1.634e+08   ,2.1  ,2.4  ,0
9598  ,1.569e+08   ,-2.4  ,2.5  ,3.2
9602  ,1.098e+08   ,1.5  ,2.5  ,0.1
9610  ,4.197e+08   ,2.4  ,2.5  ,0.39564
9612  ,1.420e+08   ,-0.72473  ,2.5  ,4.9
9614  ,1.226e+08   ,1.7  ,2.5  ,0.1
9635  ,1.465e+08   ,2.5  ,1.7  ,0.1
9646  ,1.517e+08   ,2.3  ,2.5  ,0.1
9651  ,2.796e+10   ,2.1656  ,2.4888  ,4.9325
9653  ,5.829e+08   ,2.5  ,-1.316  ,4.9
9656  ,5.879e+07   ,-2.4  ,-1.7  ,5
9659  ,1.358e+08   ,2.3  ,-2.5  ,4.6765
9661  ,9.483e+07   ,2.3  ,-2.5  ,3.9531
9664  ,2.740e+07   ,-2.3  ,-2.4  ,5
9666  ,1.253e+07   ,1.9  ,-2.4  ,0
9677  ,1.243e+08   ,2.4  ,0.5  ,0
9678  ,3.551e+06   ,-2.5  ,-1.1  ,0.1
9680  ,4.648e+08   ,2.5  ,2.4  ,1.184
9681  ,1.777e+08   ,2.5  ,2.4  ,0.19855
9696  ,3.767e+05   ,-2.3  ,-2.5  ,2.0162
9698  ,9.263e+06   ,2.4  ,-2.3  ,0
9699  ,5.880e+05   ,-0.24243  ,-2.5  ,0.2
9701  ,2.050e+06   ,0.1  ,-2.4  ,0
9704  ,1.909e+06   ,-0.4838  ,-2.5  ,0.2
9718  ,2.522e+06   ,-0.72262  ,-2.5  ,0.2
9726  ,2.081e+08   ,2.3  ,-0.76628  ,0.2
9727  ,3.843e+07   ,-2.5  ,2.4  ,0.4
9730  ,1.315e+08   ,1.9433E-06  ,-2.5  ,4.8
9731  ,9.447e+07   ,-0.24243  ,-2.5  ,4.8
9732  ,1.058e+08   ,-2.5  ,2.4  ,2.2
9738  ,4.792e+06   ,-2.5  ,-2.4  ,4
9743  ,6.527e+07   ,-1.6937  ,-2.5  ,4.8
9744  ,6.584e+06   ,-2.4  ,-2.5  ,4
9750  ,3.129e+05   ,-1.7  ,-2.5  ,0.1
9752  ,5.533e+05   ,-1.6937  ,-2.5  ,0.2
9754  ,2.664e+06   ,-1.3  ,-2.4  ,0
9759  ,3.176e+07   ,-2.4707  ,2.4  ,0.029289
9760  ,9.761e+06   ,-2.4  ,2.4707  ,0.029289
9768  ,1.197e+08   ,2.3  ,-2.5  ,4.1937
9770  ,1.081e+06   ,1.9433E-06  ,-2.5  ,0.2
9771  ,1.511e+06   ,0.4838  ,-2.5  ,0.2
9772  ,1.143e+07   ,2.4  ,-2.5  ,0.2
9773  ,1.309e+08   ,2.4  ,-2.5  ,4.6
9776  ,9.654e+08   ,2.4  ,0.063638  ,5
9780  ,1.339e+09   ,0.65491  ,2.5  ,4.9
9781  ,1.958e+08   ,2.4  ,2.5  ,0.19855
9782  ,7.664e+05   ,-2.3  ,-2.5  ,2.9838
9786  ,2.051e+06   ,-1.2085  ,-2.5  ,0.2
9787  ,2.503e+06   ,-1.4531  ,-2.5  ,0.2
9790  ,7.058e+06   ,2.3  ,-2.4  ,0
9793  ,1.032e+10   ,2.0345  ,2.4  ,5
9797  ,5.037e+07   ,2.3  ,-2.5  ,1.5364
9798  ,1.845e+09   ,2.4  ,1.0491  ,5
9809  ,1.716e+09   ,2.4  ,2.5  ,3.352
