Date:  12:54, Monday, July 10, 2023
Model name: Hollow_DropBox
Study name: DropTest_300fts(-Default-)
Plot type:  Stress1
Plot step: 16   time : 83.9512 Microseconds
Result Type: von Mises 


Node  ,Value (N/m^2)  ,X (in)  ,Y (in)  ,Z (in)
1  ,2.492e+10   ,2.5  ,2.1331  ,4.9
2  ,2.482e+10   ,2.4577  ,2.1908  ,4.9577
3  ,4.720e+10   ,2.4894  ,2.1331  ,4.9447
4  ,3.243e+10   ,2.1331  ,2.5  ,4.9
5  ,5.617e+10   ,2.1331  ,2.4894  ,4.9447
6  ,2.341e+10   ,2.1908  ,2.4577  ,4.9577
7  ,3.660e+08   ,-2.4  ,2.4  ,5
8  ,1.946e+09   ,-2.4  ,-2.4  ,5
9  ,3.499e+09   ,2.4  ,-2.4  ,5
10  ,2.317e+10   ,2.4  ,2.1331  ,5
11  ,3.016e+10   ,2.1331  ,2.4  ,5
12  ,3.746e+09   ,2.5  ,-2.4  ,4.9
13  ,1.791e+09   ,2.5  ,-2.4  ,0.1
14  ,4.205e+08   ,2.5  ,2.4  ,0.1
15  ,2.943e+10   ,2.5  ,2.4  ,4.6331
16  ,3.123e+08   ,2.4  ,2.5  ,0.1
17  ,3.056e+08   ,-2.4  ,2.5  ,0.1
18  ,3.687e+08   ,-2.4  ,2.5  ,4.9
19  ,3.222e+10   ,2.4  ,2.5  ,4.6331
20  ,1.012e+08   ,-2.5  ,2.4  ,0.1
21  ,1.187e+09   ,-2.5  ,-2.4  ,0.1
22  ,1.289e+09   ,-2.5  ,-2.4  ,4.9
23  ,3.837e+08   ,-2.5  ,2.4  ,4.9
24  ,1.880e+09   ,-2.3  ,-2.5  ,0.2
25  ,1.938e+09   ,-2.3  ,-2.5  ,4.8
26  ,3.227e+09   ,2.3  ,-2.5  ,4.8
27  ,1.832e+09   ,2.3  ,-2.5  ,0.2
28  ,1.957e+09   ,-2.4  ,-2.5  ,4.9
29  ,3.775e+09   ,2.4  ,-2.5  ,4.9
30  ,1.170e+09   ,-2.4  ,-2.5  ,0.1
31  ,1.901e+09   ,2.4  ,-2.5  ,0.1
32  ,1.365e+09   ,2.4  ,-2.4  ,0
33  ,3.978e+08   ,2.4  ,2.4  ,0
34  ,1.323e+09   ,-2.4  ,-2.4  ,0
35  ,1.450e+08   ,-2.4  ,2.4  ,0
36  ,2.847e+10   ,2.4577  ,2.4577  ,4.6908
37  ,1.163e+09   ,-2.3  ,2.3  ,4.8
38  ,1.557e+10   ,2.1599  ,2.3  ,4.8
39  ,1.509e+10   ,2.3  ,2.1599  ,4.8
40  ,1.582e+10   ,2.3  ,2.3  ,4.6599
41  ,1.183e+09   ,2.3  ,2.3  ,0.2
42  ,3.940e+08   ,-2.3  ,2.3  ,0.2
43  ,4.984e+08   ,-2.4  ,2.2  ,5
44  ,7.813e+08   ,-2.4  ,2  ,5
45  ,8.062e+08   ,-2.4  ,1.8  ,5
46  ,8.306e+08   ,-2.4  ,1.6  ,5
47  ,8.550e+08   ,-2.4  ,1.4  ,5
48  ,1.125e+09   ,-2.4  ,1.2  ,5
49  ,1.299e+09   ,-2.4  ,1  ,5
50  ,1.859e+09   ,-2.4  ,0.8  ,5
51  ,1.515e+09   ,-2.4  ,0.6  ,5
52  ,1.228e+09   ,-2.4  ,0.4  ,5
53  ,1.142e+09   ,-2.4  ,0.2  ,5
54  ,9.915e+08   ,-2.4  ,5.8879E-16  ,5
55  ,8.941e+08   ,-2.4  ,-0.2  ,5
56  ,8.986e+08   ,-2.4  ,-0.4  ,5
57  ,8.648e+08   ,-2.4  ,-0.6  ,5
58  ,9.041e+08   ,-2.4  ,-0.8  ,5
59  ,1.092e+09   ,-2.4  ,-1  ,5
60  ,9.410e+08   ,-2.4  ,-1.2  ,5
61  ,1.371e+09   ,-2.4  ,-1.4  ,5
62  ,1.134e+09   ,-2.4  ,-1.6  ,5
63  ,1.016e+09   ,-2.4  ,-1.8  ,5
64  ,1.355e+09   ,-2.4  ,-2  ,5
65  ,1.369e+09   ,-2.4  ,-2.2  ,5
66  ,2.750e+09   ,-2.2  ,-2.4  ,5
67  ,3.012e+09   ,-2  ,-2.4  ,5
68  ,2.930e+09   ,-1.8  ,-2.4  ,5
69  ,2.248e+09   ,-1.6  ,-2.4  ,5
70  ,1.450e+09   ,-1.4  ,-2.4  ,5
71  ,1.055e+09   ,-1.2  ,-2.4  ,5
72  ,8.962e+08   ,-1  ,-2.4  ,5
73  ,8.956e+08   ,-0.8  ,-2.4  ,5
74  ,9.650e+08   ,-0.6  ,-2.4  ,5
75  ,8.242e+08   ,-0.4  ,-2.4  ,5
76  ,2.500e+08   ,-0.2  ,-2.4  ,5
77  ,8.109e+08   ,-5.8879E-16  ,-2.4  ,5
78  ,1.834e+09   ,0.2  ,-2.4  ,5
79  ,2.619e+09   ,0.4  ,-2.4  ,5
80  ,3.685e+09   ,0.6  ,-2.4  ,5
81  ,3.871e+09   ,0.8  ,-2.4  ,5
82  ,3.685e+09   ,1  ,-2.4  ,5
83  ,3.307e+09   ,1.2  ,-2.4  ,5
84  ,3.022e+09   ,1.4  ,-2.4  ,5
85  ,1.905e+09   ,1.6  ,-2.4  ,5
86  ,6.986e+08   ,1.8  ,-2.4  ,5
87  ,1.778e+09   ,2  ,-2.4  ,5
88  ,5.547e+09   ,2.2  ,-2.4  ,5
89  ,3.075e+09   ,2.4  ,-2.2029  ,5
90  ,3.416e+09   ,2.4  ,-2.0058  ,5
91  ,2.633e+09   ,2.4  ,-1.8087  ,5
92  ,2.376e+09   ,2.4  ,-1.6116  ,5
93  ,2.606e+09   ,2.4  ,-1.4145  ,5
94  ,2.188e+09   ,2.4  ,-1.2175  ,5
95  ,2.387e+09   ,2.4  ,-1.0204  ,5
96  ,2.623e+09   ,2.4  ,-0.82327  ,5
97  ,2.569e+09   ,2.4  ,-0.62618  ,5
98  ,2.186e+09   ,2.4  ,-0.42909  ,5
99  ,2.080e+09   ,2.4  ,-0.232  ,5
100  ,1.926e+09   ,2.4  ,-0.034907  ,5
101  ,1.944e+09   ,2.4  ,0.16218  ,5
102  ,2.126e+09   ,2.4  ,0.35927  ,5
103  ,2.553e+09   ,2.4  ,0.55637  ,5
104  ,2.452e+09   ,2.4  ,0.75346  ,5
105  ,2.104e+09   ,2.4  ,0.95055  ,5
106  ,2.161e+09   ,2.4  ,1.1476  ,5
107  ,3.482e+09   ,2.4  ,1.3447  ,5
108  ,5.259e+09   ,2.4  ,1.5418  ,5
109  ,6.915e+09   ,2.4  ,1.7389  ,5
110  ,1.267e+10   ,2.4  ,1.936  ,5
111  ,1.809e+10   ,2.2665  ,2.2665  ,5
112  ,1.413e+10   ,1.936  ,2.4  ,5
113  ,7.658e+09   ,1.7389  ,2.4  ,5
114  ,6.073e+09   ,1.5418  ,2.4  ,5
115  ,4.321e+09   ,1.3447  ,2.4  ,5
116  ,3.580e+09   ,1.1476  ,2.4  ,5
117  ,3.617e+09   ,0.95055  ,2.4  ,5
118  ,3.661e+09   ,0.75346  ,2.4  ,5
119  ,3.519e+09   ,0.55637  ,2.4  ,5
120  ,3.015e+09   ,0.35927  ,2.4  ,5
121  ,2.913e+09   ,0.16218  ,2.4  ,5
122  ,2.762e+09   ,-0.034907  ,2.4  ,5
123  ,2.835e+09   ,-0.232  ,2.4  ,5
124  ,2.545e+09   ,-0.42909  ,2.4  ,5
125  ,2.459e+09   ,-0.62618  ,2.4  ,5
126  ,2.902e+09   ,-0.82327  ,2.4  ,5
127  ,2.540e+09   ,-1.0204  ,2.4  ,5
128  ,2.290e+09   ,-1.2175  ,2.4  ,5
129  ,1.898e+09   ,-1.4145  ,2.4  ,5
130  ,1.282e+09   ,-1.6116  ,2.4  ,5
131  ,8.362e+08   ,-1.8087  ,2.4  ,5
132  ,6.278e+08   ,-2.0058  ,2.4  ,5
133  ,5.149e+08   ,-2.2029  ,2.4  ,5
294  ,2.673e+09   ,2.5  ,-2.2029  ,4.9
295  ,3.319e+09   ,2.5  ,-2.0058  ,4.9
296  ,2.702e+09   ,2.5  ,-1.8087  ,4.9
297  ,2.703e+09   ,2.5  ,-1.6116  ,4.9
298  ,2.203e+09   ,2.5  ,-1.4145  ,4.9
299  ,2.214e+09   ,2.5  ,-1.2175  ,4.9
300  ,2.527e+09   ,2.5  ,-1.0204  ,4.9
301  ,1.972e+09   ,2.5  ,-0.82327  ,4.9
302  ,2.286e+09   ,2.5  ,-0.62618  ,4.9
303  ,2.181e+09   ,2.5  ,-0.42909  ,4.9
304  ,2.523e+09   ,2.5  ,-0.232  ,4.9
305  ,2.990e+09   ,2.5  ,-0.034907  ,4.9
306  ,2.568e+09   ,2.5  ,0.16218  ,4.9
307  ,2.164e+09   ,2.5  ,0.35927  ,4.9
308  ,2.350e+09   ,2.5  ,0.55637  ,4.9
309  ,2.393e+09   ,2.5  ,0.75346  ,4.9
310  ,2.331e+09   ,2.5  ,0.95055  ,4.9
311  ,3.053e+09   ,2.5  ,1.1476  ,4.9
312  ,3.720e+09   ,2.5  ,1.3447  ,4.9
313  ,5.319e+09   ,2.5  ,1.5418  ,4.9
314  ,8.749e+09   ,2.5  ,1.7389  ,4.9
315  ,1.364e+10   ,2.5  ,1.936  ,4.9
316  ,5.497e+09   ,2.5  ,-2.4  ,4.7
317  ,1.695e+09   ,2.5  ,-2.4  ,4.5
318  ,7.852e+08   ,2.5  ,-2.4  ,4.3
319  ,2.020e+09   ,2.5  ,-2.4  ,4.1
320  ,2.829e+09   ,2.5  ,-2.4  ,3.9
321  ,3.399e+09   ,2.5  ,-2.4  ,3.7
322  ,3.788e+09   ,2.5  ,-2.4  ,3.5
323  ,3.921e+09   ,2.5  ,-2.4  ,3.3
324  ,3.629e+09   ,2.5  ,-2.4  ,3.1
325  ,2.712e+09   ,2.5  ,-2.4  ,2.9
326  ,1.767e+09   ,2.5  ,-2.4  ,2.7
327  ,6.822e+08   ,2.5  ,-2.4  ,2.5
328  ,1.796e+08   ,2.5  ,-2.4  ,2.3
329  ,7.734e+08   ,2.5  ,-2.4  ,2.1
330  ,8.984e+08   ,2.5  ,-2.4  ,1.9
331  ,8.807e+08   ,2.5  ,-2.4  ,1.7
332  ,9.258e+08   ,2.5  ,-2.4  ,1.5
333  ,1.101e+09   ,2.5  ,-2.4  ,1.3
334  ,1.364e+09   ,2.5  ,-2.4  ,1.1
335  ,2.041e+09   ,2.5  ,-2.4  ,0.9
336  ,2.804e+09   ,2.5  ,-2.4  ,0.7
337  ,2.725e+09   ,2.5  ,-2.4  ,0.5
338  ,2.637e+09   ,2.5  ,-2.4  ,0.3
339  ,1.263e+09   ,2.5  ,-2.2  ,0.1
340  ,1.376e+09   ,2.5  ,-2  ,0.1
341  ,1.063e+09   ,2.5  ,-1.8  ,0.1
342  ,1.060e+09   ,2.5  ,-1.6  ,0.1
343  ,8.767e+08   ,2.5  ,-1.4  ,0.1
344  ,9.465e+08   ,2.5  ,-1.2  ,0.1
345  ,1.017e+09   ,2.5  ,-1  ,0.1
346  ,8.075e+08   ,2.5  ,-0.8  ,0.1
347  ,9.183e+08   ,2.5  ,-0.6  ,0.1
348  ,9.777e+08   ,2.5  ,-0.4  ,0.1
349  ,9.547e+08   ,2.5  ,-0.2  ,0.1
350  ,9.960e+08   ,2.5  ,-1.7664E-15  ,0.1
351  ,1.058e+09   ,2.5  ,0.2  ,0.1
352  ,1.287e+09   ,2.5  ,0.4  ,0.1
353  ,1.332e+09   ,2.5  ,0.6  ,0.1
354  ,1.541e+09   ,2.5  ,0.8  ,0.1
355  ,1.142e+09   ,2.5  ,1  ,0.1
356  ,1.052e+09   ,2.5  ,1.2  ,0.1
357  ,9.348e+08   ,2.5  ,1.4  ,0.1
358  ,8.771e+08   ,2.5  ,1.6  ,0.1
359  ,6.592e+08   ,2.5  ,1.8  ,0.1
360  ,6.057e+08   ,2.5  ,2  ,0.1
361  ,6.190e+08   ,2.5  ,2.2  ,0.1
362  ,1.554e+10   ,2.5  ,2.4  ,4.436
363  ,9.544e+09   ,2.5  ,2.4  ,4.2389
364  ,5.903e+09   ,2.5  ,2.4  ,4.0418
365  ,4.477e+09   ,2.5  ,2.4  ,3.8447
366  ,3.822e+09   ,2.5  ,2.4  ,3.6476
367  ,3.719e+09   ,2.5  ,2.4  ,3.4505
368  ,3.800e+09   ,2.5  ,2.4  ,3.2535
369  ,3.659e+09   ,2.5  ,2.4  ,3.0564
370  ,3.272e+09   ,2.5  ,2.4  ,2.8593
371  ,3.047e+09   ,2.5  ,2.4  ,2.6622
372  ,3.116e+09   ,2.5  ,2.4  ,2.4651
373  ,2.797e+09   ,2.5  ,2.4  ,2.268
374  ,2.787e+09   ,2.5  ,2.4  ,2.0709
375  ,2.698e+09   ,2.5  ,2.4  ,1.8738
376  ,2.770e+09   ,2.5  ,2.4  ,1.6767
377  ,1.871e+09   ,2.5  ,2.4  ,1.4796
378  ,1.914e+09   ,2.5  ,2.4  ,1.2825
379  ,1.782e+09   ,2.5  ,2.4  ,1.0855
380  ,1.652e+09   ,2.5  ,2.4  ,0.88836
381  ,1.289e+09   ,2.5  ,2.4  ,0.69127
382  ,7.091e+08   ,2.5  ,2.4  ,0.49418
383  ,5.766e+08   ,2.5  ,2.4  ,0.29709
384  ,1.749e+10   ,2.5  ,2.2665  ,4.7665
544  ,5.427e+08   ,2.2  ,2.5  ,0.1
545  ,7.875e+08   ,2  ,2.5  ,0.1
546  ,9.051e+08   ,1.8  ,2.5  ,0.1
547  ,1.036e+09   ,1.6  ,2.5  ,0.1
548  ,1.048e+09   ,1.4  ,2.5  ,0.1
549  ,1.285e+09   ,1.2  ,2.5  ,0.1
550  ,1.580e+09   ,1  ,2.5  ,0.1
551  ,2.180e+09   ,0.8  ,2.5  ,0.1
552  ,2.197e+09   ,0.6  ,2.5  ,0.1
553  ,2.130e+09   ,0.4  ,2.5  ,0.1
554  ,2.198e+09   ,0.2  ,2.5  ,0.1
555  ,1.928e+09   ,5.8879E-16  ,2.5  ,0.1
556  ,1.131e+09   ,-0.2  ,2.5  ,0.1
557  ,1.434e+09   ,-0.4  ,2.5  ,0.1
558  ,1.621e+09   ,-0.6  ,2.5  ,0.1
559  ,1.903e+09   ,-0.8  ,2.5  ,0.1
560  ,1.902e+09   ,-1  ,2.5  ,0.1
561  ,1.839e+09   ,-1.2  ,2.5  ,0.1
562  ,1.690e+09   ,-1.4  ,2.5  ,0.1
563  ,1.630e+09   ,-1.6  ,2.5  ,0.1
564  ,1.491e+09   ,-1.8  ,2.5  ,0.1
565  ,1.238e+09   ,-2  ,2.5  ,0.1
566  ,9.883e+08   ,-2.2  ,2.5  ,0.1
567  ,5.711e+08   ,-2.4  ,2.5  ,4.7
568  ,8.832e+08   ,-2.4  ,2.5  ,4.5
569  ,9.489e+08   ,-2.4  ,2.5  ,4.3
570  ,1.036e+09   ,-2.4  ,2.5  ,4.1
571  ,1.047e+09   ,-2.4  ,2.5  ,3.9
572  ,1.154e+09   ,-2.4  ,2.5  ,3.7
573  ,1.390e+09   ,-2.4  ,2.5  ,3.5
574  ,2.056e+09   ,-2.4  ,2.5  ,3.3
575  ,1.923e+09   ,-2.4  ,2.5  ,3.1
576  ,1.789e+09   ,-2.4  ,2.5  ,2.9
577  ,1.788e+09   ,-2.4  ,2.5  ,2.7
578  ,1.744e+09   ,-2.4  ,2.5  ,2.5
579  ,1.662e+09   ,-2.4  ,2.5  ,2.3
580  ,1.667e+09   ,-2.4  ,2.5  ,2.1
581  ,1.686e+09   ,-2.4  ,2.5  ,1.9
582  ,1.837e+09   ,-2.4  ,2.5  ,1.7
583  ,1.880e+09   ,-2.4  ,2.5  ,1.5
584  ,1.866e+09   ,-2.4  ,2.5  ,1.3
585  ,1.764e+09   ,-2.4  ,2.5  ,1.1
586  ,1.690e+09   ,-2.4  ,2.5  ,0.9
587  ,1.497e+09   ,-2.4  ,2.5  ,0.7
588  ,1.302e+09   ,-2.4  ,2.5  ,0.5
589  ,1.031e+09   ,-2.4  ,2.5  ,0.3
590  ,1.584e+10   ,1.936  ,2.5  ,4.9
591  ,6.956e+09   ,1.7389  ,2.5  ,4.9
592  ,5.296e+09   ,1.5418  ,2.5  ,4.9
593  ,4.617e+09   ,1.3447  ,2.5  ,4.9
594  ,3.335e+09   ,1.1476  ,2.5  ,4.9
595  ,3.715e+09   ,0.95055  ,2.5  ,4.9
596  ,3.840e+09   ,0.75346  ,2.5  ,4.9
597  ,3.612e+09   ,0.55637  ,2.5  ,4.9
598  ,3.357e+09   ,0.35927  ,2.5  ,4.9
599  ,2.777e+09   ,0.16218  ,2.5  ,4.9
600  ,2.598e+09   ,-0.034907  ,2.5  ,4.9
601  ,2.481e+09   ,-0.232  ,2.5  ,4.9
602  ,2.963e+09   ,-0.42909  ,2.5  ,4.9
603  ,3.114e+09   ,-0.62618  ,2.5  ,4.9
604  ,2.949e+09   ,-0.82327  ,2.5  ,4.9
605  ,2.794e+09   ,-1.0204  ,2.5  ,4.9
606  ,2.546e+09   ,-1.2175  ,2.5  ,4.9
607  ,1.918e+09   ,-1.4145  ,2.5  ,4.9
608  ,1.445e+09   ,-1.6116  ,2.5  ,4.9
609  ,9.631e+08   ,-1.8087  ,2.5  ,4.9
610  ,5.385e+08   ,-2.0058  ,2.5  ,4.9
611  ,3.390e+08   ,-2.2029  ,2.5  ,4.9
612  ,2.012e+10   ,2.2665  ,2.5  ,4.7665
613  ,1.367e+10   ,2.4  ,2.5  ,4.436
614  ,8.638e+09   ,2.4  ,2.5  ,4.2389
615  ,5.664e+09   ,2.4  ,2.5  ,4.0418
616  ,4.424e+09   ,2.4  ,2.5  ,3.8447
617  ,3.829e+09   ,2.4  ,2.5  ,3.6476
618  ,3.597e+09   ,2.4  ,2.5  ,3.4505
619  ,3.880e+09   ,2.4  ,2.5  ,3.2535
620  ,3.704e+09   ,2.4  ,2.5  ,3.0564
621  ,3.208e+09   ,2.4  ,2.5  ,2.8593
622  ,3.017e+09   ,2.4  ,2.5  ,2.6622
623  ,2.687e+09   ,2.4  ,2.5  ,2.4651
624  ,2.696e+09   ,2.4  ,2.5  ,2.268
625  ,2.605e+09   ,2.4  ,2.5  ,2.0709
626  ,2.715e+09   ,2.4  ,2.5  ,1.8738
627  ,2.842e+09   ,2.4  ,2.5  ,1.6767
628  ,2.829e+09   ,2.4  ,2.5  ,1.4796
629  ,2.783e+09   ,2.4  ,2.5  ,1.2825
630  ,1.931e+09   ,2.4  ,2.5  ,1.0855
631  ,1.484e+09   ,2.4  ,2.5  ,0.88836
632  ,9.759e+08   ,2.4  ,2.5  ,0.69127
633  ,7.663e+08   ,2.4  ,2.5  ,0.49418
634  ,4.519e+08   ,2.4  ,2.5  ,0.29709
796  ,4.763e+08   ,-2.5  ,2.2  ,0.1
797  ,9.845e+08   ,-2.5  ,2  ,0.1
798  ,1.295e+09   ,-2.5  ,1.8  ,0.1
799  ,1.528e+09   ,-2.5  ,1.6  ,0.1
800  ,1.714e+09   ,-2.5  ,1.4  ,0.1
801  ,1.834e+09   ,-2.5  ,1.2  ,0.1
802  ,1.993e+09   ,-2.5  ,1  ,0.1
803  ,2.030e+09   ,-2.5  ,0.8  ,0.1
804  ,2.001e+09   ,-2.5  ,0.6  ,0.1
805  ,2.005e+09   ,-2.5  ,0.4  ,0.1
806  ,1.902e+09   ,-2.5  ,0.2  ,0.1
807  ,1.944e+09   ,-2.5  ,5.8879E-16  ,0.1
808  ,2.066e+09   ,-2.5  ,-0.2  ,0.1
809  ,2.141e+09   ,-2.5  ,-0.4  ,0.1
810  ,1.822e+09   ,-2.5  ,-0.6  ,0.1
811  ,1.429e+09   ,-2.5  ,-0.8  ,0.1
812  ,1.151e+09   ,-2.5  ,-1  ,0.1
813  ,7.862e+08   ,-2.5  ,-1.2  ,0.1
814  ,6.648e+08   ,-2.5  ,-1.4  ,0.1
815  ,4.786e+08   ,-2.5  ,-1.6  ,0.1
816  ,4.137e+08   ,-2.5  ,-1.8  ,0.1
817  ,7.048e+08   ,-2.5  ,-2  ,0.1
818  ,8.920e+08   ,-2.5  ,-2.2  ,0.1
819  ,1.662e+09   ,-2.5  ,-2.4  ,4.7
820  ,1.094e+09   ,-2.5  ,-2.4  ,4.5
821  ,1.535e+09   ,-2.5  ,-2.4  ,4.3
822  ,2.345e+09   ,-2.5  ,-2.4  ,4.1
823  ,2.691e+09   ,-2.5  ,-2.4  ,3.9
824  ,2.802e+09   ,-2.5  ,-2.4  ,3.7
825  ,3.072e+09   ,-2.5  ,-2.4  ,3.5
826  ,2.801e+09   ,-2.5  ,-2.4  ,3.3
827  ,2.691e+09   ,-2.5  ,-2.4  ,3.1
828  ,1.994e+09   ,-2.5  ,-2.4  ,2.9
829  ,1.362e+09   ,-2.5  ,-2.4  ,2.7
830  ,7.498e+08   ,-2.5  ,-2.4  ,2.5
831  ,3.074e+08   ,-2.5  ,-2.4  ,2.3
832  ,2.528e+08   ,-2.5  ,-2.4  ,2.1
833  ,5.723e+08   ,-2.5  ,-2.4  ,1.9
834  ,8.478e+08   ,-2.5  ,-2.4  ,1.7
835  ,1.222e+09   ,-2.5  ,-2.4  ,1.5
836  ,1.418e+09   ,-2.5  ,-2.4  ,1.3
837  ,1.515e+09   ,-2.5  ,-2.4  ,1.1
838  ,1.554e+09   ,-2.5  ,-2.4  ,0.9
839  ,1.391e+09   ,-2.5  ,-2.4  ,0.7
840  ,1.081e+09   ,-2.5  ,-2.4  ,0.5
841  ,1.602e+09   ,-2.5  ,-2.4  ,0.3
842  ,4.054e+08   ,-2.5  ,2.2  ,4.9
843  ,7.252e+08   ,-2.5  ,2  ,4.9
844  ,7.977e+08   ,-2.5  ,1.8  ,4.9
845  ,8.567e+08   ,-2.5  ,1.6  ,4.9
846  ,8.703e+08   ,-2.5  ,1.4  ,4.9
847  ,9.976e+08   ,-2.5  ,1.2  ,4.9
848  ,1.131e+09   ,-2.5  ,1  ,4.9
849  ,1.593e+09   ,-2.5  ,0.8  ,4.9
850  ,1.334e+09   ,-2.5  ,0.6  ,4.9
851  ,1.171e+09   ,-2.5  ,0.4  ,4.9
852  ,1.117e+09   ,-2.5  ,0.2  ,4.9
853  ,1.019e+09   ,-2.5  ,5.8879E-16  ,4.9
854  ,8.333e+08   ,-2.5  ,-0.2  ,4.9
855  ,6.762e+08   ,-2.5  ,-0.4  ,4.9
856  ,6.550e+08   ,-2.5  ,-0.6  ,4.9
857  ,7.640e+08   ,-2.5  ,-0.8  ,4.9
858  ,8.985e+08   ,-2.5  ,-1  ,4.9
859  ,8.685e+08   ,-2.5  ,-1.2  ,4.9
860  ,8.089e+08   ,-2.5  ,-1.4  ,4.9
861  ,7.369e+08   ,-2.5  ,-1.6  ,4.9
862  ,8.623e+08   ,-2.5  ,-1.8  ,4.9
863  ,1.153e+09   ,-2.5  ,-2  ,4.9
864  ,1.314e+09   ,-2.5  ,-2.2  ,4.9
865  ,5.181e+08   ,-2.5  ,2.4  ,4.7
866  ,9.036e+08   ,-2.5  ,2.4  ,4.5
867  ,1.086e+09   ,-2.5  ,2.4  ,4.3
868  ,1.016e+09   ,-2.5  ,2.4  ,4.1
869  ,1.239e+09   ,-2.5  ,2.4  ,3.9
870  ,1.375e+09   ,-2.5  ,2.4  ,3.7
871  ,1.572e+09   ,-2.5  ,2.4  ,3.5
872  ,1.897e+09   ,-2.5  ,2.4  ,3.3
873  ,1.792e+09   ,-2.5  ,2.4  ,3.1
874  ,1.660e+09   ,-2.5  ,2.4  ,2.9
875  ,1.657e+09   ,-2.5  ,2.4  ,2.7
876  ,1.664e+09   ,-2.5  ,2.4  ,2.5
877  ,1.615e+09   ,-2.5  ,2.4  ,2.3
878  ,1.612e+09   ,-2.5  ,2.4  ,2.1
879  ,1.619e+09   ,-2.5  ,2.4  ,1.9
880  ,1.677e+09   ,-2.5  ,2.4  ,1.7
881  ,1.622e+09   ,-2.5  ,2.4  ,1.5
882  ,1.661e+09   ,-2.5  ,2.4  ,1.3
883  ,1.542e+09   ,-2.5  ,2.4  ,1.1
884  ,1.476e+09   ,-2.5  ,2.4  ,0.9
885  ,1.246e+09   ,-2.5  ,2.4  ,0.7
886  ,1.047e+09   ,-2.5  ,2.4  ,0.5
887  ,6.631e+08   ,-2.5  ,2.4  ,0.3
1044  ,1.549e+09   ,-2.3  ,-2.5  ,0.44697
1045  ,3.635e+08   ,-2.3  ,-2.5  ,0.68705
1046  ,1.699e+08   ,-2.3  ,-2.5  ,0.92554
1047  ,4.385e+07   ,-2.3  ,-2.5  ,1.1682
1048  ,3.718e+08   ,-2.3  ,-2.5  ,1.4148
1049  ,1.011e+09   ,-2.3  ,-2.5  ,1.6581
1050  ,1.661e+09   ,-2.3  ,-2.5  ,1.8967
1051  ,1.897e+09   ,-2.3  ,-2.5  ,2.1357
1052  ,1.523e+09   ,-2.3  ,-2.5  ,2.3794
1053  ,8.555e+08   ,-2.3  ,-2.5  ,2.6206
1054  ,2.067e+08   ,-2.3  ,-2.5  ,2.8643
1055  ,6.748e+08   ,-2.3  ,-2.5  ,3.1033
1056  ,1.259e+09   ,-2.3  ,-2.5  ,3.342
1057  ,1.666e+09   ,-2.3  ,-2.5  ,3.5852
1058  ,1.908e+09   ,-2.3  ,-2.5  ,3.8318
1059  ,1.808e+09   ,-2.3  ,-2.5  ,4.0745
1060  ,1.330e+09   ,-2.3  ,-2.5  ,4.3129
1061  ,8.362e+08   ,-2.3  ,-2.5  ,4.553
1062  ,3.436e+09   ,-2.053  ,-2.5  ,4.8
1063  ,2.888e+09   ,-1.8129  ,-2.5  ,4.8
1064  ,2.084e+09   ,-1.5745  ,-2.5  ,4.8
1065  ,7.697e+08   ,-1.3318  ,-2.5  ,4.8
1066  ,2.933e+08   ,-1.0852  ,-2.5  ,4.8
1067  ,8.539e+08   ,-0.84195  ,-2.5  ,4.8
1068  ,1.698e+09   ,-0.60329  ,-2.5  ,4.8
1069  ,2.225e+09   ,-0.3643  ,-2.5  ,4.8
1070  ,1.920e+09   ,-0.12055  ,-2.5  ,4.8
1071  ,1.042e+09   ,0.12056  ,-2.5  ,4.8
1072  ,2.814e+08   ,0.3643  ,-2.5  ,4.8
1073  ,8.015e+08   ,0.6033  ,-2.5  ,4.8
1074  ,8.475e+08   ,0.84195  ,-2.5  ,4.8
1075  ,5.895e+08   ,1.0852  ,-2.5  ,4.8
1076  ,3.881e+08   ,1.3318  ,-2.5  ,4.8
1077  ,6.649e+08   ,1.5745  ,-2.5  ,4.8
1078  ,1.923e+09   ,1.8129  ,-2.5  ,4.8
1079  ,4.807e+09   ,2.053  ,-2.5  ,4.8
1080  ,4.864e+09   ,2.3  ,-2.5  ,4.553
1081  ,1.951e+09   ,2.3  ,-2.5  ,4.3129
1082  ,6.585e+08   ,2.3  ,-2.5  ,4.0745
1083  ,5.395e+08   ,2.3  ,-2.5  ,3.8318
1084  ,6.806e+08   ,2.3  ,-2.5  ,3.5852
1085  ,8.259e+08   ,2.3  ,-2.5  ,3.3419
1086  ,6.570e+08   ,2.3  ,-2.5  ,3.1033
1087  ,4.556e+08   ,2.3  ,-2.5  ,2.8643
1088  ,1.249e+09   ,2.3  ,-2.5  ,2.6206
1089  ,1.938e+09   ,2.3  ,-2.5  ,2.3794
1090  ,2.136e+09   ,2.3  ,-2.5  ,2.1357
1091  ,1.528e+09   ,2.3  ,-2.5  ,1.8967
1092  ,6.614e+08   ,2.3  ,-2.5  ,1.658
1093  ,1.813e+08   ,2.3  ,-2.5  ,1.4148
1094  ,6.912e+08   ,2.3  ,-2.5  ,1.1682
1095  ,1.907e+09   ,2.3  ,-2.5  ,0.92554
1096  ,2.815e+09   ,2.3  ,-2.5  ,0.68705
1097  ,3.226e+09   ,2.3  ,-2.5  ,0.44697
1098  ,1.242e+09   ,-2.053  ,-2.5  ,0.2
1099  ,5.934e+08   ,-1.8129  ,-2.5  ,0.2
1100  ,3.275e+08   ,-1.5745  ,-2.5  ,0.2
1101  ,1.675e+08   ,-1.3318  ,-2.5  ,0.2
1102  ,3.519e+08   ,-1.0852  ,-2.5  ,0.2
1103  ,1.103e+09   ,-0.84195  ,-2.5  ,0.2
1104  ,1.684e+09   ,-0.60329  ,-2.5  ,0.2
1105  ,1.846e+09   ,-0.3643  ,-2.5  ,0.2
1106  ,1.535e+09   ,-0.12055  ,-2.5  ,0.2
1107  ,9.412e+08   ,0.12056  ,-2.5  ,0.2
1108  ,3.939e+08   ,0.3643  ,-2.5  ,0.2
1109  ,8.414e+08   ,0.6033  ,-2.5  ,0.2
1110  ,1.393e+09   ,0.84195  ,-2.5  ,0.2
1111  ,1.674e+09   ,1.0852  ,-2.5  ,0.2
1112  ,1.844e+09   ,1.3318  ,-2.5  ,0.2
1113  ,1.805e+09   ,1.5745  ,-2.5  ,0.2
1114  ,1.328e+09   ,1.8129  ,-2.5  ,0.2
1115  ,1.065e+09   ,2.053  ,-2.5  ,0.2
1116  ,1.574e+09   ,-2.2  ,-2.5  ,4.9
1117  ,1.683e+08   ,-2  ,-2.5  ,4.9
1118  ,4.021e+08   ,-1.8  ,-2.5  ,4.9
1119  ,5.780e+08   ,-1.6  ,-2.5  ,4.9
1120  ,6.539e+08   ,-1.4  ,-2.5  ,4.9
1121  ,6.083e+08   ,-1.2  ,-2.5  ,4.9
1122  ,7.442e+08   ,-1  ,-2.5  ,4.9
1123  ,1.021e+09   ,-0.8  ,-2.5  ,4.9
1124  ,8.668e+08   ,-0.6  ,-2.5  ,4.9
1125  ,8.599e+08   ,-0.4  ,-2.5  ,4.9
1126  ,9.382e+08   ,-0.2  ,-2.5  ,4.9
1127  ,1.380e+09   ,-1.7664E-15  ,-2.5  ,4.9
1128  ,1.404e+09   ,0.2  ,-2.5  ,4.9
1129  ,1.614e+09   ,0.4  ,-2.5  ,4.9
1130  ,1.471e+09   ,0.6  ,-2.5  ,4.9
1131  ,1.785e+09   ,0.8  ,-2.5  ,4.9
1132  ,1.798e+09   ,1  ,-2.5  ,4.9
1133  ,1.894e+09   ,1.2  ,-2.5  ,4.9
1134  ,1.544e+09   ,1.4  ,-2.5  ,4.9
1135  ,1.619e+09   ,1.6  ,-2.5  ,4.9
1136  ,1.706e+09   ,1.8  ,-2.5  ,4.9
1137  ,1.564e+09   ,2  ,-2.5  ,4.9
1138  ,1.095e+09   ,2.2  ,-2.5  ,4.9
1139  ,2.021e+09   ,-2.4  ,-2.5  ,4.7
1140  ,1.469e+09   ,-2.4  ,-2.5  ,4.5
1141  ,1.032e+09   ,-2.4  ,-2.5  ,4.3
1142  ,5.677e+08   ,-2.4  ,-2.5  ,4.1
1143  ,4.865e+08   ,-2.4  ,-2.5  ,3.9
1144  ,8.152e+08   ,-2.4  ,-2.5  ,3.7
1145  ,6.241e+08   ,-2.4  ,-2.5  ,3.5
1146  ,1.096e+09   ,-2.4  ,-2.5  ,3.3
1147  ,1.006e+09   ,-2.4  ,-2.5  ,3.1
1148  ,1.165e+09   ,-2.4  ,-2.5  ,2.9
1149  ,1.140e+09   ,-2.4  ,-2.5  ,2.7
1150  ,1.099e+09   ,-2.4  ,-2.5  ,2.5
1151  ,8.655e+08   ,-2.4  ,-2.5  ,2.3
1152  ,9.752e+08   ,-2.4  ,-2.5  ,2.1
1153  ,9.718e+08   ,-2.4  ,-2.5  ,1.9
1154  ,1.105e+09   ,-2.4  ,-2.5  ,1.7
1155  ,9.644e+08   ,-2.4  ,-2.5  ,1.5
1156  ,9.833e+08   ,-2.4  ,-2.5  ,1.3
1157  ,8.033e+08   ,-2.4  ,-2.5  ,1.1
1158  ,8.081e+08   ,-2.4  ,-2.5  ,0.9
1159  ,1.007e+09   ,-2.4  ,-2.5  ,0.7
1160  ,1.263e+09   ,-2.4  ,-2.5  ,0.5
1161  ,1.422e+09   ,-2.4  ,-2.5  ,0.3
1162  ,1.390e+09   ,-2.2  ,-2.5  ,0.1
1163  ,1.410e+09   ,-2  ,-2.5  ,0.1
1164  ,1.110e+09   ,-1.8  ,-2.5  ,0.1
1165  ,8.473e+08   ,-1.6  ,-2.5  ,0.1
1166  ,7.867e+08   ,-1.4  ,-2.5  ,0.1
1167  ,9.195e+08   ,-1.2  ,-2.5  ,0.1
1168  ,1.015e+09   ,-1  ,-2.5  ,0.1
1169  ,1.127e+09   ,-0.8  ,-2.5  ,0.1
1170  ,9.661e+08   ,-0.6  ,-2.5  ,0.1
1171  ,8.453e+08   ,-0.4  ,-2.5  ,0.1
1172  ,8.709e+08   ,-0.2  ,-2.5  ,0.1
1173  ,1.004e+09   ,-1.7664E-15  ,-2.5  ,0.1
1174  ,1.124e+09   ,0.2  ,-2.5  ,0.1
1175  ,1.181e+09   ,0.4  ,-2.5  ,0.1
1176  ,1.294e+09   ,0.6  ,-2.5  ,0.1
1177  ,8.949e+08   ,0.8  ,-2.5  ,0.1
1178  ,8.808e+08   ,1  ,-2.5  ,0.1
1179  ,8.094e+08   ,1.2  ,-2.5  ,0.1
1180  ,5.711e+08   ,1.4  ,-2.5  ,0.1
1181  ,7.698e+08   ,1.6  ,-2.5  ,0.1
1182  ,1.128e+09   ,1.8  ,-2.5  ,0.1
1183  ,1.384e+09   ,2  ,-2.5  ,0.1
1184  ,1.790e+09   ,2.2  ,-2.5  ,0.1
1185  ,1.075e+09   ,2.4  ,-2.5  ,4.7
1186  ,1.611e+09   ,2.4  ,-2.5  ,4.5
1187  ,1.753e+09   ,2.4  ,-2.5  ,4.3
1188  ,1.701e+09   ,2.4  ,-2.5  ,4.1
1189  ,1.653e+09   ,2.4  ,-2.5  ,3.9
1190  ,1.665e+09   ,2.4  ,-2.5  ,3.7
1191  ,1.537e+09   ,2.4  ,-2.5  ,3.5
1192  ,1.793e+09   ,2.4  ,-2.5  ,3.3
1193  ,1.800e+09   ,2.4  ,-2.5  ,3.1
1194  ,1.762e+09   ,2.4  ,-2.5  ,2.9
1195  ,1.466e+09   ,2.4  ,-2.5  ,2.7
1196  ,1.288e+09   ,2.4  ,-2.5  ,2.5
1197  ,9.455e+08   ,2.4  ,-2.5  ,2.3
1198  ,8.325e+08   ,2.4  ,-2.5  ,2.1
1199  ,8.332e+08   ,2.4  ,-2.5  ,1.9
1200  ,9.060e+08   ,2.4  ,-2.5  ,1.7
1201  ,7.163e+08   ,2.4  ,-2.5  ,1.5
1202  ,6.285e+08   ,2.4  ,-2.5  ,1.3
1203  ,5.675e+08   ,2.4  ,-2.5  ,1.1
1204  ,4.795e+08   ,2.4  ,-2.5  ,0.9
1205  ,1.701e+08   ,2.4  ,-2.5  ,0.7
1206  ,6.959e+08   ,2.4  ,-2.5  ,0.5
1207  ,1.161e+09   ,2.4  ,-2.5  ,0.3
1208  ,1.209e+09   ,2.4  ,-2.2  ,0
1209  ,1.163e+09   ,2.4  ,-2  ,0
1210  ,9.324e+08   ,2.4  ,-1.8  ,0
1211  ,8.209e+08   ,2.4  ,-1.6  ,0
1212  ,9.109e+08   ,2.4  ,-1.4  ,0
1213  ,8.757e+08   ,2.4  ,-1.2  ,0
1214  ,9.600e+08   ,2.4  ,-1  ,0
1215  ,9.264e+08   ,2.4  ,-0.8  ,0
1216  ,7.097e+08   ,2.4  ,-0.6  ,0
1217  ,8.342e+08   ,2.4  ,-0.4  ,0
1218  ,8.679e+08   ,2.4  ,-0.2  ,0
1219  ,9.302e+08   ,2.4  ,-1.7664E-15  ,0
1220  ,1.099e+09   ,2.4  ,0.2  ,0
1221  ,1.074e+09   ,2.4  ,0.4  ,0
1222  ,1.198e+09   ,2.4  ,0.6  ,0
1223  ,1.322e+09   ,2.4  ,0.8  ,0
1224  ,1.063e+09   ,2.4  ,1  ,0
1225  ,9.999e+08   ,2.4  ,1.2  ,0
1226  ,9.036e+08   ,2.4  ,1.4  ,0
1227  ,7.725e+08   ,2.4  ,1.6  ,0
1228  ,8.721e+08   ,2.4  ,1.8  ,0
1229  ,7.882e+08   ,2.4  ,2  ,0
1230  ,5.757e+08   ,2.4  ,2.2  ,0
1231  ,1.390e+09   ,-2.2  ,-2.4  ,0
1232  ,8.545e+08   ,-2  ,-2.4  ,0
1233  ,1.393e+09   ,-1.8  ,-2.4  ,0
1234  ,1.569e+09   ,-1.6  ,-2.4  ,0
1235  ,1.541e+09   ,-1.4  ,-2.4  ,0
1236  ,1.477e+09   ,-1.2  ,-2.4  ,0
1237  ,1.131e+09   ,-1  ,-2.4  ,0
1238  ,8.708e+08   ,-0.8  ,-2.4  ,0
1239  ,6.445e+08   ,-0.6  ,-2.4  ,0
1240  ,2.899e+08   ,-0.4  ,-2.4  ,0
1241  ,2.065e+08   ,-0.2  ,-2.4  ,0
1242  ,6.982e+08   ,5.8879E-16  ,-2.4  ,0
1243  ,1.343e+09   ,0.2  ,-2.4  ,0
1244  ,2.109e+09   ,0.4  ,-2.4  ,0
1245  ,2.570e+09   ,0.6  ,-2.4  ,0
1246  ,3.179e+09   ,0.8  ,-2.4  ,0
1247  ,3.132e+09   ,1  ,-2.4  ,0
1248  ,3.172e+09   ,1.2  ,-2.4  ,0
1249  ,2.784e+09   ,1.4  ,-2.4  ,0
1250  ,2.229e+09   ,1.6  ,-2.4  ,0
1251  ,1.505e+09   ,1.8  ,-2.4  ,0
1252  ,1.253e+09   ,2  ,-2.4  ,0
1253  ,1.867e+09   ,2.2  ,-2.4  ,0
1254  ,4.920e+08   ,-2.4  ,2.2  ,0
1255  ,9.779e+08   ,-2.4  ,2  ,0
1256  ,1.349e+09   ,-2.4  ,1.8  ,0
1257  ,1.506e+09   ,-2.4  ,1.6  ,0
1258  ,1.703e+09   ,-2.4  ,1.4  ,0
1259  ,1.859e+09   ,-2.4  ,1.2  ,0
1260  ,1.955e+09   ,-2.4  ,1  ,0
1261  ,2.046e+09   ,-2.4  ,0.8  ,0
1262  ,1.967e+09   ,-2.4  ,0.6  ,0
1263  ,1.925e+09   ,-2.4  ,0.4  ,0
1264  ,1.912e+09   ,-2.4  ,0.2  ,0
1265  ,1.980e+09   ,-2.4  ,5.8879E-16  ,0
1266  ,2.064e+09   ,-2.4  ,-0.2  ,0
1267  ,2.118e+09   ,-2.4  ,-0.4  ,0
1268  ,1.865e+09   ,-2.4  ,-0.6  ,0
1269  ,1.501e+09   ,-2.4  ,-0.8  ,0
1270  ,1.188e+09   ,-2.4  ,-1  ,0
1271  ,8.188e+08   ,-2.4  ,-1.2  ,0
1272  ,5.692e+08   ,-2.4  ,-1.4  ,0
1273  ,4.552e+08   ,-2.4  ,-1.6  ,0
1274  ,4.901e+08   ,-2.4  ,-1.8  ,0
1275  ,7.449e+08   ,-2.4  ,-2  ,0
1276  ,8.298e+08   ,-2.4  ,-2.2  ,0
1277  ,5.698e+08   ,2.2  ,2.4  ,0
1278  ,9.153e+08   ,2  ,2.4  ,0
1279  ,1.081e+09   ,1.8  ,2.4  ,0
1280  ,1.017e+09   ,1.6  ,2.4  ,0
1281  ,1.145e+09   ,1.4  ,2.4  ,0
1282  ,1.464e+09   ,1.2  ,2.4  ,0
1283  ,1.739e+09   ,1  ,2.4  ,0
1284  ,1.959e+09   ,0.8  ,2.4  ,0
1285  ,1.918e+09   ,0.6  ,2.4  ,0
1286  ,1.723e+09   ,0.4  ,2.4  ,0
1287  ,1.733e+09   ,0.2  ,2.4  ,0
1288  ,1.619e+09   ,5.8879E-16  ,2.4  ,0
1289  ,1.753e+09   ,-0.2  ,2.4  ,0
1290  ,1.525e+09   ,-0.4  ,2.4  ,0
1291  ,1.643e+09   ,-0.6  ,2.4  ,0
1292  ,1.814e+09   ,-0.8  ,2.4  ,0
1293  ,1.623e+09   ,-1  ,2.4  ,0
1294  ,1.536e+09   ,-1.2  ,2.4  ,0
1295  ,1.472e+09   ,-1.4  ,2.4  ,0
1296  ,1.351e+09   ,-1.6  ,2.4  ,0
1297  ,1.188e+09   ,-1.8  ,2.4  ,0
1298  ,9.727e+08   ,-2  ,2.4  ,0
1299  ,6.801e+08   ,-2.2  ,2.4  ,0
1460  ,1.240e+10   ,2.3243  ,2.3243  ,4.9577
1461  ,1.160e+10   ,2.4577  ,2.3243  ,4.8243
1462  ,7.747e+09   ,2.3243  ,2.4577  ,4.8243
1463  ,1.871e+09   ,-2.3  ,-2.1759  ,4.8
1464  ,1.682e+09   ,-2.3  ,-1.7631  ,4.8
1465  ,1.720e+09   ,-2.3  ,-1.1827  ,4.8
1466  ,2.198e+09   ,-2.3  ,-0.34986  ,4.8
1467  ,2.903e+09   ,-2.3  ,0.80545  ,4.8
1468  ,2.848e+09   ,-0.81337  ,2.3  ,4.8
1469  ,5.137e+09   ,0.67326  ,2.3  ,4.8
1470  ,2.835e+09   ,2.3  ,-2.1824  ,4.8
1471  ,2.056e+09   ,2.3  ,-1.7784  ,4.8
1472  ,2.214e+09   ,2.3  ,-1.2138  ,4.8
1473  ,2.779e+09   ,2.3  ,-0.40752  ,4.8
1474  ,4.228e+09   ,2.3  ,0.70532  ,4.8
1516  ,2.892e+09   ,2.3  ,2.3  ,1.6866
1517  ,5.239e+09   ,2.3  ,2.3  ,3.1733
1518  ,1.889e+09   ,2.3  ,-2.1759  ,0.2
1519  ,1.677e+09   ,2.3  ,-1.7631  ,0.2
1520  ,1.765e+09   ,2.3  ,-1.1827  ,0.2
1521  ,2.193e+09   ,2.3  ,-0.34986  ,0.2
1522  ,2.960e+09   ,2.3  ,0.80545  ,0.2
1564  ,2.548e+09   ,-0.76667  ,2.3  ,0.2
1565  ,3.185e+09   ,0.76667  ,2.3  ,0.2
1566  ,2.469e+09   ,-2.3  ,2.3  ,1.7333
1567  ,3.169e+09   ,-2.3  ,2.3  ,3.2667
1574  ,8.717e+08   ,-2.3  ,-2.1759  ,0.2
1575  ,3.117e+08   ,-2.3  ,-1.7631  ,0.2
1576  ,5.399e+08   ,-2.3  ,-1.1827  ,0.2
1577  ,9.046e+08   ,-2.3  ,-0.34986  ,0.2
1578  ,7.728e+08   ,-2.3  ,0.80545  ,0.2
1777  ,3.048e+09   ,-0.52764  ,2.5  ,4.9
1801  ,9.287e+08   ,-2.3  ,1.5527  ,0.2
1825  ,1.644e+09   ,-1.5333  ,2.3  ,0.2
1841  ,2.721e+09   ,0.063638  ,2.5  ,4.9
1876  ,1.533e+09   ,-0.5  ,2.4  ,0
1894  ,2.823e+09   ,2.3  ,1.5527  ,0.2
1907  ,6.344e+08   ,2.1  ,2.5  ,0.1
1928  ,9.556e+08   ,1.9  ,2.4  ,0
1974  ,9.991e+08   ,2.4  ,1.1  ,0
1981  ,8.986e+08   ,2.4  ,2.5  ,0.59273
1987  ,1.163e+09   ,-2.5  ,2.4  ,4
2004  ,7.234e+08   ,-2.4  ,2.5  ,4.6
2009  ,8.982e+08   ,2.4  ,1.3  ,0
2020  ,1.018e+09   ,2.5  ,1.1  ,0.1
2035  ,1.028e+09   ,-2.3  ,-0.76628  ,0.2
2070  ,6.760e+09   ,1.6404  ,2.4  ,5
2081  ,2.698e+09   ,2.4  ,2.5  ,1.9724
2095  ,1.345e+09   ,2.4  ,2.5  ,0.78982
2138  ,1.960e+09   ,-2.4  ,-0.1  ,0
2146  ,2.636e+09   ,-0.92182  ,2.4  ,5
2174  ,2.200e+09   ,2.4  ,2.5  ,1.184
2190  ,1.711e+09   ,2.5  ,2.4  ,0.98691
2203  ,2.988e+09   ,2.5  ,-0.13345  ,4.9
2232  ,5.251e+09   ,2.3  ,0.1489  ,4.8
2242  ,3.478e+09   ,2.4  ,2.5  ,2.9578
2293  ,2.050e+09   ,-2.5  ,0.5  ,0.1
2311  ,5.569e+09   ,2.3  ,2.3  ,2.4299
2313  ,1.552e+09   ,2.5  ,2.4  ,0.78982
2329  ,2.577e+09   ,2.4  ,2.5  ,2.1695
2355  ,9.045e+08   ,-2.4  ,2.5  ,4.4
2380  ,5.560e+08   ,-2.5  ,-1.5  ,0.1
2383  ,3.446e+09   ,0.45782  ,2.5  ,4.9
2408  ,3.113e+09   ,2.3  ,-1.4961  ,4.8
2445  ,2.327e+09   ,2.5  ,-1.5131  ,4.9
2484  ,9.830e+08   ,-2.5  ,-2.4  ,1.6
2495  ,7.963e+08   ,-2.4  ,1.7  ,5
2508  ,1.086e+09   ,2.4  ,0.3  ,0
2514  ,3.332e+09   ,2.3  ,0.2278  ,0.2
2570  ,8.361e+08   ,-2.4  ,1.5  ,5
2580  ,6.495e+09   ,1.6404  ,2.5  ,4.9
2603  ,2.815e+09   ,-1.1189  ,2.5  ,4.9
2695  ,2.165e+09   ,2.3  ,2.3  ,0.94331
2705  ,2.888e+09   ,2.4  ,2.5  ,1.3811
2714  ,2.231e+09   ,2.5  ,0.45782  ,4.9
2734  ,8.852e+08   ,2.4  ,-0.9  ,0
2775  ,9.638e+08   ,2.5  ,-0.1  ,0.1
2779  ,8.958e+08   ,2.4  ,-0.1  ,0
2801  ,8.941e+09   ,1.4166  ,2.3  ,4.8
2814  ,4.844e+09   ,1.4433  ,2.5  ,4.9
2863  ,1.357e+09   ,-2.4  ,2.5  ,0.6
2884  ,1.599e+09   ,-2.4  ,2.5  ,0.8
2886  ,1.823e+09   ,-2.4  ,2.5  ,1.2
2967  ,7.253e+08   ,2.4  ,1.7  ,0
2973  ,8.838e+08   ,2.5  ,1.5  ,0.1
2987  ,1.242e+09   ,-0.3  ,2.5  ,0.1
3008  ,1.766e+09   ,-2.3  ,2.3  ,0.96667
3012  ,1.651e+09   ,-2.5  ,2.4  ,2.6
3021  ,1.614e+09   ,-2.5  ,2.4  ,2.8
3025  ,1.618e+09   ,-2.5  ,2.4  ,2.4
3030  ,1.698e+09   ,-2.4  ,2.5  ,2.4
3033  ,1.611e+09   ,-2.4  ,2.5  ,2.2
3047  ,2.703e+09   ,2.4  ,2.5  ,2.3665
3052  ,2.970e+09   ,2.5  ,2.4  ,2.5636
3061  ,2.869e+09   ,2.4  ,2.5  ,2.5636
3081  ,9.885e+08   ,-2.4  ,1.3  ,5
3088  ,6.795e+08   ,-1.9073  ,2.4  ,5
3099  ,7.885e+08   ,-2.4  ,1.9  ,5
3107  ,1.060e+09   ,-2.4  ,2.5  ,3.8
3139  ,1.571e+09   ,-1.5131  ,2.4  ,5
3145  ,1.684e+09   ,-1.5131  ,2.5  ,4.9
3148  ,1.200e+09   ,-1.7102  ,2.5  ,4.9
3168  ,1.600e+09   ,-2.4  ,1.5  ,0
3188  ,1.533e+09   ,-2.5  ,-2.4  ,1
3202  ,2.944e+09   ,0.26073  ,2.5  ,4.9
3212  ,6.162e+09   ,2.5  ,1.6404  ,4.9
3247  ,1.031e+10   ,2.5  ,1.8375  ,4.9
3265  ,8.605e+09   ,2.3  ,1.4326  ,4.8
3271  ,1.475e+10   ,2.2299  ,2.2299  ,4.8
3284  ,4.147e+09   ,2.4  ,1.4433  ,5
3291  ,4.404e+09   ,2.5  ,1.4433  ,4.9
3296  ,2.046e+09   ,-2.3  ,-0.76628  ,4.8
3303  ,1.035e+09   ,-2.4  ,-0.9  ,5
3311  ,8.040e+08   ,-2.4  ,-0.7  ,5
3315  ,8.442e+08   ,1.9  ,2.5  ,0.1
3336  ,1.901e+09   ,-2.4  ,0.3  ,0
3340  ,1.882e+09   ,-2.5  ,0.1  ,0.1
3344  ,1.917e+09   ,-2.4  ,0.1  ,0
3356  ,1.591e+09   ,-0.3  ,2.4  ,0
3361  ,2.522e+09   ,-0.33054  ,2.5  ,4.9
3364  ,2.552e+09   ,-0.13345  ,2.5  ,4.9
3383  ,3.660e+09   ,2.4  ,2.5  ,3.5491
3402  ,1.673e+10   ,2.4  ,2.5  ,4.5345
3421  ,2.170e+09   ,-1.316  ,2.5  ,4.9
3439  ,4.840e+09   ,2.5  ,2.4  ,3.9433
3447  ,4.964e+09   ,2.4  ,2.5  ,3.9433
3451  ,4.038e+09   ,2.4  ,2.5  ,3.7462
3468  ,4.945e+09   ,1.4433  ,2.4  ,5
3480  ,3.628e+09   ,1.0491  ,2.4  ,5
3519  ,1.072e+09   ,1.5  ,2.4  ,0
3527  ,2.146e+09   ,2.3  ,-1.4729  ,0.2
3550  ,1.249e+09   ,-1.7  ,2.4  ,0
3554  ,1.520e+09   ,-1.7  ,2.5  ,0.1
3558  ,1.411e+09   ,-1.5  ,2.4  ,0
3562  ,1.643e+09   ,-1.5  ,2.5  ,0.1
3574  ,5.841e+08   ,-2.4  ,2.1  ,5
3581  ,1.386e+09   ,-2.5  ,1.7  ,0.1
3583  ,1.158e+09   ,-2.5  ,1.9  ,0.1
3584  ,6.945e+08   ,-1.9073  ,2.5  ,4.9
3591  ,1.182e+09   ,2.5  ,0.3  ,0.1
3595  ,1.028e+09   ,2.5  ,0.1  ,0.1
3603  ,1.934e+10   ,2.4577  ,2.391  ,4.7576
3663  ,7.852e+08   ,-1.933  ,-2.5  ,0.2
3669  ,2.365e+09   ,-2.1765  ,-2.5  ,0.2
3672  ,1.672e+09   ,-2.3  ,-2.3379  ,0.2
3682  ,1.129e+09   ,-1.9  ,-2.4  ,0
3700  ,7.854e+08   ,2.3  ,-2.5  ,2.7424
3712  ,1.365e+09   ,-2.1  ,-2.5  ,4.9
3715  ,2.363e+08   ,-1.9  ,-2.5  ,4.9
3740  ,1.103e+09   ,-1.3  ,-2.4  ,5
3746  ,3.966e+08   ,-1.2085  ,-2.5  ,4.8
3755  ,1.729e+09   ,-1.5  ,-2.4  ,5
3760  ,2.286e+08   ,-1.7  ,-2.5  ,4.9
3786  ,2.753e+09   ,2.4  ,2.5  ,1.5782
3813  ,3.016e+09   ,0.26073  ,2.4  ,5
3858  ,8.288e+08   ,-0.9  ,-2.4  ,5
3863  ,1.354e+09   ,-2.5  ,0.9  ,4.9
3875  ,2.752e+09   ,-1.9  ,-2.4  ,5
3885  ,2.499e+09   ,2.4  ,-0.72473  ,5
3910  ,8.123e+08   ,-2.4  ,-2.5  ,3.4
3959  ,7.178e+09   ,2.5  ,2.4  ,4.1404
3969  ,2.693e+09   ,2.5  ,1.0491  ,4.9
3992  ,1.607e+10   ,2.391  ,2.2576  ,4.9577
3993  ,1.884e+10   ,2.4577  ,2.2576  ,4.891
4016  ,3.225e+08   ,-2.3015  ,2.5  ,4.9
4018  ,4.570e+08   ,-2.4  ,2.5  ,4.8
4021  ,3.827e+09   ,1.2462  ,2.4  ,5
4042  ,9.077e+08   ,2.4  ,-1.1  ,0
4046  ,1.653e+09   ,-0.9  ,2.4  ,0
4055  ,1.617e+09   ,1.7  ,-2.5  ,4.9
4087  ,1.091e+09   ,1.7  ,2.4  ,0
4114  ,2.241e+09   ,2.5  ,-0.33054  ,4.9
4120  ,9.685e+08   ,2.4  ,-2.5  ,1.8
4125  ,1.363e+09   ,2.4  ,2.5  ,0.98691
4144  ,1.130e+10   ,2.4  ,2.5  ,4.3375
4161  ,1.231e+09   ,-2.4  ,0.3  ,5
4201  ,1.059e+09   ,1.933  ,-2.5  ,0.2
4225  ,1.201e+09   ,-2.3  ,-2.4  ,0
4230  ,6.479e+08   ,-2.3  ,-2.5  ,0.56701
4269  ,9.556e+08   ,-0.9  ,-2.5  ,4.9
4277  ,9.118e+08   ,-1.1  ,-2.4  ,5
4288  ,4.608e+09   ,-0.070055  ,2.3  ,4.8
4328  ,1.838e+09   ,-2.5  ,-2.4  ,4.2
4336  ,1.257e+09   ,-2.5  ,-2.4  ,4.4
4342  ,1.111e+09   ,-2.5  ,-2.4  ,4.6
4348  ,1.790e+09   ,-2.4  ,-2.4707  ,4.9707
4352  ,1.725e+09   ,-2.3  ,-2.5  ,4.9
4354  ,3.706e+09   ,-2.1765  ,-2.5  ,4.8
4355  ,2.257e+09   ,-2.3  ,-2.3379  ,4.8
4362  ,8.553e+08   ,2.5  ,2.4  ,0.59273
4364  ,2.953e+08   ,2.5  ,-2.4  ,2.4
4366  ,4.187e+08   ,2.5  ,-2.4  ,2.2
4372  ,8.673e+08   ,2.4  ,-2.5  ,2.2
4385  ,5.660e+08   ,-2.5  ,-1.9  ,0.1
4399  ,6.914e+08   ,-2.5  ,2.1  ,0.1
4407  ,6.866e+08   ,-0.7  ,-2.4  ,0
4436  ,1.943e+09   ,-2.5  ,-0.1  ,0.1
4462  ,2.545e+09   ,-2.3  ,2.3  ,4.0333
4491  ,2.150e+09   ,2.5  ,-0.52764  ,4.9
4494  ,1.000e+09   ,2.5  ,-2.4  ,1.4
4503  ,6.687e+08   ,2.4  ,-2.5  ,1.4
4508  ,5.933e+08   ,2.4  ,-2.5  ,1.2
4515  ,8.495e+08   ,2.5  ,-2.4  ,1.8
4517  ,8.305e+08   ,2.4  ,-2.5  ,1.6
4522  ,2.818e+09   ,0.7  ,-2.4  ,0
4538  ,2.331e+09   ,-1.1189  ,2.4  ,5
4546  ,6.451e+09   ,2.4  ,2.5  ,4.1404
4559  ,1.804e+09   ,1.7  ,-2.4  ,0
4590  ,2.357e+09   ,0.5  ,-2.4  ,0
4631  ,1.387e+09   ,2.4  ,-2.5  ,2.6
4634  ,2.305e+09   ,2.5  ,-2.4  ,2.8
4657  ,4.513e+08   ,-2.5  ,-2.4  ,2
4660  ,6.453e+08   ,-2.5  ,-2.4  ,1.8
4664  ,6.873e+07   ,-0.3  ,-2.4  ,0
4675  ,1.562e+09   ,-2.4  ,-2.5  ,4.8
4681  ,2.113e+09   ,-2.5  ,-0.3  ,0.1
4684  ,1.216e+09   ,1.7  ,-2.4  ,5
4703  ,1.693e+09   ,-2.4  ,0.7  ,5
4707  ,1.147e+09   ,-2.5  ,0.3  ,4.9
4714  ,2.090e+09   ,2.4  ,-0.33054  ,5
4723  ,2.767e+09   ,-1.5567  ,2.3  ,4.8
4739  ,3.015e+08   ,-2.1044  ,2.5  ,4.9
4763  ,1.052e+09   ,-1.9  ,2.4  ,0
4780  ,4.358e+08   ,-2.3  ,-1.9695  ,0.2
4782  ,9.626e+08   ,-2.4707  ,-2.4  ,0.029289
4784  ,5.712e+08   ,-2.4  ,-1.9  ,0
4791  ,1.061e+09   ,-2.4  ,-2.5  ,1.8
4796  ,3.449e+09   ,2.4707  ,-2.4707  ,4.9
4799  ,3.996e+09   ,2.5  ,-2.4  ,4.8
4806  ,2.363e+09   ,2.3  ,-2.5  ,4.9
4809  ,9.203e+09   ,2.3  ,2.3  ,3.9166
4833  ,1.121e+09   ,-2.4  ,2.5  ,0.4
4841  ,1.733e+09   ,-2.4  ,2.5  ,2.6
4846  ,5.018e+08   ,-2.5  ,2.1  ,4.9
4848  ,3.659e+08   ,-2.5  ,2.3  ,4.9
4849  ,3.961e+08   ,-2.5  ,2.4  ,4.8
4893  ,1.014e+09   ,-2.4  ,2.5  ,4.2
4897  ,1.775e+10   ,2.3333  ,2.1998  ,5
4900  ,1.741e+10   ,2.391  ,2.4577  ,4.7576
4908  ,1.928e+10   ,2.2576  ,2.391  ,4.9577
4911  ,1.801e+10   ,2.2576  ,2.4577  ,4.891
4926  ,1.492e+09   ,-2.5  ,2.4  ,1
4932  ,1.855e+09   ,-2.4  ,2.5  ,1.6
4937  ,1.878e+09   ,-1.1  ,2.5  ,0.1
4939  ,1.450e+10   ,2.3  ,2.2299  ,4.7299
4944  ,2.917e+09   ,2.5  ,-1.9073  ,4.9
4987  ,2.621e+09   ,-2.3  ,1.5527  ,4.8
5010  ,4.092e+10   ,2.4973  ,2.1331  ,4.923
5013  ,1.426e+10   ,2.5  ,2.0345  ,4.9
5017  ,1.597e+10   ,2.4  ,2.0345  ,5
5035  ,2.880e+09   ,1.3  ,-2.4  ,0
5038  ,1.757e+09   ,1.2085  ,-2.5  ,0.2
5092  ,8.366e+08   ,-2.4  ,-2.5  ,1.2
5123  ,2.751e+09   ,2.5  ,-2.4  ,0.6
5151  ,1.983e+09   ,-2.5  ,-0.5  ,0.1
5160  ,1.600e+09   ,-2.5  ,-0.7  ,0.1
5164  ,1.537e+09   ,-2.4  ,0.9  ,5
5168  ,1.326e+09   ,-2.4  ,0.5  ,5
5176  ,7.877e+08   ,2.5  ,-0.7  ,0.1
5179  ,7.184e+08   ,2.4  ,-0.5  ,0
5189  ,1.147e+09   ,2.4  ,-2.5  ,2.4
5194  ,2.110e+09   ,2.3  ,-2.5  ,2.2576
5198  ,2.384e+09   ,-2.3  ,-2.5  ,0.32348
5205  ,6.514e+08   ,-2.4  ,-2.5  ,0.2
5207  ,1.341e+09   ,-2.1  ,-2.5  ,0.1
5246  ,1.828e+09   ,-2.5  ,2.4  ,3.2
5257  ,8.553e+08   ,-2.5  ,1.5  ,4.9
5263  ,1.234e+09   ,-2.3  ,0.2278  ,0.2
5272  ,1.879e+09   ,-2.5  ,0.3  ,0.1
5275  ,1.161e+09   ,-2.5  ,0.5  ,4.9
5281  ,8.256e+09   ,1.8375  ,2.5  ,4.9
5297  ,1.837e+09   ,-0.9  ,2.5  ,0.1
5306  ,1.739e+09   ,-0.7  ,2.4  ,0
5309  ,1.501e+09   ,-0.5  ,2.5  ,0.1
5324  ,3.076e+09   ,2.4  ,2.5  ,2.7607
5332  ,2.269e+09   ,2.5  ,-2.4  ,0.8
5334  ,6.466e+08   ,2.4  ,-2.5  ,1
5360  ,2.481e+09   ,2.4  ,-1.7102  ,5
5362  ,2.458e+09   ,2.4  ,-1.5131  ,5
5368  ,8.632e+09   ,2.4  ,1.8375  ,5
5371  ,3.895e+10   ,2.4325  ,2.4888  ,4.6656
5372  ,2.583e+10   ,2.3333  ,2.5  ,4.6998
5376  ,3.324e+10   ,2.4707  ,2.4707  ,4.6331
5377  ,1.958e+10   ,2.5  ,2.4  ,4.5345
5379  ,6.239e+08   ,-1.5  ,-2.5  ,4.9
5406  ,2.864e+09   ,-2.5  ,-2.4  ,3.4
5420  ,9.783e+08   ,-2.3  ,-2.5  ,3.2226
5423  ,2.436e+09   ,1.5  ,-2.4  ,0
5502  ,9.917e+08   ,-2.5  ,-2.3  ,0.1
5504  ,1.116e+09   ,-2.5  ,-2.4  ,0.2
5506  ,1.096e+09   ,-2.4  ,-2.3  ,0
5511  ,7.384e+08   ,-2.5  ,-2.1  ,0.1
5513  ,1.899e+09   ,-2.4  ,0.5  ,0
5517  ,1.138e+09   ,-0.9  ,-2.5  ,0.1
5532  ,2.870e+08   ,-2.4707  ,2.4707  ,4.9
5534  ,7.891e+08   ,2.4  ,-0.7  ,0
5551  ,3.121e+09   ,2.5  ,-2.4  ,3.8
5566  ,2.029e+09   ,2.5  ,2.4  ,1.3811
5603  ,8.473e+08   ,2.4  ,-0.3  ,0
5617  ,1.093e+09   ,-2.1  ,2.5  ,0.1
5637  ,1.740e+09   ,-2.3  ,-1.9695  ,4.8
5641  ,7.915e+08   ,2.3  ,-2.5  ,3.4636
5645  ,1.019e+09   ,-2.4  ,-2.5  ,2
5649  ,8.999e+08   ,-2.4  ,-2.5  ,2.2
5659  ,1.379e+09   ,-2.3  ,-2.5  ,1.7774
5662  ,5.493e+09   ,2.1765  ,-2.5  ,4.8
5666  ,2.324e+09   ,2.4  ,-2.5  ,4.8
5669  ,3.282e+09   ,2.3  ,-2.3412  ,4.8
5695  ,1.972e+09   ,-2.4  ,0.7  ,0
5701  ,1.628e+09   ,-2.5  ,2.4  ,1.6
5715  ,1.712e+09   ,-2.4  ,2.5  ,1.8
5726  ,1.704e+09   ,-0.7  ,2.5  ,0.1
5727  ,1.576e+09   ,-1.1  ,2.4  ,0
5730  ,1.075e+09   ,2.3  ,-2.5  ,1.7774
5746  ,2.685e+09   ,2.5  ,2.4  ,1.7753
5755  ,1.005e+09   ,2.5  ,-2.4  ,4.4
5763  ,1.548e+09   ,2.4  ,-2.5  ,4.4
5773  ,3.607e+09   ,1.0491  ,2.5  ,4.9
5791  ,2.692e+09   ,-0.72473  ,2.4  ,5
5795  ,9.324e+09   ,1.8375  ,2.4  ,5
5803  ,4.788e+08   ,-0.3  ,-2.4  ,5
5810  ,5.896e+09   ,2.4  ,1.6404  ,5
5836  ,8.813e+08   ,-2.5  ,1.3  ,4.9
5860  ,9.004e+08   ,2.5  ,-2.4  ,1.6
5866  ,6.752e+08   ,1.5  ,-2.5  ,0.1
5884  ,8.720e+08   ,-2.4  ,-0.3  ,5
5888  ,6.295e+08   ,-2.5  ,-0.5  ,4.9
5901  ,1.623e+09   ,2.3  ,-2.5  ,2.5
5908  ,1.206e+09   ,2.5  ,-2.4  ,1.2
5909  ,8.325e+08   ,2.5  ,-2.4  ,2
5934  ,1.562e+09   ,1.9  ,-2.5  ,4.9
5938  ,3.065e+09   ,1.933  ,-2.5  ,4.8
5948  ,1.648e+09   ,-2.4  ,-2.5  ,4.6
5950  ,1.501e+09   ,-2.4707  ,-2.4707  ,4.9
5951  ,1.470e+09   ,-2.5  ,-2.4  ,4.8
5952  ,1.273e+09   ,-2.5  ,-2.3  ,4.9
5986  ,6.261e+08   ,2.3  ,-2.5  ,3.7085
5990  ,2.639e+09   ,-0.92182  ,2.5  ,4.9
6019  ,6.376e+08   ,2.5  ,1.9  ,0.1
6025  ,8.072e+08   ,2.4  ,-1.3  ,0
6035  ,7.825e+08   ,-2.5  ,1.9  ,4.9
6044  ,2.331e+09   ,0.1  ,2.5  ,0.1
6054  ,9.966e+08   ,2.4  ,0.1  ,0
6070  ,2.735e+08   ,-2.4  ,2.3  ,0
6071  ,3.628e+08   ,-2.3  ,2.4  ,0
6076  ,7.646e+08   ,-2.4  ,2.1  ,0
6083  ,1.441e+09   ,2.1  ,-2.4  ,0
6084  ,4.341e+08   ,2.4  ,2.3  ,0
6087  ,4.292e+08   ,2.3  ,2.4  ,0
6092  ,1.419e+09   ,-2.4  ,-2.5  ,0.4
6096  ,5.360e+08   ,-2.3  ,-2.5  ,0.1
6099  ,1.113e+09   ,0.7  ,-2.5  ,0.1
6149  ,1.353e+09   ,-2.4  ,-0.9  ,0
6159  ,1.111e+09   ,-2.5  ,-2.4  ,2.6
6183  ,3.895e+09   ,1.2462  ,2.5  ,4.9
6224  ,2.471e+09   ,2.5  ,-2.4  ,4
6228  ,1.587e+09   ,2.4  ,-2.5  ,3.8
6237  ,1.417e+09   ,2.5  ,0.7  ,0.1
6241  ,2.316e+10   ,2.5  ,2.3333  ,4.6998
6245  ,2.182e+09   ,2.5  ,2.4  ,1.5782
6259  ,3.028e+09   ,2.5  ,-2.1044  ,4.9
6265  ,2.789e+09   ,2.3  ,-1.9804  ,4.8
6267  ,3.108e+09   ,2.5  ,-2.3015  ,4.9
6268  ,2.854e+09   ,2.4707  ,-2.4  ,4.9707
6270  ,3.035e+09   ,2.4  ,-2.1044  ,5
6317  ,2.837e+09   ,-2.3  ,0.2278  ,4.8
6349  ,2.845e+09   ,-0.52764  ,2.4  ,5
6391  ,2.727e+09   ,2.4  ,2.5  ,1.7753
6440  ,1.302e+09   ,-2.5  ,2.4  ,3.8
6471  ,2.282e+09   ,2.5  ,-0.92182  ,4.9
6489  ,3.307e+09   ,2.5  ,1.2462  ,4.9
6523  ,1.280e+09   ,-1.1  ,-2.4  ,0
6528  ,9.760e+08   ,-1.1  ,-2.5  ,0.1
6535  ,9.499e+08   ,-0.9  ,-2.4  ,0
6538  ,2.452e+09   ,1.5  ,-2.4  ,5
6541  ,1.676e+09   ,1.5  ,-2.5  ,4.9
6551  ,2.139e+09   ,2.5  ,-0.72473  ,4.9
6564  ,5.051e+10   ,2.1331  ,2.4973  ,4.923
6565  ,1.686e+10   ,2.0345  ,2.5  ,4.9
6572  ,8.123e+08   ,2.4  ,-1.7  ,0
6581  ,3.449e+09   ,0  ,2.3  ,0.2
6592  ,1.828e+09   ,2.3  ,-1.9695  ,0.2
6594  ,1.695e+09   ,0.3  ,2.4  ,0
6601  ,2.123e+09   ,0.5  ,2.5  ,0.1
6605  ,6.789e+08   ,-2.4  ,-1.3  ,0
6606  ,9.451e+08   ,-2.4  ,-1.1  ,0
6615  ,2.124e+09   ,-2.4  ,-0.3  ,0
6634  ,1.746e+09   ,2.1  ,-2.5  ,4.9
6635  ,3.465e+09   ,2.4  ,-2.4707  ,4.9707
6636  ,4.021e+09   ,2.3  ,-2.4  ,5
6647  ,1.097e+09   ,0.5  ,-2.5  ,0.1
6704  ,1.188e+08   ,-2.4707  ,2.4707  ,0.1
6708  ,3.655e+08   ,-2.5  ,2.4  ,0.2
6712  ,1.271e+09   ,-2.4  ,2.5  ,3.6
6715  ,1.669e+09   ,-2.4  ,2.5  ,3.4
6728  ,1.441e+09   ,-2.5  ,0.7  ,4.9
6753  ,5.782e+08   ,-2.1044  ,2.4  ,5
6788  ,1.152e+10   ,2.5  ,2.4  ,4.3375
6791  ,3.361e+09   ,-1.933  ,-2.5  ,4.8
6795  ,2.653e+10   ,2.1998  ,2.5  ,4.8333
6837  ,1.955e+08   ,-2.3  ,-2.5  ,0.8063
6869  ,2.646e+09   ,2.5  ,-1.7102  ,4.9
6873  ,3.107e+09   ,2.4  ,-1.9073  ,5
6880  ,2.446e+09   ,2.4  ,-0.92182  ,5
6885  ,2.294e+09   ,2.4  ,-0.52764  ,5
6893  ,3.092e+09   ,2.4  ,1.2462  ,5
6914  ,2.130e+09   ,0.7  ,2.5  ,0.1
6920  ,1.866e+09   ,0.9  ,2.4  ,0
6923  ,1.923e+09   ,0.7  ,2.4  ,0
6936  ,1.585e+09   ,2.4  ,-2.5  ,3.4
6939  ,8.006e+08   ,2.3  ,-2.5  ,3.2226
6961  ,1.211e+09   ,-0.1  ,-2.5  ,4.9
6967  ,9.216e+08   ,-2.5  ,-1.5  ,4.9
6975  ,1.132e+09   ,-2.4  ,1.1  ,5
6978  ,6.544e+08   ,-2.4  ,2.5  ,0.2
6987  ,2.350e+09   ,2.4  ,-1.316  ,5
6994  ,9.549e+08   ,2.4  ,-1.5  ,0
7004  ,1.608e+09   ,2.4  ,-2.5  ,3.6
7011  ,2.459e+09   ,2.4  ,0.65491  ,5
7016  ,2.383e+09   ,2.4  ,0.45782  ,5
7019  ,2.718e+09   ,2.5  ,2.4  ,2.1695
7021  ,2.684e+09   ,2.5  ,2.4  ,1.9724
7052  ,1.681e+09   ,-1.3  ,2.5  ,0.1
7054  ,8.219e+08   ,-2.4  ,-2.5  ,0.8
7057  ,1.136e+09   ,0.3  ,-2.5  ,0.1
7065  ,5.745e+08   ,0.24243  ,-2.5  ,0.2
7075  ,3.763e+10   ,2.4888  ,2.4325  ,4.6656
7113  ,1.137e+09   ,-2.4  ,-2.5  ,2.6
7121  ,1.123e+09   ,-2.4  ,-2.5  ,2.8
7126  ,1.713e+09   ,-2.5  ,-2.4  ,2.8
7128  ,1.141e+09   ,-2.4707  ,-2.4707  ,0.1
7129  ,1.159e+09   ,-2.4  ,-2.4707  ,0.029289
7141  ,2.502e+09   ,-1.7  ,-2.4  ,5
7145  ,1.562e+09   ,1.1  ,2.4  ,0
7163  ,9.558e+08   ,-1.7102  ,2.4  ,5
7172  ,3.698e+09   ,2.5  ,-2.4  ,3.2
7174  ,1.436e+09   ,-2.5  ,2.4  ,3.6
7183  ,1.468e+09   ,-1.4531  ,-2.5  ,4.8
7204  ,5.047e+09   ,2.3  ,-0.81068  ,4.8
7220  ,2.530e+09   ,2.5  ,0.063638  ,4.9
7227  ,1.120e+09   ,2.5  ,-1.9  ,0.1
7256  ,3.465e+08   ,-0.1  ,-2.4  ,5
7280  ,2.599e+09   ,-0.33054  ,2.4  ,5
7299  ,2.305e+09   ,2.5  ,-1.1189  ,4.9
7316  ,1.445e+09   ,-2.5  ,-2.4  ,0.8
7323  ,7.687e+08   ,-2.4  ,-2.5  ,1
7396  ,3.516e+09   ,1.1  ,-2.4  ,5
7400  ,1.993e+09   ,-2.5  ,0.7  ,0.1
7409  ,3.119e+09   ,1.3  ,-2.4  ,5
7420  ,6.416e+08   ,2.5  ,2.1  ,0.1
7429  ,7.999e+08   ,2.4  ,1.9  ,0
7436  ,1.026e+09   ,2.5  ,-1.7  ,0.1
7438  ,1.539e+09   ,2.4  ,-2.5  ,2.8
7445  ,3.357e+10   ,2.4325  ,2.1656  ,4.9888
7464  ,7.890e+08   ,2.5  ,-1.5  ,0.1
7480  ,1.767e+09   ,2.5  ,-2.4  ,0.2
7482  ,1.136e+09   ,1.9  ,-2.5  ,0.1
7483  ,9.904e+08   ,1.7  ,-2.5  ,0.1
7486  ,9.948e+08   ,1.9  ,-2.4  ,5
7488  ,1.358e+09   ,1.6937  ,-2.5  ,4.8
7492  ,3.987e+09   ,2.1  ,-2.4  ,5
7495  ,1.083e+09   ,0.1  ,-2.5  ,0.1
7504  ,1.680e+09   ,0.3  ,-2.4  ,0
7507  ,8.378e+08   ,0.9  ,-2.5  ,0.1
7533  ,2.002e+09   ,-2.5  ,0.9  ,0.1
7536  ,9.482e+08   ,-2.4  ,-2.5  ,3.2
7540  ,1.106e+09   ,-2.4  ,-2.5  ,3
7545  ,2.257e+09   ,-2.5  ,-2.4  ,3
7582  ,1.100e+09   ,1.3  ,2.5  ,0.1
7588  ,2.978e+09   ,2.5  ,2.4  ,2.3665
7598  ,1.079e+09   ,-2.5  ,2.4  ,4.2
7607  ,2.635e+09   ,1.5333  ,2.3  ,0.2
7627  ,9.956e+08   ,-2.5  ,1.1  ,4.9
7651  ,9.751e+08   ,2.4  ,-1.9  ,0
7656  ,6.044e+08   ,2.5  ,2.4  ,0.39564
7660  ,1.516e+10   ,2.2299  ,2.3  ,4.7299
7668  ,3.976e+08   ,1.4531  ,-2.5  ,4.8
7676  ,1.427e+09   ,0.1  ,-2.5  ,4.9
7683  ,1.319e+09   ,0.1  ,-2.4  ,5
7686  ,9.711e+08   ,-2.4  ,-1.1  ,5
7702  ,1.101e+09   ,-2.3  ,-2.5  ,4.433
7710  ,1.435e+09   ,-2.3  ,-2.5  ,4.6765
7752  ,3.728e+09   ,0.9  ,-2.4  ,5
7763  ,5.364e+08   ,0.24243  ,-2.5  ,4.8
7767  ,2.720e+09   ,-2.5  ,-2.4  ,3.2
7768  ,8.023e+08   ,-2.4  ,-2.1  ,0
7776  ,1.988e+09   ,-2.4  ,0.9  ,0
7786  ,2.019e+09   ,-0.4838  ,-2.5  ,4.8
7800  ,3.923e+09   ,2.5  ,-2.4  ,4.6
7805  ,8.003e+08   ,-2.5  ,-1.3  ,4.9
7811  ,8.791e+08   ,-2.5  ,-1.1  ,4.9
7820  ,1.224e+09   ,2.5  ,-2.1  ,0.1
7824  ,1.122e+09   ,2.4  ,-2.1  ,0
7828  ,1.772e+09   ,2.4  ,-2.5  ,4.2
7831  ,1.614e+09   ,2.4  ,-2.5  ,4
7838  ,1.200e+09   ,2.5  ,-2.4  ,4.2
7839  ,3.208e+09   ,2.5  ,2.4  ,2.7607
7840  ,3.428e+09   ,2.5  ,2.4  ,2.9578
7863  ,5.089e+08   ,-2.4  ,-1.5  ,0
7890  ,1.106e+09   ,2.4  ,0.9  ,0
7897  ,1.659e+09   ,-2.4  ,-0.7  ,0
7912  ,1.565e+09   ,-1.5  ,-2.4  ,0
7917  ,8.256e+08   ,-1.3  ,-2.5  ,0.1
7931  ,1.799e+09   ,0.5  ,2.4  ,0
7934  ,3.075e+09   ,1.1  ,-2.4  ,0
7937  ,4.440e+08   ,2.4  ,-2.5  ,0.8
7941  ,1.003e+09   ,-2.4  ,-2.5  ,0.6
7969  ,2.516e+08   ,-2.5  ,2.3  ,0.1
7971  ,1.153e+09   ,-2.4  ,1.9  ,0
7972  ,1.380e+09   ,-1.9  ,2.5  ,0.1
7978  ,1.853e+09   ,-2.4  ,1.1  ,0
7996  ,8.595e+08   ,-2.4  ,-0.5  ,5
8000  ,1.132e+09   ,-2.5  ,-2.4  ,0.6
8003  ,9.507e+08   ,-2.5  ,-2.4  ,0.4
8025  ,1.804e+09   ,0.9  ,2.5  ,0.1
8035  ,2.148e+09   ,0.3  ,2.5  ,0.1
8039  ,3.486e+09   ,2.3  ,-2.5  ,0.32348
8041  ,2.147e+09   ,2.3  ,-2.3379  ,0.2
8043  ,1.531e+09   ,2.1765  ,-2.5  ,0.2
8045  ,7.234e+08   ,-0.96359  ,-2.5  ,0.2
8054  ,1.296e+09   ,1.3  ,2.4  ,0
8058  ,1.408e+09   ,1.1  ,2.5  ,0.1
8062  ,1.612e+09   ,-2.5  ,2.4  ,1.4
8067  ,1.316e+09   ,-2.5  ,2.4  ,0.8
8087  ,1.595e+09   ,-2.5  ,1.5  ,0.1
8132  ,2.794e+09   ,-0.13345  ,2.4  ,5
8183  ,9.592e+08   ,2.5  ,-0.9  ,0.1
8184  ,1.750e+09   ,1.6937  ,-2.5  ,0.2
8214  ,1.097e+09   ,-2.4707  ,-2.4  ,4.9707
8217  ,2.973e+09   ,-2.1  ,-2.4  ,5
8219  ,1.202e+09   ,-2.4  ,-2.5  ,4.4
8227  ,3.786e+09   ,2.5  ,2.4  ,3.1549
8242  ,1.595e+09   ,0.7  ,-2.5  ,4.9
8248  ,3.445e+09   ,2.5  ,-2.4  ,3.6
8254  ,9.576e+08   ,2.5  ,-0.3  ,0.1
8256  ,9.333e+08   ,2.5  ,-0.5  ,0.1
8258  ,8.533e+08   ,-0.3  ,-2.5  ,4.9
8263  ,8.561e+08   ,-0.5  ,-2.5  ,4.9
8268  ,1.803e+09   ,-2.3  ,-2.5  ,3.7085
8277  ,9.743e+08   ,-0.1  ,-2.5  ,0.1
8285  ,1.737e+09   ,1.1  ,-2.5  ,4.9
8307  ,1.642e+09   ,0.1  ,2.4  ,0
8308  ,1.047e+09   ,-0.1  ,2.5  ,0.1
8309  ,1.610e+09   ,-0.1  ,2.4  ,0
8313  ,1.179e+09   ,2.5  ,-2.3  ,0.1
8318  ,3.191e+09   ,2.5  ,-2.4  ,3
8338  ,3.648e+09   ,2.5  ,2.4  ,3.352
8339  ,3.792e+09   ,2.4  ,2.5  ,3.1549
8344  ,1.746e+09   ,-2.5  ,2.4  ,3.4
8357  ,3.290e+10   ,2.4888  ,2.1656  ,4.9325
8358  ,2.105e+10   ,2.5  ,2.1998  ,4.8333
8383  ,1.455e+09   ,-1.7  ,-2.4  ,0
8396  ,7.229e+08   ,1.1  ,-2.5  ,0.1
8399  ,4.049e+10   ,2.4526  ,2.1331  ,4.9851
8405  ,1.707e+09   ,2.5  ,-2.4  ,1
8412  ,2.478e+09   ,2.3  ,-2.5  ,0.8063
8417  ,1.208e+09   ,-2.3  ,-2.5  ,2.5
8434  ,7.103e+08   ,0.9636  ,-2.5  ,4.8
8438  ,8.532e+08   ,-0.3  ,-2.5  ,0.1
8452  ,9.267e+08   ,-2.4  ,-0.1  ,5
8468  ,4.108e+09   ,2.5  ,2.4  ,3.7462
8471  ,5.759e+08   ,-1.3  ,-2.5  ,4.9
8493  ,6.931e+08   ,-1.1  ,-2.5  ,4.9
8509  ,4.264e+08   ,-2.5  ,-1.7  ,0.1
8517  ,1.847e+09   ,-2.4  ,2.5  ,3
8531  ,1.416e+09   ,-2.4  ,1.7  ,0
8556  ,3.857e+09   ,2.5  ,2.4  ,3.5491
8573  ,1.976e+09   ,-1.316  ,2.4  ,5
8576  ,1.744e+09   ,-2.4  ,1.3  ,0
8611  ,3.246e+08   ,2.3  ,-2.5  ,1.2915
8618  ,1.011e+09   ,-2.4  ,2.5  ,4
8646  ,1.923e+09   ,-2.5  ,1.1  ,0.1
8656  ,1.061e+09   ,2.5  ,-1.3  ,0.1
8657  ,6.390e+08   ,2.4  ,2.1  ,0
8673  ,1.429e+09   ,-1.3  ,2.4  ,0
8692  ,8.961e+08   ,0.72263  ,-2.5  ,4.8
8696  ,1.329e+09   ,2.3  ,-2.5  ,1.0469
8706  ,2.419e+09   ,2.5  ,0.65491  ,4.9
8721  ,1.097e+09   ,-2.4  ,-2.5  ,1.6
8725  ,3.756e+09   ,0.65491  ,2.4  ,5
8739  ,3.570e+10   ,2.1656  ,2.4325  ,4.9888
8741  ,2.398e+10   ,2.1998  ,2.3333  ,5
8746  ,7.247e+08   ,-2.1  ,-2.4  ,0
8748  ,1.487e+09   ,-2.5  ,-2.4  ,1.2
8752  ,4.757e+10   ,2.1331  ,2.4526  ,4.9851
8759  ,1.140e+08   ,-2.3  ,-2.5  ,1.0469
8787  ,4.038e+08   ,-0.1  ,-2.4  ,0
8793  ,1.767e+09   ,-2.3  ,-2.5  ,2.2576
8795  ,9.968e+08   ,-2.4  ,-2.5  ,2.4
8798  ,1.665e+09   ,-2.3  ,-2.5  ,4.1937
8808  ,1.895e+09   ,-2.3  ,-2.5  ,3.9531
8814  ,1.354e+09   ,-2.4  ,-1.5  ,5
8849  ,5.291e+08   ,0.4838  ,-2.5  ,4.8
8851  ,8.760e+08   ,-2.4  ,-2.5  ,4.2
8868  ,1.690e+09   ,2.4  ,-2.5  ,3
8874  ,3.689e+09   ,0.852  ,2.4  ,5
8883  ,9.547e+08   ,-0.5  ,-2.4  ,5
8886  ,1.305e+09   ,-0.72262  ,-2.5  ,4.8
8893  ,1.023e+09   ,-0.7  ,-2.5  ,4.9
8897  ,2.840e+09   ,-2.5  ,-2.4  ,3.6
8899  ,1.464e+09   ,-2.3  ,-2.5  ,3.4636
8900  ,3.311e+08   ,-2.3  ,-1.4729  ,0.2
8906  ,7.278e+08   ,-2.5  ,-1.3  ,0.1
8910  ,3.696e+09   ,0.852  ,2.5  ,4.9
8925  ,1.784e+09   ,-2.4  ,2.5  ,1.4
8941  ,3.112e+08   ,2.4707  ,2.4  ,0.029289
8942  ,5.091e+08   ,2.5  ,2.3  ,0.1
8945  ,1.119e+09   ,-2.5  ,0.1  ,4.9
8950  ,3.062e+08   ,2.4707  ,2.4707  ,0.1
8951  ,2.574e+08   ,2.4  ,2.4707  ,0.029289
8959  ,1.982e+09   ,2.4  ,0.26073  ,5
8965  ,3.294e+09   ,0.45782  ,2.4  ,5
8978  ,2.288e+09   ,2.4  ,0.852  ,5
8983  ,9.668e+08   ,2.5  ,-1.1  ,0.1
8991  ,1.078e+09   ,-2.5  ,2.4  ,0.6
9008  ,2.214e+09   ,2.5  ,0.852  ,4.9
9011  ,1.968e+09   ,-2.4  ,-0.5  ,0
9025  ,8.021e+08   ,-1.5  ,-2.5  ,0.1
9038  ,8.035e+08   ,2.4  ,-2.5  ,2
9041  ,1.285e+09   ,2.5  ,0.9  ,0.1
9050  ,1.219e+09   ,2.5  ,0.5  ,0.1
9054  ,3.021e+09   ,0.9  ,-2.4  ,0
9060  ,8.066e+08   ,2.4  ,-2.5  ,0.4
9062  ,3.119e+09   ,2.3  ,-2.5  ,0.56701
9064  ,2.575e+09   ,2.5  ,-2.4  ,0.4
9069  ,4.014e+08   ,2.4  ,-2.5  ,0.6
9071  ,1.880e+09   ,1.4531  ,-2.5  ,0.2
9082  ,1.659e+08   ,-2.3  ,-2.5  ,1.2915
9086  ,9.500e+08   ,-2.4  ,-2.5  ,1.4
9091  ,1.327e+09   ,-2.5  ,-2.4  ,1.4
9094  ,1.583e+09   ,1.3  ,-2.5  ,4.9
9097  ,1.033e+09   ,-0.7  ,-2.5  ,0.1
9137  ,6.911e+08   ,-2.5  ,-0.7  ,4.9
9143  ,8.453e+08   ,-2.5  ,-0.1  ,4.9
9146  ,8.161e+08   ,-2.1  ,2.4  ,0
9148  ,8.157e+08   ,-2.5  ,1.7  ,4.9
9173  ,1.709e+09   ,-2.5  ,2.4  ,3
9192  ,9.403e+08   ,-0.7  ,-2.4  ,5
9195  ,1.151e+09   ,0.72263  ,-2.5  ,0.2
9209  ,3.677e+09   ,2.5  ,-2.4  ,3.4
9215  ,1.537e+09   ,0.9636  ,-2.5  ,0.2
9217  ,1.705e+09   ,2.4  ,-2.5  ,3.2
9218  ,5.441e+08   ,-0.96359  ,-2.5  ,4.8
9229  ,1.838e+09   ,-2.4  ,2.5  ,2.8
9248  ,3.089e+09   ,2.3  ,-2.5  ,4.433
9255  ,9.977e+08   ,2.5  ,1.3  ,0.1
9257  ,7.845e+08   ,2.4  ,1.5  ,0
9262  ,3.060e+09   ,0.5  ,-2.4  ,5
9264  ,1.911e+09   ,2.4  ,-0.13345  ,5
9272  ,2.705e+09   ,0.063638  ,2.4  ,5
9277  ,1.582e+09   ,-2.5  ,2.4  ,1.2
9279  ,2.284e+09   ,2.5  ,0.26073  ,4.9
9282  ,5.040e+08   ,1.2085  ,-2.5  ,4.8
9286  ,1.716e+09   ,0.9  ,-2.5  ,4.9
9292  ,3.523e+08   ,-2.4  ,2.4707  ,4.9707
9293  ,3.828e+08   ,-2.3015  ,2.4  ,5
9296  ,1.277e+09   ,-2.4  ,-2.1  ,5
9303  ,1.233e+09   ,-2.4  ,-1.9  ,5
9311  ,3.913e+08   ,-2.4  ,2.3  ,5
9313  ,9.777e+08   ,-2.4  ,0.1  ,5
9319  ,4.638e+08   ,-0.5  ,-2.4  ,0
9328  ,6.762e+08   ,-2.3  ,-2.5  ,1.5364
9334  ,6.579e+08   ,-2.3  ,2.5  ,0.1
9338  ,4.325e+08   ,-2.5  ,-2.4  ,2.4
9339  ,1.735e+09   ,-2.5  ,1.3  ,0.1
9341  ,4.490e+08   ,-2.3  ,-2.5  ,2.7424
9344  ,1.645e+08   ,-2.5  ,-2.4  ,2.2
9358  ,4.434e+09   ,-2.3  ,2.3  ,2.5
9364  ,1.277e+09   ,-2.5  ,-2.1  ,4.9
9367  ,1.443e+09   ,-2.4  ,-2.3  ,5
9374  ,1.069e+09   ,-2.4  ,-1.3  ,5
9378  ,1.653e+09   ,-2.5  ,2.4  ,1.8
9384  ,1.871e+09   ,2.3  ,-2.5  ,2.0162
9385  ,9.542e+08   ,-2.5  ,2.4  ,4.4
9389  ,1.598e+09   ,-2.5  ,2.4  ,2
9395  ,2.918e+09   ,2.4  ,-2.3015  ,5
9396  ,4.265e+08   ,-2.4  ,-1.7  ,0
9407  ,1.993e+09   ,-2.3  ,-1.4729  ,4.8
9411  ,7.950e+08   ,-2.5  ,-1.7  ,4.9
9423  ,5.647e+08   ,-2.4  ,-2.5  ,3.6
9432  ,3.666e+09   ,0.7  ,-2.4  ,5
9438  ,7.946e+08   ,-2.5  ,-0.9  ,4.9
9443  ,7.557e+08   ,-2.5  ,-0.3  ,4.9
9445  ,2.924e+08   ,-2.4707  ,2.4  ,4.9707
9448  ,2.175e+09   ,2.4  ,-1.1189  ,5
9453  ,1.257e+09   ,2.4  ,0.7  ,0
9455  ,1.214e+09   ,2.5  ,-2.4  ,2.6
9457  ,4.903e+08   ,2.3  ,-2.5  ,2.9838
9494  ,1.666e+09   ,-2.4  ,2.5  ,1
9500  ,1.391e+09   ,0.3  ,-2.5  ,4.9
9504  ,2.303e+09   ,0.3  ,-2.4  ,5
9506  ,1.464e+09   ,2.1  ,-2.5  ,0.1
9518  ,1.145e+09   ,-1.9  ,-2.5  ,0.1
9528  ,1.464e+09   ,2.3  ,-2.5  ,0.1
9531  ,1.753e+09   ,2.4707  ,-2.4707  ,0.1
9533  ,1.141e+09   ,2.4707  ,-2.4  ,0.029289
9534  ,1.508e+09   ,2.4  ,-2.4707  ,0.029289
9541  ,1.507e+09   ,0.5  ,-2.5  ,4.9
9544  ,8.594e+08   ,-0.5  ,-2.5  ,0.1
9559  ,9.574e+08   ,-2.5  ,-1.9  ,4.9
9562  ,6.858e+08   ,-2.5  ,2.4  ,4.6
9565  ,1.681e+09   ,-2.4  ,2.5  ,2
9571  ,2.783e+09   ,-2.5  ,-2.4  ,3.8
9574  ,5.297e+08   ,-2.4  ,-2.5  ,3.8
9577  ,6.268e+08   ,1.3  ,-2.5  ,0.1
9582  ,1.288e+09   ,-2.5  ,-0.9  ,0.1
9596  ,7.163e+08   ,2.1  ,2.4  ,0
9598  ,1.990e+09   ,-2.4  ,2.5  ,3.2
9602  ,1.001e+09   ,1.5  ,2.5  ,0.1
9610  ,5.801e+08   ,2.4  ,2.5  ,0.39564
9612  ,2.977e+09   ,-0.72473  ,2.5  ,4.9
9614  ,9.627e+08   ,1.7  ,2.5  ,0.1
9635  ,8.390e+08   ,2.5  ,1.7  ,0.1
9646  ,4.001e+08   ,2.3  ,2.5  ,0.1
9651  ,3.684e+10   ,2.1656  ,2.4888  ,4.9325
9653  ,2.198e+09   ,2.5  ,-1.316  ,4.9
9656  ,1.019e+09   ,-2.4  ,-1.7  ,5
9659  ,5.507e+09   ,2.3  ,-2.5  ,4.6765
9661  ,4.256e+08   ,2.3  ,-2.5  ,3.9531
9664  ,1.830e+09   ,-2.3  ,-2.4  ,5
9666  ,1.255e+09   ,1.9  ,-2.4  ,0
9677  ,1.234e+09   ,2.4  ,0.5  ,0
9678  ,9.513e+08   ,-2.5  ,-1.1  ,0.1
9680  ,1.840e+09   ,2.5  ,2.4  ,1.184
9681  ,5.043e+08   ,2.5  ,2.4  ,0.19855
9696  ,1.857e+09   ,-2.3  ,-2.5  ,2.0162
9698  ,1.260e+09   ,2.4  ,-2.3  ,0
9699  ,1.743e+09   ,-0.24243  ,-2.5  ,0.2
9701  ,9.616e+08   ,0.1  ,-2.4  ,0
9704  ,1.830e+09   ,-0.4838  ,-2.5  ,0.2
9718  ,1.455e+09   ,-0.72262  ,-2.5  ,0.2
9726  ,2.495e+09   ,2.3  ,-0.76628  ,0.2
9727  ,8.924e+08   ,-2.5  ,2.4  ,0.4
9730  ,1.486e+09   ,1.9433E-06  ,-2.5  ,4.8
9731  ,2.194e+09   ,-0.24243  ,-2.5  ,4.8
9732  ,1.536e+09   ,-2.5  ,2.4  ,2.2
9738  ,2.434e+09   ,-2.5  ,-2.4  ,4
9743  ,2.614e+09   ,-1.6937  ,-2.5  ,4.8
9744  ,4.108e+08   ,-2.4  ,-2.5  ,4
9750  ,8.837e+08   ,-1.7  ,-2.5  ,0.1
9752  ,3.558e+08   ,-1.6937  ,-2.5  ,0.2
9754  ,1.528e+09   ,-1.3  ,-2.4  ,0
9759  ,8.639e+07   ,-2.4707  ,2.4  ,0.029289
9760  ,8.308e+07   ,-2.4  ,2.4707  ,0.029289
9768  ,1.424e+09   ,2.3  ,-2.5  ,4.1937
9770  ,1.260e+09   ,1.9433E-06  ,-2.5  ,0.2
9771  ,5.831e+08   ,0.4838  ,-2.5  ,0.2
9772  ,1.542e+09   ,2.4  ,-2.5  ,0.2
9773  ,1.779e+09   ,2.4  ,-2.5  ,4.6
9776  ,1.913e+09   ,2.4  ,0.063638  ,5
9780  ,3.766e+09   ,0.65491  ,2.5  ,4.9
9781  ,2.661e+08   ,2.4  ,2.5  ,0.19855
9782  ,3.635e+08   ,-2.3  ,-2.5  ,2.9838
9786  ,1.244e+08   ,-1.2085  ,-2.5  ,0.2
9787  ,2.811e+08   ,-1.4531  ,-2.5  ,0.2
9790  ,1.481e+09   ,2.3  ,-2.4  ,0
9793  ,1.893e+10   ,2.0345  ,2.4  ,5
9797  ,4.004e+08   ,2.3  ,-2.5  ,1.5364
9798  ,2.436e+09   ,2.4  ,1.0491  ,5
9809  ,3.686e+09   ,2.4  ,2.5  ,3.352
