Date:  12:55, Monday, July 10, 2023
Model name: Hollow_DropBox
Study name: DropTest_300fts(-Default-)
Plot type:  Stress1
Plot step: 19   time : 99.7085 Microseconds
Result Type: von Mises 


Node  ,Value (N/m^2)  ,X (in)  ,Y (in)  ,Z (in)
1  ,1.298e+10   ,2.5  ,2.1331  ,4.9
2  ,2.555e+10   ,2.4577  ,2.1908  ,4.9577
3  ,3.165e+10   ,2.4894  ,2.1331  ,4.9447
4  ,2.886e+10   ,2.1331  ,2.5  ,4.9
5  ,5.187e+10   ,2.1331  ,2.4894  ,4.9447
6  ,2.346e+10   ,2.1908  ,2.4577  ,4.9577
7  ,3.315e+08   ,-2.4  ,2.4  ,5
8  ,2.836e+09   ,-2.4  ,-2.4  ,5
9  ,5.016e+09   ,2.4  ,-2.4  ,5
10  ,1.161e+10   ,2.4  ,2.1331  ,5
11  ,2.441e+10   ,2.1331  ,2.4  ,5
12  ,5.301e+09   ,2.5  ,-2.4  ,4.9
13  ,2.547e+09   ,2.5  ,-2.4  ,0.1
14  ,3.184e+08   ,2.5  ,2.4  ,0.1
15  ,2.416e+10   ,2.5  ,2.4  ,4.6331
16  ,3.211e+08   ,2.4  ,2.5  ,0.1
17  ,4.711e+08   ,-2.4  ,2.5  ,0.1
18  ,3.389e+08   ,-2.4  ,2.5  ,4.9
19  ,2.912e+10   ,2.4  ,2.5  ,4.6331
20  ,2.131e+08   ,-2.5  ,2.4  ,0.1
21  ,5.211e+08   ,-2.5  ,-2.4  ,0.1
22  ,1.836e+09   ,-2.5  ,-2.4  ,4.9
23  ,4.036e+08   ,-2.5  ,2.4  ,4.9
24  ,4.312e+08   ,-2.3  ,-2.5  ,0.2
25  ,1.964e+09   ,-2.3  ,-2.5  ,4.8
26  ,5.039e+09   ,2.3  ,-2.5  ,4.8
27  ,2.063e+09   ,2.3  ,-2.5  ,0.2
28  ,2.517e+09   ,-2.4  ,-2.5  ,4.9
29  ,4.996e+09   ,2.4  ,-2.5  ,4.9
30  ,6.600e+08   ,-2.4  ,-2.5  ,0.1
31  ,2.558e+09   ,2.4  ,-2.5  ,0.1
32  ,1.916e+09   ,2.4  ,-2.4  ,0
33  ,3.866e+08   ,2.4  ,2.4  ,0
34  ,5.708e+08   ,-2.4  ,-2.4  ,0
35  ,2.177e+08   ,-2.4  ,2.4  ,0
36  ,2.983e+10   ,2.4577  ,2.4577  ,4.6908
37  ,9.726e+08   ,-2.3  ,2.3  ,4.8
38  ,1.389e+10   ,2.1599  ,2.3  ,4.8
39  ,1.330e+10   ,2.3  ,2.1599  ,4.8
40  ,1.421e+10   ,2.3  ,2.3  ,4.6599
41  ,9.701e+08   ,2.3  ,2.3  ,0.2
42  ,2.033e+08   ,-2.3  ,2.3  ,0.2
43  ,7.624e+08   ,-2.4  ,2.2  ,5
44  ,1.163e+09   ,-2.4  ,2  ,5
45  ,1.225e+09   ,-2.4  ,1.8  ,5
46  ,1.166e+09   ,-2.4  ,1.6  ,5
47  ,1.108e+09   ,-2.4  ,1.4  ,5
48  ,1.265e+09   ,-2.4  ,1.2  ,5
49  ,1.486e+09   ,-2.4  ,1  ,5
50  ,1.823e+09   ,-2.4  ,0.8  ,5
51  ,1.256e+09   ,-2.4  ,0.6  ,5
52  ,9.763e+08   ,-2.4  ,0.4  ,5
53  ,9.501e+08   ,-2.4  ,0.2  ,5
54  ,9.363e+08   ,-2.4  ,5.8879E-16  ,5
55  ,6.562e+08   ,-2.4  ,-0.2  ,5
56  ,5.426e+08   ,-2.4  ,-0.4  ,5
57  ,6.026e+08   ,-2.4  ,-0.6  ,5
58  ,5.193e+08   ,-2.4  ,-0.8  ,5
59  ,7.866e+08   ,-2.4  ,-1  ,5
60  ,8.031e+08   ,-2.4  ,-1.2  ,5
61  ,1.407e+09   ,-2.4  ,-1.4  ,5
62  ,1.196e+09   ,-2.4  ,-1.6  ,5
63  ,1.176e+09   ,-2.4  ,-1.8  ,5
64  ,1.763e+09   ,-2.4  ,-2  ,5
65  ,1.567e+09   ,-2.4  ,-2.2  ,5
66  ,3.740e+09   ,-2.2  ,-2.4  ,5
67  ,3.219e+09   ,-2  ,-2.4  ,5
68  ,2.835e+09   ,-1.8  ,-2.4  ,5
69  ,1.829e+09   ,-1.6  ,-2.4  ,5
70  ,1.049e+09   ,-1.4  ,-2.4  ,5
71  ,5.500e+08   ,-1.2  ,-2.4  ,5
72  ,1.948e+08   ,-1  ,-2.4  ,5
73  ,3.982e+08   ,-0.8  ,-2.4  ,5
74  ,8.080e+08   ,-0.6  ,-2.4  ,5
75  ,1.466e+09   ,-0.4  ,-2.4  ,5
76  ,1.852e+09   ,-0.2  ,-2.4  ,5
77  ,2.436e+09   ,-5.8879E-16  ,-2.4  ,5
78  ,2.881e+09   ,0.2  ,-2.4  ,5
79  ,3.128e+09   ,0.4  ,-2.4  ,5
80  ,3.651e+09   ,0.6  ,-2.4  ,5
81  ,3.764e+09   ,0.8  ,-2.4  ,5
82  ,3.920e+09   ,1  ,-2.4  ,5
83  ,3.675e+09   ,1.2  ,-2.4  ,5
84  ,3.228e+09   ,1.4  ,-2.4  ,5
85  ,1.941e+09   ,1.6  ,-2.4  ,5
86  ,1.387e+09   ,1.8  ,-2.4  ,5
87  ,2.626e+09   ,2  ,-2.4  ,5
88  ,7.862e+09   ,2.2  ,-2.4  ,5
89  ,4.271e+09   ,2.4  ,-2.2029  ,5
90  ,4.508e+09   ,2.4  ,-2.0058  ,5
91  ,3.337e+09   ,2.4  ,-1.8087  ,5
92  ,3.041e+09   ,2.4  ,-1.6116  ,5
93  ,3.426e+09   ,2.4  ,-1.4145  ,5
94  ,2.970e+09   ,2.4  ,-1.2175  ,5
95  ,3.135e+09   ,2.4  ,-1.0204  ,5
96  ,3.165e+09   ,2.4  ,-0.82327  ,5
97  ,3.122e+09   ,2.4  ,-0.62618  ,5
98  ,2.765e+09   ,2.4  ,-0.42909  ,5
99  ,2.649e+09   ,2.4  ,-0.232  ,5
100  ,2.346e+09   ,2.4  ,-0.034907  ,5
101  ,2.275e+09   ,2.4  ,0.16218  ,5
102  ,2.071e+09   ,2.4  ,0.35927  ,5
103  ,2.494e+09   ,2.4  ,0.55637  ,5
104  ,2.249e+09   ,2.4  ,0.75346  ,5
105  ,2.118e+09   ,2.4  ,0.95055  ,5
106  ,2.505e+09   ,2.4  ,1.1476  ,5
107  ,3.446e+09   ,2.4  ,1.3447  ,5
108  ,4.737e+09   ,2.4  ,1.5418  ,5
109  ,6.033e+09   ,2.4  ,1.7389  ,5
110  ,9.441e+09   ,2.4  ,1.936  ,5
111  ,1.387e+10   ,2.2665  ,2.2665  ,5
112  ,1.260e+10   ,1.936  ,2.4  ,5
113  ,6.992e+09   ,1.7389  ,2.4  ,5
114  ,5.546e+09   ,1.5418  ,2.4  ,5
115  ,4.244e+09   ,1.3447  ,2.4  ,5
116  ,3.277e+09   ,1.1476  ,2.4  ,5
117  ,3.028e+09   ,0.95055  ,2.4  ,5
118  ,3.020e+09   ,0.75346  ,2.4  ,5
119  ,2.815e+09   ,0.55637  ,2.4  ,5
120  ,2.609e+09   ,0.35927  ,2.4  ,5
121  ,2.557e+09   ,0.16218  ,2.4  ,5
122  ,2.475e+09   ,-0.034907  ,2.4  ,5
123  ,2.802e+09   ,-0.232  ,2.4  ,5
124  ,2.668e+09   ,-0.42909  ,2.4  ,5
125  ,2.616e+09   ,-0.62618  ,2.4  ,5
126  ,3.445e+09   ,-0.82327  ,2.4  ,5
127  ,3.270e+09   ,-1.0204  ,2.4  ,5
128  ,2.936e+09   ,-1.2175  ,2.4  ,5
129  ,2.383e+09   ,-1.4145  ,2.4  ,5
130  ,1.659e+09   ,-1.6116  ,2.4  ,5
131  ,1.120e+09   ,-1.8087  ,2.4  ,5
132  ,7.763e+08   ,-2.0058  ,2.4  ,5
133  ,5.110e+08   ,-2.2029  ,2.4  ,5
294  ,3.615e+09   ,2.5  ,-2.2029  ,4.9
295  ,4.395e+09   ,2.5  ,-2.0058  ,4.9
296  ,3.413e+09   ,2.5  ,-1.8087  ,4.9
297  ,3.485e+09   ,2.5  ,-1.6116  ,4.9
298  ,2.873e+09   ,2.5  ,-1.4145  ,4.9
299  ,3.017e+09   ,2.5  ,-1.2175  ,4.9
300  ,3.286e+09   ,2.5  ,-1.0204  ,4.9
301  ,2.613e+09   ,2.5  ,-0.82327  ,4.9
302  ,2.971e+09   ,2.5  ,-0.62618  ,4.9
303  ,2.827e+09   ,2.5  ,-0.42909  ,4.9
304  ,3.136e+09   ,2.5  ,-0.232  ,4.9
305  ,3.488e+09   ,2.5  ,-0.034907  ,4.9
306  ,2.707e+09   ,2.5  ,0.16218  ,4.9
307  ,2.250e+09   ,2.5  ,0.35927  ,4.9
308  ,2.368e+09   ,2.5  ,0.55637  ,4.9
309  ,2.235e+09   ,2.5  ,0.75346  ,4.9
310  ,2.506e+09   ,2.5  ,0.95055  ,4.9
311  ,3.081e+09   ,2.5  ,1.1476  ,4.9
312  ,3.790e+09   ,2.5  ,1.3447  ,4.9
313  ,4.855e+09   ,2.5  ,1.5418  ,4.9
314  ,6.983e+09   ,2.5  ,1.7389  ,4.9
315  ,1.029e+10   ,2.5  ,1.936  ,4.9
316  ,7.801e+09   ,2.5  ,-2.4  ,4.7
317  ,2.605e+09   ,2.5  ,-2.4  ,4.5
318  ,1.394e+09   ,2.5  ,-2.4  ,4.3
319  ,2.099e+09   ,2.5  ,-2.4  ,4.1
320  ,3.235e+09   ,2.5  ,-2.4  ,3.9
321  ,3.951e+09   ,2.5  ,-2.4  ,3.7
322  ,4.085e+09   ,2.5  ,-2.4  ,3.5
323  ,3.904e+09   ,2.5  ,-2.4  ,3.3
324  ,3.699e+09   ,2.5  ,-2.4  ,3.1
325  ,3.272e+09   ,2.5  ,-2.4  ,2.9
326  ,3.036e+09   ,2.5  ,-2.4  ,2.7
327  ,2.481e+09   ,2.5  ,-2.4  ,2.5
328  ,1.784e+09   ,2.5  ,-2.4  ,2.3
329  ,1.367e+09   ,2.5  ,-2.4  ,2.1
330  ,7.813e+08   ,2.5  ,-2.4  ,1.9
331  ,3.455e+08   ,2.5  ,-2.4  ,1.7
332  ,3.110e+08   ,2.5  ,-2.4  ,1.5
333  ,7.480e+08   ,2.5  ,-2.4  ,1.3
334  ,1.210e+09   ,2.5  ,-2.4  ,1.1
335  ,1.781e+09   ,2.5  ,-2.4  ,0.9
336  ,2.639e+09   ,2.5  ,-2.4  ,0.7
337  ,2.878e+09   ,2.5  ,-2.4  ,0.5
338  ,3.525e+09   ,2.5  ,-2.4  ,0.3
339  ,1.490e+09   ,2.5  ,-2.2  ,0.1
340  ,1.739e+09   ,2.5  ,-2  ,0.1
341  ,1.163e+09   ,2.5  ,-1.8  ,0.1
342  ,1.119e+09   ,2.5  ,-1.6  ,0.1
343  ,7.328e+08   ,2.5  ,-1.4  ,0.1
344  ,6.995e+08   ,2.5  ,-1.2  ,0.1
345  ,6.996e+08   ,2.5  ,-1  ,0.1
346  ,5.085e+08   ,2.5  ,-0.8  ,0.1
347  ,5.904e+08   ,2.5  ,-0.6  ,0.1
348  ,3.715e+08   ,2.5  ,-0.4  ,0.1
349  ,5.683e+08   ,2.5  ,-0.2  ,0.1
350  ,7.331e+08   ,2.5  ,-1.7664E-15  ,0.1
351  ,7.630e+08   ,2.5  ,0.2  ,0.1
352  ,9.897e+08   ,2.5  ,0.4  ,0.1
353  ,1.428e+09   ,2.5  ,0.6  ,0.1
354  ,1.989e+09   ,2.5  ,0.8  ,0.1
355  ,1.341e+09   ,2.5  ,1  ,0.1
356  ,1.260e+09   ,2.5  ,1.2  ,0.1
357  ,1.114e+09   ,2.5  ,1.4  ,0.1
358  ,1.075e+09   ,2.5  ,1.6  ,0.1
359  ,9.708e+08   ,2.5  ,1.8  ,0.1
360  ,9.455e+08   ,2.5  ,2  ,0.1
361  ,7.599e+08   ,2.5  ,2.2  ,0.1
362  ,1.361e+10   ,2.5  ,2.4  ,4.436
363  ,8.635e+09   ,2.5  ,2.4  ,4.2389
364  ,5.439e+09   ,2.5  ,2.4  ,4.0418
365  ,4.304e+09   ,2.5  ,2.4  ,3.8447
366  ,3.540e+09   ,2.5  ,2.4  ,3.6476
367  ,3.142e+09   ,2.5  ,2.4  ,3.4505
368  ,3.030e+09   ,2.5  ,2.4  ,3.2535
369  ,2.962e+09   ,2.5  ,2.4  ,3.0564
370  ,2.868e+09   ,2.5  ,2.4  ,2.8593
371  ,2.575e+09   ,2.5  ,2.4  ,2.6622
372  ,2.965e+09   ,2.5  ,2.4  ,2.4651
373  ,2.669e+09   ,2.5  ,2.4  ,2.268
374  ,2.904e+09   ,2.5  ,2.4  ,2.0709
375  ,2.901e+09   ,2.5  ,2.4  ,1.8738
376  ,3.262e+09   ,2.5  ,2.4  ,1.6767
377  ,2.331e+09   ,2.5  ,2.4  ,1.4796
378  ,2.548e+09   ,2.5  ,2.4  ,1.2825
379  ,2.408e+09   ,2.5  ,2.4  ,1.0855
380  ,2.143e+09   ,2.5  ,2.4  ,0.88836
381  ,1.688e+09   ,2.5  ,2.4  ,0.69127
382  ,8.704e+08   ,2.5  ,2.4  ,0.49418
383  ,5.326e+08   ,2.5  ,2.4  ,0.29709
384  ,1.321e+10   ,2.5  ,2.2665  ,4.7665
544  ,8.728e+08   ,2.2  ,2.5  ,0.1
545  ,1.169e+09   ,2  ,2.5  ,0.1
546  ,1.167e+09   ,1.8  ,2.5  ,0.1
547  ,1.265e+09   ,1.6  ,2.5  ,0.1
548  ,1.012e+09   ,1.4  ,2.5  ,0.1
549  ,1.230e+09   ,1.2  ,2.5  ,0.1
550  ,1.499e+09   ,1  ,2.5  ,0.1
551  ,2.206e+09   ,0.8  ,2.5  ,0.1
552  ,1.796e+09   ,0.6  ,2.5  ,0.1
553  ,1.625e+09   ,0.4  ,2.5  ,0.1
554  ,1.718e+09   ,0.2  ,2.5  ,0.1
555  ,1.461e+09   ,5.8879E-16  ,2.5  ,0.1
556  ,1.184e+09   ,-0.2  ,2.5  ,0.1
557  ,1.357e+09   ,-0.4  ,2.5  ,0.1
558  ,1.643e+09   ,-0.6  ,2.5  ,0.1
559  ,2.228e+09   ,-0.8  ,2.5  ,0.1
560  ,2.170e+09   ,-1  ,2.5  ,0.1
561  ,2.219e+09   ,-1.2  ,2.5  ,0.1
562  ,1.989e+09   ,-1.4  ,2.5  ,0.1
563  ,1.976e+09   ,-1.6  ,2.5  ,0.1
564  ,1.835e+09   ,-1.8  ,2.5  ,0.1
565  ,1.571e+09   ,-2  ,2.5  ,0.1
566  ,1.150e+09   ,-2.2  ,2.5  ,0.1
567  ,7.694e+08   ,-2.4  ,2.5  ,4.7
568  ,1.075e+09   ,-2.4  ,2.5  ,4.5
569  ,1.084e+09   ,-2.4  ,2.5  ,4.3
570  ,1.185e+09   ,-2.4  ,2.5  ,4.1
571  ,9.394e+08   ,-2.4  ,2.5  ,3.9
572  ,9.464e+08   ,-2.4  ,2.5  ,3.7
573  ,1.276e+09   ,-2.4  ,2.5  ,3.5
574  ,2.014e+09   ,-2.4  ,2.5  ,3.3
575  ,1.494e+09   ,-2.4  ,2.5  ,3.1
576  ,1.205e+09   ,-2.4  ,2.5  ,2.9
577  ,1.358e+09   ,-2.4  ,2.5  ,2.7
578  ,1.199e+09   ,-2.4  ,2.5  ,2.5
579  ,1.379e+09   ,-2.4  ,2.5  ,2.3
580  ,1.561e+09   ,-2.4  ,2.5  ,2.1
581  ,1.709e+09   ,-2.4  ,2.5  ,1.9
582  ,2.140e+09   ,-2.4  ,2.5  ,1.7
583  ,2.073e+09   ,-2.4  ,2.5  ,1.5
584  ,2.175e+09   ,-2.4  ,2.5  ,1.3
585  ,2.081e+09   ,-2.4  ,2.5  ,1.1
586  ,2.066e+09   ,-2.4  ,2.5  ,0.9
587  ,1.879e+09   ,-2.4  ,2.5  ,0.7
588  ,1.624e+09   ,-2.4  ,2.5  ,0.5
589  ,1.252e+09   ,-2.4  ,2.5  ,0.3
590  ,1.441e+10   ,1.936  ,2.5  ,4.9
591  ,6.638e+09   ,1.7389  ,2.5  ,4.9
592  ,5.050e+09   ,1.5418  ,2.5  ,4.9
593  ,4.433e+09   ,1.3447  ,2.5  ,4.9
594  ,3.290e+09   ,1.1476  ,2.5  ,4.9
595  ,3.070e+09   ,0.95055  ,2.5  ,4.9
596  ,3.177e+09   ,0.75346  ,2.5  ,4.9
597  ,2.933e+09   ,0.55637  ,2.5  ,4.9
598  ,2.896e+09   ,0.35927  ,2.5  ,4.9
599  ,2.537e+09   ,0.16218  ,2.5  ,4.9
600  ,2.391e+09   ,-0.034907  ,2.5  ,4.9
601  ,2.290e+09   ,-0.232  ,2.5  ,4.9
602  ,3.314e+09   ,-0.42909  ,2.5  ,4.9
603  ,3.682e+09   ,-0.62618  ,2.5  ,4.9
604  ,3.484e+09   ,-0.82327  ,2.5  ,4.9
605  ,3.852e+09   ,-1.0204  ,2.5  ,4.9
606  ,3.542e+09   ,-1.2175  ,2.5  ,4.9
607  ,2.677e+09   ,-1.4145  ,2.5  ,4.9
608  ,1.958e+09   ,-1.6116  ,2.5  ,4.9
609  ,1.251e+09   ,-1.8087  ,2.5  ,4.9
610  ,8.372e+08   ,-2.0058  ,2.5  ,4.9
611  ,5.622e+08   ,-2.2029  ,2.5  ,4.9
612  ,1.829e+10   ,2.2665  ,2.5  ,4.7665
613  ,1.242e+10   ,2.4  ,2.5  ,4.436
614  ,7.896e+09   ,2.4  ,2.5  ,4.2389
615  ,5.429e+09   ,2.4  ,2.5  ,4.0418
616  ,4.112e+09   ,2.4  ,2.5  ,3.8447
617  ,3.617e+09   ,2.4  ,2.5  ,3.6476
618  ,3.119e+09   ,2.4  ,2.5  ,3.4505
619  ,3.065e+09   ,2.4  ,2.5  ,3.2535
620  ,2.879e+09   ,2.4  ,2.5  ,3.0564
621  ,2.761e+09   ,2.4  ,2.5  ,2.8593
622  ,2.586e+09   ,2.4  ,2.5  ,2.6622
623  ,2.544e+09   ,2.4  ,2.5  ,2.4651
624  ,2.477e+09   ,2.4  ,2.5  ,2.268
625  ,2.521e+09   ,2.4  ,2.5  ,2.0709
626  ,2.835e+09   ,2.4  ,2.5  ,1.8738
627  ,3.155e+09   ,2.4  ,2.5  ,1.6767
628  ,3.559e+09   ,2.4  ,2.5  ,1.4796
629  ,3.686e+09   ,2.4  ,2.5  ,1.2825
630  ,2.557e+09   ,2.4  ,2.5  ,1.0855
631  ,1.852e+09   ,2.4  ,2.5  ,0.88836
632  ,1.213e+09   ,2.4  ,2.5  ,0.69127
633  ,9.570e+08   ,2.4  ,2.5  ,0.49418
634  ,3.765e+08   ,2.4  ,2.5  ,0.29709
796  ,5.856e+08   ,-2.5  ,2.2  ,0.1
797  ,1.050e+09   ,-2.5  ,2  ,0.1
798  ,1.403e+09   ,-2.5  ,1.8  ,0.1
799  ,1.609e+09   ,-2.5  ,1.6  ,0.1
800  ,1.809e+09   ,-2.5  ,1.4  ,0.1
801  ,1.948e+09   ,-2.5  ,1.2  ,0.1
802  ,1.993e+09   ,-2.5  ,1  ,0.1
803  ,1.939e+09   ,-2.5  ,0.8  ,0.1
804  ,1.974e+09   ,-2.5  ,0.6  ,0.1
805  ,2.056e+09   ,-2.5  ,0.4  ,0.1
806  ,1.914e+09   ,-2.5  ,0.2  ,0.1
807  ,1.788e+09   ,-2.5  ,5.8879E-16  ,0.1
808  ,1.698e+09   ,-2.5  ,-0.2  ,0.1
809  ,1.658e+09   ,-2.5  ,-0.4  ,0.1
810  ,1.570e+09   ,-2.5  ,-0.6  ,0.1
811  ,1.284e+09   ,-2.5  ,-0.8  ,0.1
812  ,1.213e+09   ,-2.5  ,-1  ,0.1
813  ,9.811e+08   ,-2.5  ,-1.2  ,0.1
814  ,8.840e+08   ,-2.5  ,-1.4  ,0.1
815  ,7.476e+08   ,-2.5  ,-1.6  ,0.1
816  ,6.637e+08   ,-2.5  ,-1.8  ,0.1
817  ,8.274e+08   ,-2.5  ,-2  ,0.1
818  ,6.275e+08   ,-2.5  ,-2.2  ,0.1
819  ,2.344e+09   ,-2.5  ,-2.4  ,4.7
820  ,9.848e+08   ,-2.5  ,-2.4  ,4.5
821  ,1.551e+09   ,-2.5  ,-2.4  ,4.3
822  ,3.097e+09   ,-2.5  ,-2.4  ,4.1
823  ,3.952e+09   ,-2.5  ,-2.4  ,3.9
824  ,4.022e+09   ,-2.5  ,-2.4  ,3.7
825  ,3.992e+09   ,-2.5  ,-2.4  ,3.5
826  ,3.238e+09   ,-2.5  ,-2.4  ,3.3
827  ,3.254e+09   ,-2.5  ,-2.4  ,3.1
828  ,2.715e+09   ,-2.5  ,-2.4  ,2.9
829  ,1.993e+09   ,-2.5  ,-2.4  ,2.7
830  ,1.667e+09   ,-2.5  ,-2.4  ,2.5
831  ,1.088e+09   ,-2.5  ,-2.4  ,2.3
832  ,6.331e+08   ,-2.5  ,-2.4  ,2.1
833  ,4.610e+08   ,-2.5  ,-2.4  ,1.9
834  ,5.091e+08   ,-2.5  ,-2.4  ,1.7
835  ,6.396e+08   ,-2.5  ,-2.4  ,1.5
836  ,6.752e+08   ,-2.5  ,-2.4  ,1.3
837  ,3.821e+08   ,-2.5  ,-2.4  ,1.1
838  ,2.572e+08   ,-2.5  ,-2.4  ,0.9
839  ,7.047e+08   ,-2.5  ,-2.4  ,0.7
840  ,8.966e+08   ,-2.5  ,-2.4  ,0.5
841  ,1.164e+09   ,-2.5  ,-2.4  ,0.3
842  ,8.048e+08   ,-2.5  ,2.2  ,4.9
843  ,1.248e+09   ,-2.5  ,2  ,4.9
844  ,1.250e+09   ,-2.5  ,1.8  ,4.9
845  ,1.216e+09   ,-2.5  ,1.6  ,4.9
846  ,1.222e+09   ,-2.5  ,1.4  ,4.9
847  ,1.292e+09   ,-2.5  ,1.2  ,4.9
848  ,1.331e+09   ,-2.5  ,1  ,4.9
849  ,1.691e+09   ,-2.5  ,0.8  ,4.9
850  ,1.346e+09   ,-2.5  ,0.6  ,4.9
851  ,1.106e+09   ,-2.5  ,0.4  ,4.9
852  ,9.759e+08   ,-2.5  ,0.2  ,4.9
853  ,7.563e+08   ,-2.5  ,5.8879E-16  ,4.9
854  ,5.880e+08   ,-2.5  ,-0.2  ,4.9
855  ,4.422e+08   ,-2.5  ,-0.4  ,4.9
856  ,3.298e+08   ,-2.5  ,-0.6  ,4.9
857  ,4.536e+08   ,-2.5  ,-0.8  ,4.9
858  ,5.878e+08   ,-2.5  ,-1  ,4.9
859  ,6.679e+08   ,-2.5  ,-1.2  ,4.9
860  ,8.655e+08   ,-2.5  ,-1.4  ,4.9
861  ,9.387e+08   ,-2.5  ,-1.6  ,4.9
862  ,1.136e+09   ,-2.5  ,-1.8  ,4.9
863  ,1.584e+09   ,-2.5  ,-2  ,4.9
864  ,1.546e+09   ,-2.5  ,-2.2  ,4.9
865  ,6.179e+08   ,-2.5  ,2.4  ,4.7
866  ,1.075e+09   ,-2.5  ,2.4  ,4.5
867  ,1.241e+09   ,-2.5  ,2.4  ,4.3
868  ,9.505e+08   ,-2.5  ,2.4  ,4.1
869  ,1.127e+09   ,-2.5  ,2.4  ,3.9
870  ,1.129e+09   ,-2.5  ,2.4  ,3.7
871  ,1.346e+09   ,-2.5  ,2.4  ,3.5
872  ,1.863e+09   ,-2.5  ,2.4  ,3.3
873  ,1.467e+09   ,-2.5  ,2.4  ,3.1
874  ,9.936e+08   ,-2.5  ,2.4  ,2.9
875  ,1.095e+09   ,-2.5  ,2.4  ,2.7
876  ,1.162e+09   ,-2.5  ,2.4  ,2.5
877  ,1.268e+09   ,-2.5  ,2.4  ,2.3
878  ,1.404e+09   ,-2.5  ,2.4  ,2.1
879  ,1.308e+09   ,-2.5  ,2.4  ,1.9
880  ,1.600e+09   ,-2.5  ,2.4  ,1.7
881  ,1.942e+09   ,-2.5  ,2.4  ,1.5
882  ,2.118e+09   ,-2.5  ,2.4  ,1.3
883  ,1.949e+09   ,-2.5  ,2.4  ,1.1
884  ,1.903e+09   ,-2.5  ,2.4  ,0.9
885  ,1.668e+09   ,-2.5  ,2.4  ,0.7
886  ,1.421e+09   ,-2.5  ,2.4  ,0.5
887  ,1.024e+09   ,-2.5  ,2.4  ,0.3
1044  ,6.825e+08   ,-2.3  ,-2.5  ,0.44697
1045  ,5.121e+08   ,-2.3  ,-2.5  ,0.68705
1046  ,3.494e+08   ,-2.3  ,-2.5  ,0.92554
1047  ,2.069e+08   ,-2.3  ,-2.5  ,1.1682
1048  ,5.278e+08   ,-2.3  ,-2.5  ,1.4148
1049  ,7.251e+08   ,-2.3  ,-2.5  ,1.6581
1050  ,7.354e+08   ,-2.3  ,-2.5  ,1.8967
1051  ,6.579e+08   ,-2.3  ,-2.5  ,2.1357
1052  ,3.210e+08   ,-2.3  ,-2.5  ,2.3794
1053  ,5.709e+08   ,-2.3  ,-2.5  ,2.6206
1054  ,1.094e+09   ,-2.3  ,-2.5  ,2.8643
1055  ,1.476e+09   ,-2.3  ,-2.5  ,3.1033
1056  ,1.806e+09   ,-2.3  ,-2.5  ,3.342
1057  ,2.290e+09   ,-2.3  ,-2.5  ,3.5852
1058  ,2.441e+09   ,-2.3  ,-2.5  ,3.8318
1059  ,1.686e+09   ,-2.3  ,-2.5  ,4.0745
1060  ,6.943e+08   ,-2.3  ,-2.5  ,4.3129
1061  ,1.650e+09   ,-2.3  ,-2.5  ,4.553
1062  ,3.941e+09   ,-2.053  ,-2.5  ,4.8
1063  ,2.953e+09   ,-1.8129  ,-2.5  ,4.8
1064  ,1.584e+09   ,-1.5745  ,-2.5  ,4.8
1065  ,4.724e+08   ,-1.3318  ,-2.5  ,4.8
1066  ,4.857e+08   ,-1.0852  ,-2.5  ,4.8
1067  ,8.363e+08   ,-0.84195  ,-2.5  ,4.8
1068  ,8.429e+08   ,-0.60329  ,-2.5  ,4.8
1069  ,4.996e+08   ,-0.3643  ,-2.5  ,4.8
1070  ,3.851e+08   ,-0.12055  ,-2.5  ,4.8
1071  ,4.370e+08   ,0.12056  ,-2.5  ,4.8
1072  ,7.870e+08   ,0.3643  ,-2.5  ,4.8
1073  ,7.049e+08   ,0.6033  ,-2.5  ,4.8
1074  ,7.256e+08   ,0.84195  ,-2.5  ,4.8
1075  ,1.108e+09   ,1.0852  ,-2.5  ,4.8
1076  ,6.916e+08   ,1.3318  ,-2.5  ,4.8
1077  ,1.021e+09   ,1.5745  ,-2.5  ,4.8
1078  ,2.989e+09   ,1.8129  ,-2.5  ,4.8
1079  ,6.886e+09   ,2.053  ,-2.5  ,4.8
1080  ,6.797e+09   ,2.3  ,-2.5  ,4.553
1081  ,2.970e+09   ,2.3  ,-2.5  ,4.3129
1082  ,1.194e+09   ,2.3  ,-2.5  ,4.0745
1083  ,5.807e+08   ,2.3  ,-2.5  ,3.8318
1084  ,9.096e+08   ,2.3  ,-2.5  ,3.5852
1085  ,8.653e+08   ,2.3  ,-2.5  ,3.3419
1086  ,7.966e+08   ,2.3  ,-2.5  ,3.1033
1087  ,6.820e+08   ,2.3  ,-2.5  ,2.8643
1088  ,4.103e+08   ,2.3  ,-2.5  ,2.6206
1089  ,3.653e+08   ,2.3  ,-2.5  ,2.3794
1090  ,3.505e+08   ,2.3  ,-2.5  ,2.1357
1091  ,5.577e+08   ,2.3  ,-2.5  ,1.8967
1092  ,9.743e+08   ,2.3  ,-2.5  ,1.658
1093  ,6.718e+08   ,2.3  ,-2.5  ,1.4148
1094  ,8.292e+08   ,2.3  ,-2.5  ,1.1682
1095  ,1.951e+09   ,2.3  ,-2.5  ,0.92554
1096  ,3.045e+09   ,2.3  ,-2.5  ,0.68705
1097  ,3.981e+09   ,2.3  ,-2.5  ,0.44697
1098  ,7.589e+08   ,-2.053  ,-2.5  ,0.2
1099  ,6.127e+08   ,-1.8129  ,-2.5  ,0.2
1100  ,1.778e+08   ,-1.5745  ,-2.5  ,0.2
1101  ,1.172e+08   ,-1.3318  ,-2.5  ,0.2
1102  ,5.614e+08   ,-1.0852  ,-2.5  ,0.2
1103  ,1.013e+09   ,-0.84195  ,-2.5  ,0.2
1104  ,9.620e+08   ,-0.60329  ,-2.5  ,0.2
1105  ,8.167e+08   ,-0.3643  ,-2.5  ,0.2
1106  ,6.731e+08   ,-0.12055  ,-2.5  ,0.2
1107  ,7.697e+08   ,0.12056  ,-2.5  ,0.2
1108  ,9.495e+08   ,0.3643  ,-2.5  ,0.2
1109  ,1.324e+09   ,0.6033  ,-2.5  ,0.2
1110  ,1.900e+09   ,0.84195  ,-2.5  ,0.2
1111  ,2.342e+09   ,1.0852  ,-2.5  ,0.2
1112  ,2.394e+09   ,1.3318  ,-2.5  ,0.2
1113  ,1.699e+09   ,1.5745  ,-2.5  ,0.2
1114  ,6.364e+08   ,1.8129  ,-2.5  ,0.2
1115  ,1.810e+09   ,2.053  ,-2.5  ,0.2
1116  ,1.352e+09   ,-2.2  ,-2.5  ,4.9
1117  ,5.953e+08   ,-2  ,-2.5  ,4.9
1118  ,9.391e+08   ,-1.8  ,-2.5  ,4.9
1119  ,9.447e+08   ,-1.6  ,-2.5  ,4.9
1120  ,7.108e+08   ,-1.4  ,-2.5  ,4.9
1121  ,6.177e+08   ,-1.2  ,-2.5  ,4.9
1122  ,2.991e+08   ,-1  ,-2.5  ,4.9
1123  ,4.698e+08   ,-0.8  ,-2.5  ,4.9
1124  ,9.265e+08   ,-0.6  ,-2.5  ,4.9
1125  ,1.022e+09   ,-0.4  ,-2.5  ,4.9
1126  ,1.199e+09   ,-0.2  ,-2.5  ,4.9
1127  ,1.309e+09   ,-1.7664E-15  ,-2.5  ,4.9
1128  ,1.436e+09   ,0.2  ,-2.5  ,4.9
1129  ,1.484e+09   ,0.4  ,-2.5  ,4.9
1130  ,1.404e+09   ,0.6  ,-2.5  ,4.9
1131  ,1.794e+09   ,0.8  ,-2.5  ,4.9
1132  ,1.773e+09   ,1  ,-2.5  ,4.9
1133  ,1.849e+09   ,1.2  ,-2.5  ,4.9
1134  ,1.592e+09   ,1.4  ,-2.5  ,4.9
1135  ,2.102e+09   ,1.6  ,-2.5  ,4.9
1136  ,2.560e+09   ,1.8  ,-2.5  ,4.9
1137  ,2.404e+09   ,2  ,-2.5  ,4.9
1138  ,2.073e+09   ,2.2  ,-2.5  ,4.9
1139  ,1.723e+09   ,-2.4  ,-2.5  ,4.7
1140  ,1.475e+09   ,-2.4  ,-2.5  ,4.5
1141  ,1.403e+09   ,-2.4  ,-2.5  ,4.3
1142  ,1.413e+09   ,-2.4  ,-2.5  ,4.1
1143  ,1.201e+09   ,-2.4  ,-2.5  ,3.9
1144  ,1.334e+09   ,-2.4  ,-2.5  ,3.7
1145  ,7.262e+08   ,-2.4  ,-2.5  ,3.5
1146  ,1.061e+09   ,-2.4  ,-2.5  ,3.3
1147  ,7.931e+08   ,-2.4  ,-2.5  ,3.1
1148  ,1.050e+09   ,-2.4  ,-2.5  ,2.9
1149  ,1.050e+09   ,-2.4  ,-2.5  ,2.7
1150  ,8.716e+08   ,-2.4  ,-2.5  ,2.5
1151  ,8.197e+08   ,-2.4  ,-2.5  ,2.3
1152  ,6.769e+08   ,-2.4  ,-2.5  ,2.1
1153  ,5.782e+08   ,-2.4  ,-2.5  ,1.9
1154  ,6.309e+08   ,-2.4  ,-2.5  ,1.7
1155  ,6.827e+08   ,-2.4  ,-2.5  ,1.5
1156  ,6.529e+08   ,-2.4  ,-2.5  ,1.3
1157  ,3.404e+08   ,-2.4  ,-2.5  ,1.1
1158  ,2.996e+08   ,-2.4  ,-2.5  ,0.9
1159  ,3.464e+08   ,-2.4  ,-2.5  ,0.7
1160  ,3.348e+08   ,-2.4  ,-2.5  ,0.5
1161  ,6.514e+08   ,-2.4  ,-2.5  ,0.3
1162  ,5.986e+08   ,-2.2  ,-2.5  ,0.1
1163  ,3.148e+08   ,-2  ,-2.5  ,0.1
1164  ,4.311e+08   ,-1.8  ,-2.5  ,0.1
1165  ,3.077e+08   ,-1.6  ,-2.5  ,0.1
1166  ,2.161e+08   ,-1.4  ,-2.5  ,0.1
1167  ,6.214e+08   ,-1.2  ,-2.5  ,0.1
1168  ,7.171e+08   ,-1  ,-2.5  ,0.1
1169  ,6.053e+08   ,-0.8  ,-2.5  ,0.1
1170  ,6.276e+08   ,-0.6  ,-2.5  ,0.1
1171  ,8.533e+08   ,-0.4  ,-2.5  ,0.1
1172  ,1.114e+09   ,-0.2  ,-2.5  ,0.1
1173  ,1.283e+09   ,-1.7664E-15  ,-2.5  ,0.1
1174  ,1.086e+09   ,0.2  ,-2.5  ,0.1
1175  ,1.097e+09   ,0.4  ,-2.5  ,0.1
1176  ,1.227e+09   ,0.6  ,-2.5  ,0.1
1177  ,7.678e+08   ,0.8  ,-2.5  ,0.1
1178  ,8.951e+08   ,1  ,-2.5  ,0.1
1179  ,1.012e+09   ,1.2  ,-2.5  ,0.1
1180  ,1.033e+09   ,1.4  ,-2.5  ,0.1
1181  ,1.353e+09   ,1.6  ,-2.5  ,0.1
1182  ,1.327e+09   ,1.8  ,-2.5  ,0.1
1183  ,1.306e+09   ,2  ,-2.5  ,0.1
1184  ,1.877e+09   ,2.2  ,-2.5  ,0.1
1185  ,2.152e+09   ,2.4  ,-2.5  ,4.7
1186  ,2.336e+09   ,2.4  ,-2.5  ,4.5
1187  ,2.378e+09   ,2.4  ,-2.5  ,4.3
1188  ,2.195e+09   ,2.4  ,-2.5  ,4.1
1189  ,2.046e+09   ,2.4  ,-2.5  ,3.9
1190  ,1.923e+09   ,2.4  ,-2.5  ,3.7
1191  ,1.599e+09   ,2.4  ,-2.5  ,3.5
1192  ,1.806e+09   ,2.4  ,-2.5  ,3.3
1193  ,1.734e+09   ,2.4  ,-2.5  ,3.1
1194  ,1.723e+09   ,2.4  ,-2.5  ,2.9
1195  ,1.570e+09   ,2.4  ,-2.5  ,2.7
1196  ,1.362e+09   ,2.4  ,-2.5  ,2.5
1197  ,1.189e+09   ,2.4  ,-2.5  ,2.3
1198  ,8.549e+08   ,2.4  ,-2.5  ,2.1
1199  ,7.928e+08   ,2.4  ,-2.5  ,1.9
1200  ,5.552e+08   ,2.4  ,-2.5  ,1.7
1201  ,3.409e+08   ,2.4  ,-2.5  ,1.5
1202  ,9.435e+08   ,2.4  ,-2.5  ,1.3
1203  ,8.515e+08   ,2.4  ,-2.5  ,1.1
1204  ,6.699e+08   ,2.4  ,-2.5  ,0.9
1205  ,6.908e+08   ,2.4  ,-2.5  ,0.7
1206  ,4.778e+08   ,2.4  ,-2.5  ,0.5
1207  ,9.870e+08   ,2.4  ,-2.5  ,0.3
1208  ,1.432e+09   ,2.4  ,-2.2  ,0
1209  ,1.444e+09   ,2.4  ,-2  ,0
1210  ,1.013e+09   ,2.4  ,-1.8  ,0
1211  ,8.257e+08   ,2.4  ,-1.6  ,0
1212  ,8.030e+08   ,2.4  ,-1.4  ,0
1213  ,5.673e+08   ,2.4  ,-1.2  ,0
1214  ,5.801e+08   ,2.4  ,-1  ,0
1215  ,5.095e+08   ,2.4  ,-0.8  ,0
1216  ,3.470e+08   ,2.4  ,-0.6  ,0
1217  ,3.400e+08   ,2.4  ,-0.4  ,0
1218  ,5.111e+08   ,2.4  ,-0.2  ,0
1219  ,5.659e+08   ,2.4  ,-1.7664E-15  ,0
1220  ,6.103e+08   ,2.4  ,0.2  ,0
1221  ,8.415e+08   ,2.4  ,0.4  ,0
1222  ,1.262e+09   ,2.4  ,0.6  ,0
1223  ,1.569e+09   ,2.4  ,0.8  ,0
1224  ,1.283e+09   ,2.4  ,1  ,0
1225  ,1.302e+09   ,2.4  ,1.2  ,0
1226  ,1.191e+09   ,2.4  ,1.4  ,0
1227  ,1.149e+09   ,2.4  ,1.6  ,0
1228  ,1.403e+09   ,2.4  ,1.8  ,0
1229  ,1.273e+09   ,2.4  ,2  ,0
1230  ,8.823e+08   ,2.4  ,2.2  ,0
1231  ,1.152e+09   ,-2.2  ,-2.4  ,0
1232  ,1.173e+09   ,-2  ,-2.4  ,0
1233  ,7.257e+08   ,-1.8  ,-2.4  ,0
1234  ,1.577e+08   ,-1.6  ,-2.4  ,0
1235  ,4.417e+08   ,-1.4  ,-2.4  ,0
1236  ,6.842e+08   ,-1.2  ,-2.4  ,0
1237  ,5.368e+08   ,-1  ,-2.4  ,0
1238  ,2.484e+08   ,-0.8  ,-2.4  ,0
1239  ,4.002e+08   ,-0.6  ,-2.4  ,0
1240  ,9.565e+08   ,-0.4  ,-2.4  ,0
1241  ,1.538e+09   ,-0.2  ,-2.4  ,0
1242  ,2.130e+09   ,5.8879E-16  ,-2.4  ,0
1243  ,2.462e+09   ,0.2  ,-2.4  ,0
1244  ,2.875e+09   ,0.4  ,-2.4  ,0
1245  ,3.044e+09   ,0.6  ,-2.4  ,0
1246  ,3.672e+09   ,0.8  ,-2.4  ,0
1247  ,3.880e+09   ,1  ,-2.4  ,0
1248  ,4.143e+09   ,1.2  ,-2.4  ,0
1249  ,3.707e+09   ,1.4  ,-2.4  ,0
1250  ,2.769e+09   ,1.6  ,-2.4  ,0
1251  ,1.222e+09   ,1.8  ,-2.4  ,0
1252  ,1.038e+09   ,2  ,-2.4  ,0
1253  ,2.773e+09   ,2.2  ,-2.4  ,0
1254  ,6.039e+08   ,-2.4  ,2.2  ,0
1255  ,1.110e+09   ,-2.4  ,2  ,0
1256  ,1.413e+09   ,-2.4  ,1.8  ,0
1257  ,1.619e+09   ,-2.4  ,1.6  ,0
1258  ,1.886e+09   ,-2.4  ,1.4  ,0
1259  ,2.044e+09   ,-2.4  ,1.2  ,0
1260  ,2.043e+09   ,-2.4  ,1  ,0
1261  ,2.016e+09   ,-2.4  ,0.8  ,0
1262  ,1.930e+09   ,-2.4  ,0.6  ,0
1263  ,1.873e+09   ,-2.4  ,0.4  ,0
1264  ,1.867e+09   ,-2.4  ,0.2  ,0
1265  ,1.931e+09   ,-2.4  ,5.8879E-16  ,0
1266  ,1.966e+09   ,-2.4  ,-0.2  ,0
1267  ,1.601e+09   ,-2.4  ,-0.4  ,0
1268  ,1.606e+09   ,-2.4  ,-0.6  ,0
1269  ,1.365e+09   ,-2.4  ,-0.8  ,0
1270  ,1.311e+09   ,-2.4  ,-1  ,0
1271  ,1.045e+09   ,-2.4  ,-1.2  ,0
1272  ,7.666e+08   ,-2.4  ,-1.4  ,0
1273  ,7.293e+08   ,-2.4  ,-1.6  ,0
1274  ,7.494e+08   ,-2.4  ,-1.8  ,0
1275  ,8.132e+08   ,-2.4  ,-2  ,0
1276  ,5.693e+08   ,-2.4  ,-2.2  ,0
1277  ,7.284e+08   ,2.2  ,2.4  ,0
1278  ,1.127e+09   ,2  ,2.4  ,0
1279  ,1.189e+09   ,1.8  ,2.4  ,0
1280  ,9.266e+08   ,1.6  ,2.4  ,0
1281  ,8.100e+08   ,1.4  ,2.4  ,0
1282  ,1.113e+09   ,1.2  ,2.4  ,0
1283  ,1.372e+09   ,1  ,2.4  ,0
1284  ,1.846e+09   ,0.8  ,2.4  ,0
1285  ,1.519e+09   ,0.6  ,2.4  ,0
1286  ,1.147e+09   ,0.4  ,2.4  ,0
1287  ,1.168e+09   ,0.2  ,2.4  ,0
1288  ,9.933e+08   ,5.8879E-16  ,2.4  ,0
1289  ,1.145e+09   ,-0.2  ,2.4  ,0
1290  ,1.151e+09   ,-0.4  ,2.4  ,0
1291  ,1.233e+09   ,-0.6  ,2.4  ,0
1292  ,1.707e+09   ,-0.8  ,2.4  ,0
1293  ,1.963e+09   ,-1  ,2.4  ,0
1294  ,1.976e+09   ,-1.2  ,2.4  ,0
1295  ,1.857e+09   ,-1.4  ,2.4  ,0
1296  ,1.761e+09   ,-1.6  ,2.4  ,0
1297  ,1.592e+09   ,-1.8  ,2.4  ,0
1298  ,1.315e+09   ,-2  ,2.4  ,0
1299  ,1.002e+09   ,-2.2  ,2.4  ,0
1460  ,1.398e+10   ,2.3243  ,2.3243  ,4.9577
1461  ,1.308e+10   ,2.4577  ,2.3243  ,4.8243
1462  ,8.304e+09   ,2.3243  ,2.4577  ,4.8243
1463  ,1.476e+09   ,-2.3  ,-2.1759  ,4.8
1464  ,1.456e+09   ,-2.3  ,-1.7631  ,4.8
1465  ,1.644e+09   ,-2.3  ,-1.1827  ,4.8
1466  ,2.357e+09   ,-2.3  ,-0.34986  ,4.8
1467  ,2.862e+09   ,-2.3  ,0.80545  ,4.8
1468  ,3.092e+09   ,-0.81337  ,2.3  ,4.8
1469  ,4.488e+09   ,0.67326  ,2.3  ,4.8
1470  ,3.689e+09   ,2.3  ,-2.1824  ,4.8
1471  ,2.548e+09   ,2.3  ,-1.7784  ,4.8
1472  ,2.564e+09   ,2.3  ,-1.2138  ,4.8
1473  ,3.331e+09   ,2.3  ,-0.40752  ,4.8
1474  ,3.819e+09   ,2.3  ,0.70532  ,4.8
1516  ,2.987e+09   ,2.3  ,2.3  ,1.6866
1517  ,4.566e+09   ,2.3  ,2.3  ,3.1733
1518  ,1.720e+09   ,2.3  ,-2.1759  ,0.2
1519  ,1.448e+09   ,2.3  ,-1.7631  ,0.2
1520  ,1.707e+09   ,2.3  ,-1.1827  ,0.2
1521  ,2.298e+09   ,2.3  ,-0.34986  ,0.2
1522  ,3.083e+09   ,2.3  ,0.80545  ,0.2
1564  ,2.146e+09   ,-0.76667  ,2.3  ,0.2
1565  ,3.294e+09   ,0.76667  ,2.3  ,0.2
1566  ,2.099e+09   ,-2.3  ,2.3  ,1.7333
1567  ,3.359e+09   ,-2.3  ,2.3  ,3.2667
1574  ,5.209e+08   ,-2.3  ,-2.1759  ,0.2
1575  ,2.619e+08   ,-2.3  ,-1.7631  ,0.2
1576  ,1.097e+08   ,-2.3  ,-1.1827  ,0.2
1577  ,5.936e+08   ,-2.3  ,-0.34986  ,0.2
1578  ,5.829e+08   ,-2.3  ,0.80545  ,0.2
1777  ,3.594e+09   ,-0.52764  ,2.5  ,4.9
1801  ,1.462e+09   ,-2.3  ,1.5527  ,0.2
1825  ,9.908e+08   ,-1.5333  ,2.3  ,0.2
1841  ,2.541e+09   ,0.063638  ,2.5  ,4.9
1876  ,1.181e+09   ,-0.5  ,2.4  ,0
1894  ,2.743e+09   ,2.3  ,1.5527  ,0.2
1907  ,1.034e+09   ,2.1  ,2.5  ,0.1
1928  ,1.101e+09   ,1.9  ,2.4  ,0
1974  ,1.282e+09   ,2.4  ,1.1  ,0
1981  ,1.138e+09   ,2.4  ,2.5  ,0.59273
1987  ,1.066e+09   ,-2.5  ,2.4  ,4
2004  ,9.131e+08   ,-2.4  ,2.5  ,4.6
2009  ,1.198e+09   ,2.4  ,1.3  ,0
2020  ,1.208e+09   ,2.5  ,1.1  ,0.1
2035  ,1.110e+09   ,-2.3  ,-0.76628  ,0.2
2070  ,6.139e+09   ,1.6404  ,2.4  ,5
2081  ,2.722e+09   ,2.4  ,2.5  ,1.9724
2095  ,1.693e+09   ,2.4  ,2.5  ,0.78982
2138  ,1.755e+09   ,-2.4  ,-0.1  ,0
2146  ,3.297e+09   ,-0.92182  ,2.4  ,5
2174  ,2.903e+09   ,2.4  ,2.5  ,1.184
2190  ,2.246e+09   ,2.5  ,2.4  ,0.98691
2203  ,3.603e+09   ,2.5  ,-0.13345  ,4.9
2232  ,5.476e+09   ,2.3  ,0.1489  ,4.8
2242  ,2.934e+09   ,2.4  ,2.5  ,2.9578
2293  ,2.118e+09   ,-2.5  ,0.5  ,0.1
2311  ,5.353e+09   ,2.3  ,2.3  ,2.4299
2313  ,2.062e+09   ,2.5  ,2.4  ,0.78982
2329  ,2.470e+09   ,2.4  ,2.5  ,2.1695
2355  ,1.066e+09   ,-2.4  ,2.5  ,4.4
2380  ,7.650e+08   ,-2.5  ,-1.5  ,0.1
2383  ,2.765e+09   ,0.45782  ,2.5  ,4.9
2408  ,3.637e+09   ,2.3  ,-1.4961  ,4.8
2445  ,2.991e+09   ,2.5  ,-1.5131  ,4.9
2484  ,5.231e+08   ,-2.5  ,-2.4  ,1.6
2495  ,1.162e+09   ,-2.4  ,1.7  ,5
2508  ,7.280e+08   ,2.4  ,0.3  ,0
2514  ,3.245e+09   ,2.3  ,0.2278  ,0.2
2570  ,1.123e+09   ,-2.4  ,1.5  ,5
2580  ,6.209e+09   ,1.6404  ,2.5  ,4.9
2603  ,3.901e+09   ,-1.1189  ,2.5  ,4.9
2695  ,2.436e+09   ,2.3  ,2.3  ,0.94331
2705  ,3.786e+09   ,2.4  ,2.5  ,1.3811
2714  ,2.192e+09   ,2.5  ,0.45782  ,4.9
2734  ,5.280e+08   ,2.4  ,-0.9  ,0
2775  ,5.961e+08   ,2.5  ,-0.1  ,0.1
2779  ,5.344e+08   ,2.4  ,-0.1  ,0
2801  ,7.786e+09   ,1.4166  ,2.3  ,4.8
2814  ,4.779e+09   ,1.4433  ,2.5  ,4.9
2863  ,1.712e+09   ,-2.4  ,2.5  ,0.6
2884  ,1.966e+09   ,-2.4  ,2.5  ,0.8
2886  ,2.121e+09   ,-2.4  ,2.5  ,1.2
2967  ,1.209e+09   ,2.4  ,1.7  ,0
2973  ,1.071e+09   ,2.5  ,1.5  ,0.1
2987  ,1.162e+09   ,-0.3  ,2.5  ,0.1
3008  ,9.966e+08   ,-2.3  ,2.3  ,0.96667
3012  ,1.109e+09   ,-2.5  ,2.4  ,2.6
3021  ,1.017e+09   ,-2.5  ,2.4  ,2.8
3025  ,1.195e+09   ,-2.5  ,2.4  ,2.4
3030  ,1.256e+09   ,-2.4  ,2.5  ,2.4
3033  ,1.342e+09   ,-2.4  ,2.5  ,2.2
3047  ,2.450e+09   ,2.4  ,2.5  ,2.3665
3052  ,2.827e+09   ,2.5  ,2.4  ,2.5636
3061  ,2.632e+09   ,2.4  ,2.5  ,2.5636
3081  ,1.148e+09   ,-2.4  ,1.3  ,5
3088  ,9.060e+08   ,-1.9073  ,2.4  ,5
3099  ,1.199e+09   ,-2.4  ,1.9  ,5
3107  ,9.148e+08   ,-2.4  ,2.5  ,3.8
3139  ,2.007e+09   ,-1.5131  ,2.4  ,5
3145  ,2.301e+09   ,-1.5131  ,2.5  ,4.9
3148  ,1.628e+09   ,-1.7102  ,2.5  ,4.9
3168  ,1.724e+09   ,-2.4  ,1.5  ,0
3188  ,1.576e+08   ,-2.5  ,-2.4  ,1
3202  ,2.438e+09   ,0.26073  ,2.5  ,4.9
3212  ,5.467e+09   ,2.5  ,1.6404  ,4.9
3247  ,7.991e+09   ,2.5  ,1.8375  ,4.9
3265  ,7.470e+09   ,2.3  ,1.4326  ,4.8
3271  ,1.353e+10   ,2.2299  ,2.2299  ,4.8
3284  ,4.066e+09   ,2.4  ,1.4433  ,5
3291  ,4.066e+09   ,2.5  ,1.4433  ,4.9
3296  ,2.267e+09   ,-2.3  ,-0.76628  ,4.8
3303  ,6.723e+08   ,-2.4  ,-0.9  ,5
3311  ,5.245e+08   ,-2.4  ,-0.7  ,5
3315  ,1.131e+09   ,1.9  ,2.5  ,0.1
3336  ,1.838e+09   ,-2.4  ,0.3  ,0
3340  ,1.812e+09   ,-2.5  ,0.1  ,0.1
3344  ,1.859e+09   ,-2.4  ,0.1  ,0
3356  ,1.105e+09   ,-0.3  ,2.4  ,0
3361  ,2.550e+09   ,-0.33054  ,2.5  ,4.9
3364  ,2.273e+09   ,-0.13345  ,2.5  ,4.9
3383  ,3.361e+09   ,2.4  ,2.5  ,3.5491
3402  ,1.531e+10   ,2.4  ,2.5  ,4.5345
3421  ,3.044e+09   ,-1.316  ,2.5  ,4.9
3439  ,4.504e+09   ,2.5  ,2.4  ,3.9433
3447  ,4.796e+09   ,2.4  ,2.5  ,3.9433
3451  ,3.891e+09   ,2.4  ,2.5  ,3.7462
3468  ,4.764e+09   ,1.4433  ,2.4  ,5
3480  ,3.144e+09   ,1.0491  ,2.4  ,5
3519  ,8.847e+08   ,1.5  ,2.4  ,0
3527  ,1.768e+09   ,2.3  ,-1.4729  ,0.2
3550  ,1.658e+09   ,-1.7  ,2.4  ,0
3554  ,1.858e+09   ,-1.7  ,2.5  ,0.1
3558  ,1.823e+09   ,-1.5  ,2.4  ,0
3562  ,1.940e+09   ,-1.5  ,2.5  ,0.1
3574  ,8.960e+08   ,-2.4  ,2.1  ,5
3581  ,1.478e+09   ,-2.5  ,1.7  ,0.1
3583  ,1.241e+09   ,-2.5  ,1.9  ,0.1
3584  ,9.384e+08   ,-1.9073  ,2.5  ,4.9
3591  ,9.531e+08   ,2.5  ,0.3  ,0.1
3595  ,7.236e+08   ,2.5  ,0.1  ,0.1
3603  ,2.092e+10   ,2.4577  ,2.391  ,4.7576
3663  ,7.658e+08   ,-1.933  ,-2.5  ,0.2
3669  ,5.504e+08   ,-2.1765  ,-2.5  ,0.2
3672  ,3.416e+08   ,-2.3  ,-2.3379  ,0.2
3682  ,9.341e+08   ,-1.9  ,-2.4  ,0
3700  ,5.593e+08   ,2.3  ,-2.5  ,2.7424
3712  ,7.263e+08   ,-2.1  ,-2.5  ,4.9
3715  ,5.946e+08   ,-1.9  ,-2.5  ,4.9
3740  ,7.143e+08   ,-1.3  ,-2.4  ,5
3746  ,3.594e+08   ,-1.2085  ,-2.5  ,4.8
3755  ,1.271e+09   ,-1.5  ,-2.4  ,5
3760  ,8.026e+08   ,-1.7  ,-2.5  ,4.9
3786  ,3.184e+09   ,2.4  ,2.5  ,1.5782
3813  ,2.624e+09   ,0.26073  ,2.4  ,5
3858  ,2.300e+08   ,-0.9  ,-2.4  ,5
3863  ,1.478e+09   ,-2.5  ,0.9  ,4.9
3875  ,2.758e+09   ,-1.9  ,-2.4  ,5
3885  ,3.006e+09   ,2.4  ,-0.72473  ,5
3910  ,8.894e+08   ,-2.4  ,-2.5  ,3.4
3959  ,6.679e+09   ,2.5  ,2.4  ,4.1404
3969  ,2.765e+09   ,2.5  ,1.0491  ,4.9
3992  ,1.813e+10   ,2.391  ,2.2576  ,4.9577
3993  ,1.973e+10   ,2.4577  ,2.2576  ,4.891
4016  ,4.255e+08   ,-2.3015  ,2.5  ,4.9
4018  ,5.421e+08   ,-2.4  ,2.5  ,4.8
4021  ,3.614e+09   ,1.2462  ,2.4  ,5
4042  ,5.844e+08   ,2.4  ,-1.1  ,0
4046  ,1.818e+09   ,-0.9  ,2.4  ,0
4055  ,2.325e+09   ,1.7  ,-2.5  ,4.9
4087  ,1.131e+09   ,1.7  ,2.4  ,0
4114  ,2.890e+09   ,2.5  ,-0.33054  ,4.9
4120  ,7.027e+08   ,2.4  ,-2.5  ,1.8
4125  ,1.747e+09   ,2.4  ,2.5  ,0.98691
4144  ,1.030e+10   ,2.4  ,2.5  ,4.3375
4161  ,9.607e+08   ,-2.4  ,0.3  ,5
4201  ,6.687e+08   ,1.933  ,-2.5  ,0.2
4225  ,7.671e+08   ,-2.3  ,-2.4  ,0
4230  ,5.867e+08   ,-2.3  ,-2.5  ,0.56701
4269  ,2.558e+08   ,-0.9  ,-2.5  ,4.9
4277  ,3.253e+08   ,-1.1  ,-2.4  ,5
4288  ,4.479e+09   ,-0.070055  ,2.3  ,4.8
4328  ,2.074e+09   ,-2.5  ,-2.4  ,4.2
4336  ,1.040e+09   ,-2.5  ,-2.4  ,4.4
4342  ,1.403e+09   ,-2.5  ,-2.4  ,4.6
4348  ,2.690e+09   ,-2.4  ,-2.4707  ,4.9707
4352  ,1.403e+09   ,-2.3  ,-2.5  ,4.9
4354  ,4.188e+09   ,-2.1765  ,-2.5  ,4.8
4355  ,2.103e+09   ,-2.3  ,-2.3379  ,4.8
4362  ,1.084e+09   ,2.5  ,2.4  ,0.59273
4364  ,1.983e+09   ,2.5  ,-2.4  ,2.4
4366  ,1.528e+09   ,2.5  ,-2.4  ,2.2
4372  ,9.762e+08   ,2.4  ,-2.5  ,2.2
4385  ,7.881e+08   ,-2.5  ,-1.9  ,0.1
4399  ,7.738e+08   ,-2.5  ,2.1  ,0.1
4407  ,1.760e+08   ,-0.7  ,-2.4  ,0
4436  ,1.733e+09   ,-2.5  ,-0.1  ,0.1
4462  ,2.356e+09   ,-2.3  ,2.3  ,4.0333
4491  ,2.716e+09   ,2.5  ,-0.52764  ,4.9
4494  ,4.951e+08   ,2.5  ,-2.4  ,1.4
4503  ,6.287e+08   ,2.4  ,-2.5  ,1.4
4508  ,9.957e+08   ,2.4  ,-2.5  ,1.2
4515  ,4.812e+08   ,2.5  ,-2.4  ,1.8
4517  ,3.047e+08   ,2.4  ,-2.5  ,1.6
4522  ,3.248e+09   ,0.7  ,-2.4  ,0
4538  ,3.050e+09   ,-1.1189  ,2.4  ,5
4546  ,5.855e+09   ,2.4  ,2.5  ,4.1404
4559  ,1.868e+09   ,1.7  ,-2.4  ,0
4590  ,2.937e+09   ,0.5  ,-2.4  ,0
4631  ,1.461e+09   ,2.4  ,-2.5  ,2.6
4634  ,3.181e+09   ,2.5  ,-2.4  ,2.8
4657  ,4.606e+08   ,-2.5  ,-2.4  ,2
4660  ,4.527e+08   ,-2.5  ,-2.4  ,1.8
4664  ,1.158e+09   ,-0.3  ,-2.4  ,0
4675  ,1.394e+09   ,-2.4  ,-2.5  ,4.8
4681  ,1.632e+09   ,-2.5  ,-0.3  ,0.1
4684  ,1.334e+09   ,1.7  ,-2.4  ,5
4703  ,1.561e+09   ,-2.4  ,0.7  ,5
4707  ,9.949e+08   ,-2.5  ,0.3  ,4.9
4714  ,2.678e+09   ,2.4  ,-0.33054  ,5
4723  ,3.285e+09   ,-1.5567  ,2.3  ,4.8
4739  ,6.310e+08   ,-2.1044  ,2.5  ,4.9
4763  ,1.452e+09   ,-1.9  ,2.4  ,0
4780  ,4.965e+08   ,-2.3  ,-1.9695  ,0.2
4782  ,4.499e+08   ,-2.4707  ,-2.4  ,0.029289
4784  ,7.547e+08   ,-2.4  ,-1.9  ,0
4791  ,5.866e+08   ,-2.4  ,-2.5  ,1.8
4796  ,4.715e+09   ,2.4707  ,-2.4707  ,4.9
4799  ,5.673e+09   ,2.5  ,-2.4  ,4.8
4806  ,2.975e+09   ,2.3  ,-2.5  ,4.9
4809  ,7.880e+09   ,2.3  ,2.3  ,3.9166
4833  ,1.368e+09   ,-2.4  ,2.5  ,0.4
4841  ,1.219e+09   ,-2.4  ,2.5  ,2.6
4846  ,1.016e+09   ,-2.5  ,2.1  ,4.9
4848  ,5.753e+08   ,-2.5  ,2.3  ,4.9
4849  ,4.740e+08   ,-2.5  ,2.4  ,4.8
4893  ,1.121e+09   ,-2.4  ,2.5  ,4.2
4897  ,1.123e+10   ,2.3333  ,2.1998  ,5
4900  ,1.767e+10   ,2.391  ,2.4577  ,4.7576
4908  ,2.040e+10   ,2.2576  ,2.391  ,4.9577
4911  ,1.826e+10   ,2.2576  ,2.4577  ,4.891
4926  ,1.905e+09   ,-2.5  ,2.4  ,1
4932  ,2.044e+09   ,-2.4  ,2.5  ,1.6
4937  ,2.267e+09   ,-1.1  ,2.5  ,0.1
4939  ,1.329e+10   ,2.3  ,2.2299  ,4.7299
4944  ,3.767e+09   ,2.5  ,-1.9073  ,4.9
4987  ,2.456e+09   ,-2.3  ,1.5527  ,4.8
5010  ,2.468e+10   ,2.4973  ,2.1331  ,4.923
5013  ,1.039e+10   ,2.5  ,2.0345  ,4.9
5017  ,1.122e+10   ,2.4  ,2.0345  ,5
5035  ,3.815e+09   ,1.3  ,-2.4  ,0
5038  ,2.407e+09   ,1.2085  ,-2.5  ,0.2
5092  ,4.824e+08   ,-2.4  ,-2.5  ,1.2
5123  ,2.688e+09   ,2.5  ,-2.4  ,0.6
5151  ,1.560e+09   ,-2.5  ,-0.5  ,0.1
5160  ,1.388e+09   ,-2.5  ,-0.7  ,0.1
5164  ,1.618e+09   ,-2.4  ,0.9  ,5
5168  ,1.064e+09   ,-2.4  ,0.5  ,5
5176  ,5.220e+08   ,2.5  ,-0.7  ,0.1
5179  ,2.920e+08   ,2.4  ,-0.5  ,0
5189  ,1.268e+09   ,2.4  ,-2.5  ,2.4
5194  ,3.732e+08   ,2.3  ,-2.5  ,2.2576
5198  ,5.240e+08   ,-2.3  ,-2.5  ,0.32348
5205  ,6.581e+08   ,-2.4  ,-2.5  ,0.2
5207  ,4.985e+08   ,-2.1  ,-2.5  ,0.1
5246  ,1.678e+09   ,-2.5  ,2.4  ,3.2
5257  ,1.202e+09   ,-2.5  ,1.5  ,4.9
5263  ,1.814e+09   ,-2.3  ,0.2278  ,0.2
5272  ,1.848e+09   ,-2.5  ,0.3  ,0.1
5275  ,1.100e+09   ,-2.5  ,0.5  ,4.9
5281  ,7.428e+09   ,1.8375  ,2.5  ,4.9
5297  ,2.194e+09   ,-0.9  ,2.5  ,0.1
5306  ,1.431e+09   ,-0.7  ,2.4  ,0
5309  ,1.438e+09   ,-0.5  ,2.5  ,0.1
5324  ,2.588e+09   ,2.4  ,2.5  ,2.7607
5332  ,1.953e+09   ,2.5  ,-2.4  ,0.8
5334  ,8.223e+08   ,2.4  ,-2.5  ,1
5360  ,3.162e+09   ,2.4  ,-1.7102  ,5
5362  ,3.227e+09   ,2.4  ,-1.5131  ,5
5368  ,7.116e+09   ,2.4  ,1.8375  ,5
5371  ,3.860e+10   ,2.4325  ,2.4888  ,4.6656
5372  ,2.349e+10   ,2.3333  ,2.5  ,4.6998
5376  ,2.889e+10   ,2.4707  ,2.4707  ,4.6331
5377  ,1.699e+10   ,2.5  ,2.4  ,4.5345
5379  ,8.133e+08   ,-1.5  ,-2.5  ,4.9
5406  ,3.500e+09   ,-2.5  ,-2.4  ,3.4
5420  ,1.612e+09   ,-2.3  ,-2.5  ,3.2226
5423  ,3.206e+09   ,1.5  ,-2.4  ,0
5502  ,5.052e+08   ,-2.5  ,-2.3  ,0.1
5504  ,7.376e+08   ,-2.5  ,-2.4  ,0.2
5506  ,5.210e+08   ,-2.4  ,-2.3  ,0
5511  ,6.788e+08   ,-2.5  ,-2.1  ,0.1
5513  ,1.840e+09   ,-2.4  ,0.5  ,0
5517  ,6.461e+08   ,-0.9  ,-2.5  ,0.1
5532  ,2.088e+08   ,-2.4707  ,2.4707  ,4.9
5534  ,4.128e+08   ,2.4  ,-0.7  ,0
5551  ,3.654e+09   ,2.5  ,-2.4  ,3.8
5566  ,2.536e+09   ,2.5  ,2.4  ,1.3811
5603  ,4.513e+08   ,2.4  ,-0.3  ,0
5617  ,1.342e+09   ,-2.1  ,2.5  ,0.1
5637  ,1.308e+09   ,-2.3  ,-1.9695  ,4.8
5641  ,8.987e+08   ,2.3  ,-2.5  ,3.4636
5645  ,5.906e+08   ,-2.4  ,-2.5  ,2
5649  ,7.285e+08   ,-2.4  ,-2.5  ,2.2
5659  ,7.258e+08   ,-2.3  ,-2.5  ,1.7774
5662  ,8.144e+09   ,2.1765  ,-2.5  ,4.8
5666  ,2.916e+09   ,2.4  ,-2.5  ,4.8
5669  ,4.743e+09   ,2.3  ,-2.3412  ,4.8
5695  ,1.923e+09   ,-2.4  ,0.7  ,0
5701  ,1.785e+09   ,-2.5  ,2.4  ,1.6
5715  ,1.885e+09   ,-2.4  ,2.5  ,1.8
5726  ,1.868e+09   ,-0.7  ,2.5  ,0.1
5727  ,1.955e+09   ,-1.1  ,2.4  ,0
5730  ,7.880e+08   ,2.3  ,-2.5  ,1.7774
5746  ,3.084e+09   ,2.5  ,2.4  ,1.7753
5755  ,1.730e+09   ,2.5  ,-2.4  ,4.4
5763  ,2.191e+09   ,2.4  ,-2.5  ,4.4
5773  ,3.318e+09   ,1.0491  ,2.5  ,4.9
5791  ,2.995e+09   ,-0.72473  ,2.4  ,5
5795  ,8.577e+09   ,1.8375  ,2.4  ,5
5803  ,1.681e+09   ,-0.3  ,-2.4  ,5
5810  ,5.232e+09   ,2.4  ,1.6404  ,5
5836  ,1.182e+09   ,-2.5  ,1.3  ,4.9
5860  ,3.557e+08   ,2.5  ,-2.4  ,1.6
5866  ,1.255e+09   ,1.5  ,-2.5  ,0.1
5884  ,5.837e+08   ,-2.4  ,-0.3  ,5
5888  ,3.396e+08   ,-2.5  ,-0.5  ,4.9
5901  ,3.866e+08   ,2.3  ,-2.5  ,2.5
5908  ,9.423e+08   ,2.5  ,-2.4  ,1.2
5909  ,1.027e+09   ,2.5  ,-2.4  ,2
5934  ,2.365e+09   ,1.9  ,-2.5  ,4.9
5938  ,4.420e+09   ,1.933  ,-2.5  ,4.8
5948  ,1.616e+09   ,-2.4  ,-2.5  ,4.6
5950  ,2.059e+09   ,-2.4707  ,-2.4707  ,4.9
5951  ,2.016e+09   ,-2.5  ,-2.4  ,4.8
5952  ,1.557e+09   ,-2.5  ,-2.3  ,4.9
5986  ,7.766e+08   ,2.3  ,-2.5  ,3.7085
5990  ,3.286e+09   ,-0.92182  ,2.5  ,4.9
6019  ,9.153e+08   ,2.5  ,1.9  ,0.1
6025  ,5.946e+08   ,2.4  ,-1.3  ,0
6035  ,1.203e+09   ,-2.5  ,1.9  ,4.9
6044  ,1.829e+09   ,0.1  ,2.5  ,0.1
6054  ,5.747e+08   ,2.4  ,0.1  ,0
6070  ,3.559e+08   ,-2.4  ,2.3  ,0
6071  ,5.527e+08   ,-2.3  ,2.4  ,0
6076  ,8.768e+08   ,-2.4  ,2.1  ,0
6083  ,1.954e+09   ,2.1  ,-2.4  ,0
6084  ,5.628e+08   ,2.4  ,2.3  ,0
6087  ,4.959e+08   ,2.3  ,2.4  ,0
6092  ,4.156e+08   ,-2.4  ,-2.5  ,0.4
6096  ,6.670e+08   ,-2.3  ,-2.5  ,0.1
6099  ,9.107e+08   ,0.7  ,-2.5  ,0.1
6149  ,1.346e+09   ,-2.4  ,-0.9  ,0
6159  ,1.800e+09   ,-2.5  ,-2.4  ,2.6
6183  ,3.777e+09   ,1.2462  ,2.5  ,4.9
6224  ,2.751e+09   ,2.5  ,-2.4  ,4
6228  ,1.965e+09   ,2.4  ,-2.5  ,3.8
6237  ,1.661e+09   ,2.5  ,0.7  ,0.1
6241  ,1.699e+10   ,2.5  ,2.3333  ,4.6998
6245  ,2.619e+09   ,2.5  ,2.4  ,1.5782
6259  ,3.996e+09   ,2.5  ,-2.1044  ,4.9
6265  ,3.463e+09   ,2.3  ,-1.9804  ,4.8
6267  ,4.392e+09   ,2.5  ,-2.3015  ,4.9
6268  ,4.083e+09   ,2.4707  ,-2.4  ,4.9707
6270  ,4.096e+09   ,2.4  ,-2.1044  ,5
6317  ,2.738e+09   ,-2.3  ,0.2278  ,4.8
6349  ,3.146e+09   ,-0.52764  ,2.4  ,5
6391  ,2.989e+09   ,2.4  ,2.5  ,1.7753
6440  ,1.117e+09   ,-2.5  ,2.4  ,3.8
6471  ,2.936e+09   ,2.5  ,-0.92182  ,4.9
6489  ,3.424e+09   ,2.5  ,1.2462  ,4.9
6523  ,6.088e+08   ,-1.1  ,-2.4  ,0
6528  ,7.122e+08   ,-1.1  ,-2.5  ,0.1
6535  ,3.933e+08   ,-0.9  ,-2.4  ,0
6538  ,2.596e+09   ,1.5  ,-2.4  ,5
6541  ,2.027e+09   ,1.5  ,-2.5  ,4.9
6551  ,2.875e+09   ,2.5  ,-0.72473  ,4.9
6564  ,4.621e+10   ,2.1331  ,2.4973  ,4.923
6565  ,1.534e+10   ,2.0345  ,2.5  ,4.9
6572  ,8.708e+08   ,2.4  ,-1.7  ,0
6581  ,3.850e+09   ,0  ,2.3  ,0.2
6592  ,1.492e+09   ,2.3  ,-1.9695  ,0.2
6594  ,1.125e+09   ,0.3  ,2.4  ,0
6601  ,1.615e+09   ,0.5  ,2.5  ,0.1
6605  ,8.755e+08   ,-2.4  ,-1.3  ,0
6606  ,1.105e+09   ,-2.4  ,-1.1  ,0
6615  ,1.872e+09   ,-2.4  ,-0.3  ,0
6634  ,3.042e+09   ,2.1  ,-2.5  ,4.9
6635  ,4.780e+09   ,2.4  ,-2.4707  ,4.9707
6636  ,5.744e+09   ,2.3  ,-2.4  ,5
6647  ,9.838e+08   ,0.5  ,-2.5  ,0.1
6704  ,2.413e+08   ,-2.4707  ,2.4707  ,0.1
6708  ,6.178e+08   ,-2.5  ,2.4  ,0.2
6712  ,1.083e+09   ,-2.4  ,2.5  ,3.6
6715  ,1.601e+09   ,-2.4  ,2.5  ,3.4
6728  ,1.463e+09   ,-2.5  ,0.7  ,4.9
6753  ,6.520e+08   ,-2.1044  ,2.4  ,5
6788  ,1.037e+10   ,2.5  ,2.4  ,4.3375
6791  ,3.529e+09   ,-1.933  ,-2.5  ,4.8
6795  ,2.385e+10   ,2.1998  ,2.5  ,4.8333
6837  ,4.619e+08   ,-2.3  ,-2.5  ,0.8063
6869  ,3.394e+09   ,2.5  ,-1.7102  ,4.9
6873  ,4.029e+09   ,2.4  ,-1.9073  ,5
6880  ,2.998e+09   ,2.4  ,-0.92182  ,5
6885  ,2.837e+09   ,2.4  ,-0.52764  ,5
6893  ,3.095e+09   ,2.4  ,1.2462  ,5
6914  ,1.921e+09   ,0.7  ,2.5  ,0.1
6920  ,1.649e+09   ,0.9  ,2.4  ,0
6923  ,1.689e+09   ,0.7  ,2.4  ,0
6936  ,1.652e+09   ,2.4  ,-2.5  ,3.4
6939  ,8.580e+08   ,2.3  ,-2.5  ,3.2226
6961  ,1.224e+09   ,-0.1  ,-2.5  ,4.9
6967  ,1.097e+09   ,-2.5  ,-1.5  ,4.9
6975  ,1.307e+09   ,-2.4  ,1.1  ,5
6978  ,8.247e+08   ,-2.4  ,2.5  ,0.2
6987  ,3.101e+09   ,2.4  ,-1.316  ,5
6994  ,9.010e+08   ,2.4  ,-1.5  ,0
7004  ,1.766e+09   ,2.4  ,-2.5  ,3.6
7011  ,2.456e+09   ,2.4  ,0.65491  ,5
7016  ,2.221e+09   ,2.4  ,0.45782  ,5
7019  ,2.671e+09   ,2.5  ,2.4  ,2.1695
7021  ,2.835e+09   ,2.5  ,2.4  ,1.9724
7052  ,1.999e+09   ,-1.3  ,2.5  ,0.1
7054  ,3.324e+08   ,-2.4  ,-2.5  ,0.8
7057  ,1.048e+09   ,0.3  ,-2.5  ,0.1
7065  ,8.525e+08   ,0.24243  ,-2.5  ,0.2
7075  ,3.552e+10   ,2.4888  ,2.4325  ,4.6656
7113  ,8.771e+08   ,-2.4  ,-2.5  ,2.6
7121  ,1.054e+09   ,-2.4  ,-2.5  ,2.8
7126  ,2.422e+09   ,-2.5  ,-2.4  ,2.8
7128  ,5.245e+08   ,-2.4707  ,-2.4707  ,0.1
7129  ,5.328e+08   ,-2.4  ,-2.4707  ,0.029289
7141  ,2.162e+09   ,-1.7  ,-2.4  ,5
7145  ,1.167e+09   ,1.1  ,2.4  ,0
7163  ,1.235e+09   ,-1.7102  ,2.4  ,5
7172  ,3.625e+09   ,2.5  ,-2.4  ,3.2
7174  ,1.180e+09   ,-2.5  ,2.4  ,3.6
7183  ,9.810e+08   ,-1.4531  ,-2.5  ,4.8
7204  ,6.523e+09   ,2.3  ,-0.81068  ,4.8
7220  ,2.804e+09   ,2.5  ,0.063638  ,4.9
7227  ,1.415e+09   ,2.5  ,-1.9  ,0.1
7256  ,2.017e+09   ,-0.1  ,-2.4  ,5
7280  ,2.624e+09   ,-0.33054  ,2.4  ,5
7299  ,3.092e+09   ,2.5  ,-1.1189  ,4.9
7316  ,5.049e+08   ,-2.5  ,-2.4  ,0.8
7323  ,3.519e+08   ,-2.4  ,-2.5  ,1
7396  ,3.857e+09   ,1.1  ,-2.4  ,5
7400  ,1.922e+09   ,-2.5  ,0.7  ,0.1
7409  ,3.403e+09   ,1.3  ,-2.4  ,5
7420  ,9.280e+08   ,2.5  ,2.1  ,0.1
7429  ,1.293e+09   ,2.4  ,1.9  ,0
7436  ,1.145e+09   ,2.5  ,-1.7  ,0.1
7438  ,1.512e+09   ,2.4  ,-2.5  ,2.8
7445  ,2.676e+10   ,2.4325  ,2.1656  ,4.9888
7464  ,7.080e+08   ,2.5  ,-1.5  ,0.1
7480  ,2.514e+09   ,2.5  ,-2.4  ,0.2
7482  ,1.153e+09   ,1.9  ,-2.5  ,0.1
7483  ,1.267e+09   ,1.7  ,-2.5  ,0.1
7486  ,1.735e+09   ,1.9  ,-2.4  ,5
7488  ,2.170e+09   ,1.6937  ,-2.5  ,4.8
7492  ,5.700e+09   ,2.1  ,-2.4  ,5
7495  ,1.110e+09   ,0.1  ,-2.5  ,0.1
7504  ,2.633e+09   ,0.3  ,-2.4  ,0
7507  ,7.333e+08   ,0.9  ,-2.5  ,0.1
7533  ,1.944e+09   ,-2.5  ,0.9  ,0.1
7536  ,7.732e+08   ,-2.4  ,-2.5  ,3.2
7540  ,9.658e+08   ,-2.4  ,-2.5  ,3
7545  ,2.898e+09   ,-2.5  ,-2.4  ,3
7582  ,1.012e+09   ,1.3  ,2.5  ,0.1
7588  ,2.780e+09   ,2.5  ,2.4  ,2.3665
7598  ,1.183e+09   ,-2.5  ,2.4  ,4.2
7607  ,2.508e+09   ,1.5333  ,2.3  ,0.2
7627  ,1.250e+09   ,-2.5  ,1.1  ,4.9
7651  ,1.219e+09   ,2.4  ,-1.9  ,0
7656  ,7.078e+08   ,2.5  ,2.4  ,0.39564
7660  ,1.317e+10   ,2.2299  ,2.3  ,4.7299
7668  ,3.402e+08   ,1.4531  ,-2.5  ,4.8
7676  ,1.412e+09   ,0.1  ,-2.5  ,4.9
7683  ,2.557e+09   ,0.1  ,-2.4  ,5
7686  ,7.791e+08   ,-2.4  ,-1.1  ,5
7702  ,8.588e+08   ,-2.3  ,-2.5  ,4.433
7710  ,2.410e+09   ,-2.3  ,-2.5  ,4.6765
7752  ,3.773e+09   ,0.9  ,-2.4  ,5
7763  ,6.263e+08   ,0.24243  ,-2.5  ,4.8
7767  ,3.119e+09   ,-2.5  ,-2.4  ,3.2
7768  ,6.870e+08   ,-2.4  ,-2.1  ,0
7776  ,2.005e+09   ,-2.4  ,0.9  ,0
7786  ,7.106e+08   ,-0.4838  ,-2.5  ,4.8
7800  ,5.643e+09   ,2.5  ,-2.4  ,4.6
7805  ,6.786e+08   ,-2.5  ,-1.3  ,4.9
7811  ,6.565e+08   ,-2.5  ,-1.1  ,4.9
7820  ,1.567e+09   ,2.5  ,-2.1  ,0.1
7824  ,1.346e+09   ,2.4  ,-2.1  ,0
7828  ,2.286e+09   ,2.4  ,-2.5  ,4.2
7831  ,2.101e+09   ,2.4  ,-2.5  ,4
7838  ,1.301e+09   ,2.5  ,-2.4  ,4.2
7839  ,2.587e+09   ,2.5  ,2.4  ,2.7607
7840  ,2.907e+09   ,2.5  ,2.4  ,2.9578
7863  ,7.353e+08   ,-2.4  ,-1.5  ,0
7890  ,1.349e+09   ,2.4  ,0.9  ,0
7897  ,1.448e+09   ,-2.4  ,-0.7  ,0
7912  ,2.006e+08   ,-1.5  ,-2.4  ,0
7917  ,4.050e+08   ,-1.3  ,-2.5  ,0.1
7931  ,1.198e+09   ,0.5  ,2.4  ,0
7934  ,3.929e+09   ,1.1  ,-2.4  ,0
7937  ,7.866e+08   ,2.4  ,-2.5  ,0.8
7941  ,3.936e+08   ,-2.4  ,-2.5  ,0.6
7969  ,3.724e+08   ,-2.5  ,2.3  ,0.1
7971  ,1.245e+09   ,-2.4  ,1.9  ,0
7972  ,1.705e+09   ,-1.9  ,2.5  ,0.1
7978  ,1.962e+09   ,-2.4  ,1.1  ,0
7996  ,5.807e+08   ,-2.4  ,-0.5  ,5
8000  ,7.624e+08   ,-2.5  ,-2.4  ,0.6
8003  ,1.114e+09   ,-2.5  ,-2.4  ,0.4
8025  ,1.814e+09   ,0.9  ,2.5  ,0.1
8035  ,1.670e+09   ,0.3  ,2.5  ,0.1
8039  ,4.321e+09   ,2.3  ,-2.5  ,0.32348
8041  ,2.293e+09   ,2.3  ,-2.3379  ,0.2
8043  ,2.374e+09   ,2.1765  ,-2.5  ,0.2
8045  ,8.380e+08   ,-0.96359  ,-2.5  ,0.2
8054  ,9.315e+08   ,1.3  ,2.4  ,0
8058  ,1.272e+09   ,1.1  ,2.5  ,0.1
8062  ,2.011e+09   ,-2.5  ,2.4  ,1.4
8067  ,1.719e+09   ,-2.5  ,2.4  ,0.8
8087  ,1.672e+09   ,-2.5  ,1.5  ,0.1
8132  ,2.623e+09   ,-0.13345  ,2.4  ,5
8183  ,6.358e+08   ,2.5  ,-0.9  ,0.1
8184  ,1.163e+09   ,1.6937  ,-2.5  ,0.2
8214  ,1.676e+09   ,-2.4707  ,-2.4  ,4.9707
8217  ,3.478e+09   ,-2.1  ,-2.4  ,5
8219  ,1.325e+09   ,-2.4  ,-2.5  ,4.4
8227  ,2.916e+09   ,2.5  ,2.4  ,3.1549
8242  ,1.591e+09   ,0.7  ,-2.5  ,4.9
8248  ,3.882e+09   ,2.5  ,-2.4  ,3.6
8254  ,4.836e+08   ,2.5  ,-0.3  ,0.1
8256  ,4.899e+08   ,2.5  ,-0.5  ,0.1
8258  ,1.077e+09   ,-0.3  ,-2.5  ,4.9
8263  ,1.098e+09   ,-0.5  ,-2.5  ,4.9
8268  ,2.381e+09   ,-2.3  ,-2.5  ,3.7085
8277  ,1.196e+09   ,-0.1  ,-2.5  ,0.1
8285  ,1.673e+09   ,1.1  ,-2.5  ,4.9
8307  ,1.056e+09   ,0.1  ,2.4  ,0
8308  ,1.329e+09   ,-0.1  ,2.5  ,0.1
8309  ,9.982e+08   ,-0.1  ,2.4  ,0
8313  ,1.572e+09   ,2.5  ,-2.3  ,0.1
8318  ,3.409e+09   ,2.5  ,-2.4  ,3
8338  ,3.108e+09   ,2.5  ,2.4  ,3.352
8339  ,2.985e+09   ,2.4  ,2.5  ,3.1549
8344  ,1.609e+09   ,-2.5  ,2.4  ,3.4
8357  ,2.695e+10   ,2.4888  ,2.1656  ,4.9325
8358  ,1.172e+10   ,2.5  ,2.1998  ,4.8333
8383  ,4.665e+08   ,-1.7  ,-2.4  ,0
8396  ,7.903e+08   ,1.1  ,-2.5  ,0.1
8399  ,2.369e+10   ,2.4526  ,2.1331  ,4.9851
8405  ,1.470e+09   ,2.5  ,-2.4  ,1
8412  ,2.560e+09   ,2.3  ,-2.5  ,0.8063
8417  ,4.069e+08   ,-2.3  ,-2.5  ,2.5
8434  ,8.841e+08   ,0.9636  ,-2.5  ,4.8
8438  ,1.011e+09   ,-0.3  ,-2.5  ,0.1
8452  ,7.996e+08   ,-2.4  ,-0.1  ,5
8468  ,3.754e+09   ,2.5  ,2.4  ,3.7462
8471  ,6.687e+08   ,-1.3  ,-2.5  ,4.9
8493  ,4.552e+08   ,-1.1  ,-2.5  ,4.9
8509  ,7.100e+08   ,-2.5  ,-1.7  ,0.1
8517  ,1.327e+09   ,-2.4  ,2.5  ,3
8531  ,1.490e+09   ,-2.4  ,1.7  ,0
8556  ,3.531e+09   ,2.5  ,2.4  ,3.5491
8573  ,2.509e+09   ,-1.316  ,2.4  ,5
8576  ,1.898e+09   ,-2.4  ,1.3  ,0
8611  ,5.468e+08   ,2.3  ,-2.5  ,1.2915
8618  ,1.014e+09   ,-2.4  ,2.5  ,4
8646  ,2.004e+09   ,-2.5  ,1.1  ,0.1
8656  ,8.934e+08   ,2.5  ,-1.3  ,0.1
8657  ,1.081e+09   ,2.4  ,2.1  ,0
8673  ,1.832e+09   ,-1.3  ,2.4  ,0
8692  ,6.363e+08   ,0.72263  ,-2.5  ,4.8
8696  ,1.416e+09   ,2.3  ,-2.5  ,1.0469
8706  ,2.436e+09   ,2.5  ,0.65491  ,4.9
8721  ,6.497e+08   ,-2.4  ,-2.5  ,1.6
8725  ,2.916e+09   ,0.65491  ,2.4  ,5
8739  ,3.341e+10   ,2.1656  ,2.4325  ,4.9888
8741  ,1.810e+10   ,2.1998  ,2.3333  ,5
8746  ,1.139e+09   ,-2.1  ,-2.4  ,0
8748  ,5.686e+08   ,-2.5  ,-2.4  ,1.2
8752  ,4.296e+10   ,2.1331  ,2.4526  ,4.9851
8759  ,2.401e+08   ,-2.3  ,-2.5  ,1.0469
8787  ,1.722e+09   ,-0.1  ,-2.4  ,0
8793  ,4.666e+08   ,-2.3  ,-2.5  ,2.2576
8795  ,8.601e+08   ,-2.4  ,-2.5  ,2.4
8798  ,1.101e+09   ,-2.3  ,-2.5  ,4.1937
8808  ,2.156e+09   ,-2.3  ,-2.5  ,3.9531
8814  ,1.375e+09   ,-2.4  ,-1.5  ,5
8849  ,8.586e+08   ,0.4838  ,-2.5  ,4.8
8851  ,1.487e+09   ,-2.4  ,-2.5  ,4.2
8868  ,1.530e+09   ,2.4  ,-2.5  ,3
8874  ,3.109e+09   ,0.852  ,2.4  ,5
8883  ,1.059e+09   ,-0.5  ,-2.4  ,5
8886  ,8.582e+08   ,-0.72262  ,-2.5  ,4.8
8893  ,7.857e+08   ,-0.7  ,-2.5  ,4.9
8897  ,3.914e+09   ,-2.5  ,-2.4  ,3.6
8899  ,2.050e+09   ,-2.3  ,-2.5  ,3.4636
8900  ,4.199e+08   ,-2.3  ,-1.4729  ,0.2
8906  ,9.277e+08   ,-2.5  ,-1.3  ,0.1
8910  ,3.031e+09   ,0.852  ,2.5  ,4.9
8925  ,2.041e+09   ,-2.4  ,2.5  ,1.4
8941  ,3.346e+08   ,2.4707  ,2.4  ,0.029289
8942  ,5.791e+08   ,2.5  ,2.3  ,0.1
8945  ,9.721e+08   ,-2.5  ,0.1  ,4.9
8950  ,2.866e+08   ,2.4707  ,2.4707  ,0.1
8951  ,1.698e+08   ,2.4  ,2.4707  ,0.029289
8959  ,2.104e+09   ,2.4  ,0.26073  ,5
8965  ,2.815e+09   ,0.45782  ,2.4  ,5
8978  ,2.130e+09   ,2.4  ,0.852  ,5
8983  ,6.985e+08   ,2.5  ,-1.1  ,0.1
8991  ,1.482e+09   ,-2.5  ,2.4  ,0.6
9008  ,2.266e+09   ,2.5  ,0.852  ,4.9
9011  ,1.584e+09   ,-2.4  ,-0.5  ,0
9025  ,2.705e+08   ,-1.5  ,-2.5  ,0.1
9038  ,8.202e+08   ,2.4  ,-2.5  ,2
9041  ,1.656e+09   ,2.5  ,0.9  ,0.1
9050  ,1.119e+09   ,2.5  ,0.5  ,0.1
9054  ,3.556e+09   ,0.9  ,-2.4  ,0
9060  ,7.078e+08   ,2.4  ,-2.5  ,0.4
9062  ,3.514e+09   ,2.3  ,-2.5  ,0.56701
9064  ,3.071e+09   ,2.5  ,-2.4  ,0.4
9069  ,3.942e+08   ,2.4  ,-2.5  ,0.6
9071  ,2.140e+09   ,1.4531  ,-2.5  ,0.2
9082  ,3.780e+08   ,-2.3  ,-2.5  ,1.2915
9086  ,7.148e+08   ,-2.4  ,-2.5  ,1.4
9091  ,6.911e+08   ,-2.5  ,-2.4  ,1.4
9094  ,1.478e+09   ,1.3  ,-2.5  ,4.9
9097  ,5.541e+08   ,-0.7  ,-2.5  ,0.1
9137  ,3.891e+08   ,-2.5  ,-0.7  ,4.9
9143  ,6.088e+08   ,-2.5  ,-0.1  ,4.9
9146  ,1.136e+09   ,-2.1  ,2.4  ,0
9148  ,1.189e+09   ,-2.5  ,1.7  ,4.9
9173  ,1.196e+09   ,-2.5  ,2.4  ,3
9192  ,5.995e+08   ,-0.7  ,-2.4  ,5
9195  ,1.603e+09   ,0.72263  ,-2.5  ,0.2
9209  ,3.786e+09   ,2.5  ,-2.4  ,3.4
9215  ,2.138e+09   ,0.9636  ,-2.5  ,0.2
9217  ,1.649e+09   ,2.4  ,-2.5  ,3.2
9218  ,6.719e+08   ,-0.96359  ,-2.5  ,4.8
9229  ,1.370e+09   ,-2.4  ,2.5  ,2.8
9248  ,4.322e+09   ,2.3  ,-2.5  ,4.433
9255  ,1.166e+09   ,2.5  ,1.3  ,0.1
9257  ,1.072e+09   ,2.4  ,1.5  ,0
9262  ,3.247e+09   ,0.5  ,-2.4  ,5
9264  ,2.363e+09   ,2.4  ,-0.13345  ,5
9272  ,2.336e+09   ,0.063638  ,2.4  ,5
9277  ,2.015e+09   ,-2.5  ,2.4  ,1.2
9279  ,2.408e+09   ,2.5  ,0.26073  ,4.9
9282  ,9.941e+08   ,1.2085  ,-2.5  ,4.8
9286  ,1.723e+09   ,0.9  ,-2.5  ,4.9
9292  ,2.737e+08   ,-2.4  ,2.4707  ,4.9707
9293  ,2.725e+08   ,-2.3015  ,2.4  ,5
9296  ,1.555e+09   ,-2.4  ,-2.1  ,5
9303  ,1.564e+09   ,-2.4  ,-1.9  ,5
9311  ,5.502e+08   ,-2.4  ,2.3  ,5
9313  ,8.740e+08   ,-2.4  ,0.1  ,5
9319  ,6.090e+08   ,-0.5  ,-2.4  ,0
9328  ,6.576e+08   ,-2.3  ,-2.5  ,1.5364
9334  ,8.284e+08   ,-2.3  ,2.5  ,0.1
9338  ,1.279e+09   ,-2.5  ,-2.4  ,2.4
9339  ,1.833e+09   ,-2.5  ,1.3  ,0.1
9341  ,8.452e+08   ,-2.3  ,-2.5  ,2.7424
9344  ,8.038e+08   ,-2.5  ,-2.4  ,2.2
9358  ,5.460e+09   ,-2.3  ,2.3  ,2.5
9364  ,1.592e+09   ,-2.5  ,-2.1  ,4.9
9367  ,1.890e+09   ,-2.4  ,-2.3  ,5
9374  ,1.015e+09   ,-2.4  ,-1.3  ,5
9378  ,1.409e+09   ,-2.5  ,2.4  ,1.8
9384  ,4.185e+08   ,2.3  ,-2.5  ,2.0162
9385  ,1.103e+09   ,-2.5  ,2.4  ,4.4
9389  ,1.368e+09   ,-2.5  ,2.4  ,2
9395  ,4.157e+09   ,2.4  ,-2.3015  ,5
9396  ,6.994e+08   ,-2.4  ,-1.7  ,0
9407  ,1.698e+09   ,-2.3  ,-1.4729  ,4.8
9411  ,1.006e+09   ,-2.5  ,-1.7  ,4.9
9423  ,7.948e+08   ,-2.4  ,-2.5  ,3.6
9432  ,3.502e+09   ,0.7  ,-2.4  ,5
9438  ,4.973e+08   ,-2.5  ,-0.9  ,4.9
9443  ,5.276e+08   ,-2.5  ,-0.3  ,4.9
9445  ,2.791e+08   ,-2.4707  ,2.4  ,4.9707
9448  ,2.891e+09   ,2.4  ,-1.1189  ,5
9453  ,1.416e+09   ,2.4  ,0.7  ,0
9455  ,2.661e+09   ,2.5  ,-2.4  ,2.6
9457  ,8.080e+08   ,2.3  ,-2.5  ,2.9838
9494  ,1.990e+09   ,-2.4  ,2.5  ,1
9500  ,1.337e+09   ,0.3  ,-2.5  ,4.9
9504  ,3.041e+09   ,0.3  ,-2.4  ,5
9506  ,1.333e+09   ,2.1  ,-2.5  ,0.1
9518  ,3.449e+08   ,-1.9  ,-2.5  ,0.1
9528  ,1.578e+09   ,2.3  ,-2.5  ,0.1
9531  ,2.655e+09   ,2.4707  ,-2.4707  ,0.1
9533  ,1.612e+09   ,2.4707  ,-2.4  ,0.029289
9534  ,2.096e+09   ,2.4  ,-2.4707  ,0.029289
9541  ,1.273e+09   ,0.5  ,-2.5  ,4.9
9544  ,7.384e+08   ,-0.5  ,-2.5  ,0.1
9559  ,1.296e+09   ,-2.5  ,-1.9  ,4.9
9562  ,8.488e+08   ,-2.5  ,2.4  ,4.6
9565  ,1.729e+09   ,-2.4  ,2.5  ,2
9571  ,4.066e+09   ,-2.5  ,-2.4  ,3.8
9574  ,1.028e+09   ,-2.4  ,-2.5  ,3.8
9577  ,9.646e+08   ,1.3  ,-2.5  ,0.1
9582  ,1.227e+09   ,-2.5  ,-0.9  ,0.1
9596  ,9.497e+08   ,2.1  ,2.4  ,0
9598  ,1.726e+09   ,-2.4  ,2.5  ,3.2
9602  ,1.074e+09   ,1.5  ,2.5  ,0.1
9610  ,6.227e+08   ,2.4  ,2.5  ,0.39564
9612  ,3.495e+09   ,-0.72473  ,2.5  ,4.9
9614  ,1.139e+09   ,1.7  ,2.5  ,0.1
9635  ,1.127e+09   ,2.5  ,1.7  ,0.1
9646  ,5.286e+08   ,2.3  ,2.5  ,0.1
9651  ,3.461e+10   ,2.1656  ,2.4888  ,4.9325
9653  ,2.972e+09   ,2.5  ,-1.316  ,4.9
9656  ,1.175e+09   ,-2.4  ,-1.7  ,5
9659  ,8.079e+09   ,2.3  ,-2.5  ,4.6765
9661  ,5.695e+08   ,2.3  ,-2.5  ,3.9531
9664  ,2.647e+09   ,-2.3  ,-2.4  ,5
9666  ,8.904e+08   ,1.9  ,-2.4  ,0
9677  ,1.076e+09   ,2.4  ,0.5  ,0
9678  ,1.085e+09   ,-2.5  ,-1.1  ,0.1
9680  ,2.479e+09   ,2.5  ,2.4  ,1.184
9681  ,3.160e+08   ,2.5  ,2.4  ,0.19855
9696  ,7.367e+08   ,-2.3  ,-2.5  ,2.0162
9698  ,1.661e+09   ,2.4  ,-2.3  ,0
9699  ,7.027e+08   ,-0.24243  ,-2.5  ,0.2
9701  ,2.222e+09   ,0.1  ,-2.4  ,0
9704  ,9.082e+08   ,-0.4838  ,-2.5  ,0.2
9718  ,1.017e+09   ,-0.72262  ,-2.5  ,0.2
9726  ,2.700e+09   ,2.3  ,-0.76628  ,0.2
9727  ,1.252e+09   ,-2.5  ,2.4  ,0.4
9730  ,4.283e+08   ,1.9433E-06  ,-2.5  ,4.8
9731  ,4.176e+08   ,-0.24243  ,-2.5  ,4.8
9732  ,1.300e+09   ,-2.5  ,2.4  ,2.2
9738  ,3.503e+09   ,-2.5  ,-2.4  ,4
9743  ,2.386e+09   ,-1.6937  ,-2.5  ,4.8
9744  ,1.355e+09   ,-2.4  ,-2.5  ,4
9750  ,3.547e+08   ,-1.7  ,-2.5  ,0.1
9752  ,3.866e+08   ,-1.6937  ,-2.5  ,0.2
9754  ,5.979e+08   ,-1.3  ,-2.4  ,0
9759  ,1.510e+08   ,-2.4707  ,2.4  ,0.029289
9760  ,1.914e+08   ,-2.4  ,2.4707  ,0.029289
9768  ,2.272e+09   ,2.3  ,-2.5  ,4.1937
9770  ,7.344e+08   ,1.9433E-06  ,-2.5  ,0.2
9771  ,1.135e+09   ,0.4838  ,-2.5  ,0.2
9772  ,1.454e+09   ,2.4  ,-2.5  ,0.2
9773  ,3.031e+09   ,2.4  ,-2.5  ,4.6
9776  ,2.246e+09   ,2.4  ,0.063638  ,5
9780  ,3.004e+09   ,0.65491  ,2.5  ,4.9
9781  ,3.555e+08   ,2.4  ,2.5  ,0.19855
9782  ,1.308e+09   ,-2.3  ,-2.5  ,2.9838
9786  ,3.093e+08   ,-1.2085  ,-2.5  ,0.2
9787  ,8.885e+07   ,-1.4531  ,-2.5  ,0.2
9790  ,2.070e+09   ,2.3  ,-2.4  ,0
9793  ,1.602e+10   ,2.0345  ,2.4  ,5
9797  ,8.592e+08   ,2.3  ,-2.5  ,1.5364
9798  ,2.557e+09   ,2.4  ,1.0491  ,5
9809  ,2.957e+09   ,2.4  ,2.5  ,3.352
