Date:  12:52, Monday, July 10, 2023
Model name: Hollow_DropBox
Study name: DropTest_300fts(-Default-)
Plot type:  Stress1
Plot step: 11   time : 57.724 Microseconds
Result Type: von Mises 


Node  ,Value (N/m^2)  ,X (in)  ,Y (in)  ,Z (in)
1  ,2.911e+10   ,2.5  ,2.1331  ,4.9
2  ,2.413e+10   ,2.4577  ,2.1908  ,4.9577
3  ,5.255e+10   ,2.4894  ,2.1331  ,4.9447
4  ,3.128e+10   ,2.1331  ,2.5  ,4.9
5  ,5.515e+10   ,2.1331  ,2.4894  ,4.9447
6  ,2.313e+10   ,2.1908  ,2.4577  ,4.9577
7  ,2.801e+08   ,-2.4  ,2.4  ,5
8  ,1.148e+09   ,-2.4  ,-2.4  ,5
9  ,1.766e+09   ,2.4  ,-2.4  ,5
10  ,2.674e+10   ,2.4  ,2.1331  ,5
11  ,2.984e+10   ,2.1331  ,2.4  ,5
12  ,1.870e+09   ,2.5  ,-2.4  ,4.9
13  ,1.065e+09   ,2.5  ,-2.4  ,0.1
14  ,2.003e+08   ,2.5  ,2.4  ,0.1
15  ,3.041e+10   ,2.5  ,2.4  ,4.6331
16  ,2.876e+08   ,2.4  ,2.5  ,0.1
17  ,1.784e+08   ,-2.4  ,2.5  ,0.1
18  ,2.843e+08   ,-2.4  ,2.5  ,4.9
19  ,3.178e+10   ,2.4  ,2.5  ,4.6331
20  ,1.378e+08   ,-2.5  ,2.4  ,0.1
21  ,1.751e+08   ,-2.5  ,-2.4  ,0.1
22  ,7.962e+08   ,-2.5  ,-2.4  ,4.9
23  ,3.240e+08   ,-2.5  ,2.4  ,4.9
24  ,5.294e+08   ,-2.3  ,-2.5  ,0.2
25  ,1.032e+09   ,-2.3  ,-2.5  ,4.8
26  ,2.041e+09   ,2.3  ,-2.5  ,4.8
27  ,1.016e+09   ,2.3  ,-2.5  ,0.2
28  ,8.817e+08   ,-2.4  ,-2.5  ,4.9
29  ,1.904e+09   ,2.4  ,-2.5  ,4.9
30  ,1.223e+08   ,-2.4  ,-2.5  ,0.1
31  ,8.913e+08   ,2.4  ,-2.5  ,0.1
32  ,7.865e+08   ,2.4  ,-2.4  ,0
33  ,2.489e+08   ,2.4  ,2.4  ,0
34  ,2.305e+08   ,-2.4  ,-2.4  ,0
35  ,1.831e+08   ,-2.4  ,2.4  ,0
36  ,2.883e+10   ,2.4577  ,2.4577  ,4.6908
37  ,8.711e+08   ,-2.3  ,2.3  ,4.8
38  ,1.594e+10   ,2.1599  ,2.3  ,4.8
39  ,1.564e+10   ,2.3  ,2.1599  ,4.8
40  ,1.605e+10   ,2.3  ,2.3  ,4.6599
41  ,8.247e+08   ,2.3  ,2.3  ,0.2
42  ,4.919e+08   ,-2.3  ,2.3  ,0.2
43  ,3.778e+08   ,-2.4  ,2.2  ,5
44  ,3.788e+08   ,-2.4  ,2  ,5
45  ,4.336e+08   ,-2.4  ,1.8  ,5
46  ,5.050e+08   ,-2.4  ,1.6  ,5
47  ,5.986e+08   ,-2.4  ,1.4  ,5
48  ,8.051e+08   ,-2.4  ,1.2  ,5
49  ,8.694e+08   ,-2.4  ,1  ,5
50  ,1.102e+09   ,-2.4  ,0.8  ,5
51  ,9.738e+08   ,-2.4  ,0.6  ,5
52  ,8.764e+08   ,-2.4  ,0.4  ,5
53  ,8.175e+08   ,-2.4  ,0.2  ,5
54  ,6.754e+08   ,-2.4  ,5.8879E-16  ,5
55  ,8.164e+08   ,-2.4  ,-0.2  ,5
56  ,9.518e+08   ,-2.4  ,-0.4  ,5
57  ,7.343e+08   ,-2.4  ,-0.6  ,5
58  ,6.085e+08   ,-2.4  ,-0.8  ,5
59  ,6.694e+08   ,-2.4  ,-1  ,5
60  ,5.801e+08   ,-2.4  ,-1.2  ,5
61  ,6.785e+08   ,-2.4  ,-1.4  ,5
62  ,5.508e+08   ,-2.4  ,-1.6  ,5
63  ,5.212e+08   ,-2.4  ,-1.8  ,5
64  ,6.847e+08   ,-2.4  ,-2  ,5
65  ,6.882e+08   ,-2.4  ,-2.2  ,5
66  ,1.493e+09   ,-2.2  ,-2.4  ,5
67  ,1.046e+09   ,-2  ,-2.4  ,5
68  ,5.683e+08   ,-1.8  ,-2.4  ,5
69  ,2.560e+08   ,-1.6  ,-2.4  ,5
70  ,4.760e+08   ,-1.4  ,-2.4  ,5
71  ,6.302e+08   ,-1.2  ,-2.4  ,5
72  ,8.030e+08   ,-1  ,-2.4  ,5
73  ,9.187e+08   ,-0.8  ,-2.4  ,5
74  ,6.771e+08   ,-0.6  ,-2.4  ,5
75  ,6.968e+08   ,-0.4  ,-2.4  ,5
76  ,8.772e+08   ,-0.2  ,-2.4  ,5
77  ,8.782e+08   ,-5.8879E-16  ,-2.4  ,5
78  ,8.643e+08   ,0.2  ,-2.4  ,5
79  ,9.462e+08   ,0.4  ,-2.4  ,5
80  ,8.274e+08   ,0.6  ,-2.4  ,5
81  ,1.191e+09   ,0.8  ,-2.4  ,5
82  ,1.812e+09   ,1  ,-2.4  ,5
83  ,2.201e+09   ,1.2  ,-2.4  ,5
84  ,2.467e+09   ,1.4  ,-2.4  ,5
85  ,2.192e+09   ,1.6  ,-2.4  ,5
86  ,1.604e+09   ,1.8  ,-2.4  ,5
87  ,8.595e+08   ,2  ,-2.4  ,5
88  ,2.404e+09   ,2.2  ,-2.4  ,5
89  ,1.455e+09   ,2.4  ,-2.2029  ,5
90  ,1.508e+09   ,2.4  ,-2.0058  ,5
91  ,1.197e+09   ,2.4  ,-1.8087  ,5
92  ,9.682e+08   ,2.4  ,-1.6116  ,5
93  ,1.008e+09   ,2.4  ,-1.4145  ,5
94  ,9.972e+08   ,2.4  ,-1.2175  ,5
95  ,1.038e+09   ,2.4  ,-1.0204  ,5
96  ,1.211e+09   ,2.4  ,-0.82327  ,5
97  ,1.240e+09   ,2.4  ,-0.62618  ,5
98  ,1.209e+09   ,2.4  ,-0.42909  ,5
99  ,1.310e+09   ,2.4  ,-0.232  ,5
100  ,1.447e+09   ,2.4  ,-0.034907  ,5
101  ,1.668e+09   ,2.4  ,0.16218  ,5
102  ,2.173e+09   ,2.4  ,0.35927  ,5
103  ,2.541e+09   ,2.4  ,0.55637  ,5
104  ,2.907e+09   ,2.4  ,0.75346  ,5
105  ,2.604e+09   ,2.4  ,0.95055  ,5
106  ,2.681e+09   ,2.4  ,1.1476  ,5
107  ,3.933e+09   ,2.4  ,1.3447  ,5
108  ,5.578e+09   ,2.4  ,1.5418  ,5
109  ,7.538e+09   ,2.4  ,1.7389  ,5
110  ,1.357e+10   ,2.4  ,1.936  ,5
111  ,1.913e+10   ,2.2665  ,2.2665  ,5
112  ,1.375e+10   ,1.936  ,2.4  ,5
113  ,7.221e+09   ,1.7389  ,2.4  ,5
114  ,5.792e+09   ,1.5418  ,2.4  ,5
115  ,4.099e+09   ,1.3447  ,2.4  ,5
116  ,3.134e+09   ,1.1476  ,2.4  ,5
117  ,3.083e+09   ,0.95055  ,2.4  ,5
118  ,3.029e+09   ,0.75346  ,2.4  ,5
119  ,2.694e+09   ,0.55637  ,2.4  ,5
120  ,2.484e+09   ,0.35927  ,2.4  ,5
121  ,2.397e+09   ,0.16218  ,2.4  ,5
122  ,2.265e+09   ,-0.034907  ,2.4  ,5
123  ,2.311e+09   ,-0.232  ,2.4  ,5
124  ,1.833e+09   ,-0.42909  ,2.4  ,5
125  ,1.593e+09   ,-0.62618  ,2.4  ,5
126  ,1.989e+09   ,-0.82327  ,2.4  ,5
127  ,1.821e+09   ,-1.0204  ,2.4  ,5
128  ,1.620e+09   ,-1.2175  ,2.4  ,5
129  ,1.386e+09   ,-1.4145  ,2.4  ,5
130  ,1.055e+09   ,-1.6116  ,2.4  ,5
131  ,7.694e+08   ,-1.8087  ,2.4  ,5
132  ,6.111e+08   ,-2.0058  ,2.4  ,5
133  ,3.978e+08   ,-2.2029  ,2.4  ,5
294  ,1.319e+09   ,2.5  ,-2.2029  ,4.9
295  ,1.452e+09   ,2.5  ,-2.0058  ,4.9
296  ,1.175e+09   ,2.5  ,-1.8087  ,4.9
297  ,1.095e+09   ,2.5  ,-1.6116  ,4.9
298  ,9.494e+08   ,2.5  ,-1.4145  ,4.9
299  ,1.056e+09   ,2.5  ,-1.2175  ,4.9
300  ,1.094e+09   ,2.5  ,-1.0204  ,4.9
301  ,9.762e+08   ,2.5  ,-0.82327  ,4.9
302  ,1.071e+09   ,2.5  ,-0.62618  ,4.9
303  ,1.267e+09   ,2.5  ,-0.42909  ,4.9
304  ,1.567e+09   ,2.5  ,-0.232  ,4.9
305  ,1.826e+09   ,2.5  ,-0.034907  ,4.9
306  ,2.152e+09   ,2.5  ,0.16218  ,4.9
307  ,2.026e+09   ,2.5  ,0.35927  ,4.9
308  ,2.346e+09   ,2.5  ,0.55637  ,4.9
309  ,2.674e+09   ,2.5  ,0.75346  ,4.9
310  ,2.812e+09   ,2.5  ,0.95055  ,4.9
311  ,3.373e+09   ,2.5  ,1.1476  ,4.9
312  ,4.108e+09   ,2.5  ,1.3447  ,4.9
313  ,5.728e+09   ,2.5  ,1.5418  ,4.9
314  ,9.488e+09   ,2.5  ,1.7389  ,4.9
315  ,1.489e+10   ,2.5  ,1.936  ,4.9
316  ,2.385e+09   ,2.5  ,-2.4  ,4.7
317  ,7.997e+08   ,2.5  ,-2.4  ,4.5
318  ,1.556e+09   ,2.5  ,-2.4  ,4.3
319  ,2.336e+09   ,2.5  ,-2.4  ,4.1
320  ,2.299e+09   ,2.5  ,-2.4  ,3.9
321  ,2.382e+09   ,2.5  ,-2.4  ,3.7
322  ,1.892e+09   ,2.5  ,-2.4  ,3.5
323  ,1.236e+09   ,2.5  ,-2.4  ,3.3
324  ,9.535e+08   ,2.5  ,-2.4  ,3.1
325  ,1.101e+09   ,2.5  ,-2.4  ,2.9
326  ,1.026e+09   ,2.5  ,-2.4  ,2.7
327  ,9.558e+08   ,2.5  ,-2.4  ,2.5
328  ,8.537e+08   ,2.5  ,-2.4  ,2.3
329  ,6.493e+08   ,2.5  ,-2.4  ,2.1
330  ,7.357e+08   ,2.5  ,-2.4  ,1.9
331  ,9.232e+08   ,2.5  ,-2.4  ,1.7
332  ,8.308e+08   ,2.5  ,-2.4  ,1.5
333  ,6.813e+08   ,2.5  ,-2.4  ,1.3
334  ,4.799e+08   ,2.5  ,-2.4  ,1.1
335  ,1.799e+08   ,2.5  ,-2.4  ,0.9
336  ,7.722e+08   ,2.5  ,-2.4  ,0.7
337  ,1.113e+09   ,2.5  ,-2.4  ,0.5
338  ,1.440e+09   ,2.5  ,-2.4  ,0.3
339  ,6.319e+08   ,2.5  ,-2.2  ,0.1
340  ,6.762e+08   ,2.5  ,-2  ,0.1
341  ,4.650e+08   ,2.5  ,-1.8  ,0.1
342  ,4.037e+08   ,2.5  ,-1.6  ,0.1
343  ,4.291e+08   ,2.5  ,-1.4  ,0.1
344  ,5.505e+08   ,2.5  ,-1.2  ,0.1
345  ,5.953e+08   ,2.5  ,-1  ,0.1
346  ,4.753e+08   ,2.5  ,-0.8  ,0.1
347  ,6.310e+08   ,2.5  ,-0.6  ,0.1
348  ,7.767e+08   ,2.5  ,-0.4  ,0.1
349  ,7.338e+08   ,2.5  ,-0.2  ,0.1
350  ,7.152e+08   ,2.5  ,-1.7664E-15  ,0.1
351  ,7.366e+08   ,2.5  ,0.2  ,0.1
352  ,8.922e+08   ,2.5  ,0.4  ,0.1
353  ,1.027e+09   ,2.5  ,0.6  ,0.1
354  ,1.160e+09   ,2.5  ,0.8  ,0.1
355  ,8.120e+08   ,2.5  ,1  ,0.1
356  ,6.567e+08   ,2.5  ,1.2  ,0.1
357  ,5.529e+08   ,2.5  ,1.4  ,0.1
358  ,4.570e+08   ,2.5  ,1.6  ,0.1
359  ,4.273e+08   ,2.5  ,1.8  ,0.1
360  ,2.902e+08   ,2.5  ,2  ,0.1
361  ,2.481e+08   ,2.5  ,2.2  ,0.1
362  ,1.538e+10   ,2.5  ,2.4  ,4.436
363  ,9.439e+09   ,2.5  ,2.4  ,4.2389
364  ,5.640e+09   ,2.5  ,2.4  ,4.0418
365  ,4.456e+09   ,2.5  ,2.4  ,3.8447
366  ,3.109e+09   ,2.5  ,2.4  ,3.6476
367  ,3.117e+09   ,2.5  ,2.4  ,3.4505
368  ,3.169e+09   ,2.5  ,2.4  ,3.2535
369  ,2.691e+09   ,2.5  ,2.4  ,3.0564
370  ,2.241e+09   ,2.5  ,2.4  ,2.8593
371  ,2.083e+09   ,2.5  ,2.4  ,2.6622
372  ,2.230e+09   ,2.5  ,2.4  ,2.4651
373  ,1.803e+09   ,2.5  ,2.4  ,2.268
374  ,1.817e+09   ,2.5  ,2.4  ,2.0709
375  ,1.645e+09   ,2.5  ,2.4  ,1.8738
376  ,1.702e+09   ,2.5  ,2.4  ,1.6767
377  ,1.217e+09   ,2.5  ,2.4  ,1.4796
378  ,1.280e+09   ,2.5  ,2.4  ,1.2825
379  ,1.114e+09   ,2.5  ,2.4  ,1.0855
380  ,1.098e+09   ,2.5  ,2.4  ,0.88836
381  ,8.838e+08   ,2.5  ,2.4  ,0.69127
382  ,5.536e+08   ,2.5  ,2.4  ,0.49418
383  ,3.437e+08   ,2.5  ,2.4  ,0.29709
384  ,1.895e+10   ,2.5  ,2.2665  ,4.7665
544  ,3.384e+08   ,2.2  ,2.5  ,0.1
545  ,4.397e+08   ,2  ,2.5  ,0.1
546  ,5.762e+08   ,1.8  ,2.5  ,0.1
547  ,6.307e+08   ,1.6  ,2.5  ,0.1
548  ,6.580e+08   ,1.4  ,2.5  ,0.1
549  ,8.008e+08   ,1.2  ,2.5  ,0.1
550  ,9.913e+08   ,1  ,2.5  ,0.1
551  ,1.389e+09   ,0.8  ,2.5  ,0.1
552  ,1.417e+09   ,0.6  ,2.5  ,0.1
553  ,1.413e+09   ,0.4  ,2.5  ,0.1
554  ,1.459e+09   ,0.2  ,2.5  ,0.1
555  ,1.269e+09   ,5.8879E-16  ,2.5  ,0.1
556  ,8.232e+08   ,-0.2  ,2.5  ,0.1
557  ,8.359e+08   ,-0.4  ,2.5  ,0.1
558  ,7.958e+08   ,-0.6  ,2.5  ,0.1
559  ,7.137e+08   ,-0.8  ,2.5  ,0.1
560  ,8.595e+08   ,-1  ,2.5  ,0.1
561  ,8.335e+08   ,-1.2  ,2.5  ,0.1
562  ,7.245e+08   ,-1.4  ,2.5  ,0.1
563  ,6.828e+08   ,-1.6  ,2.5  ,0.1
564  ,6.261e+08   ,-1.8  ,2.5  ,0.1
565  ,5.568e+08   ,-2  ,2.5  ,0.1
566  ,5.790e+08   ,-2.2  ,2.5  ,0.1
567  ,3.806e+08   ,-2.4  ,2.5  ,4.7
568  ,3.624e+08   ,-2.4  ,2.5  ,4.5
569  ,4.726e+08   ,-2.4  ,2.5  ,4.3
570  ,5.672e+08   ,-2.4  ,2.5  ,4.1
571  ,6.769e+08   ,-2.4  ,2.5  ,3.9
572  ,8.105e+08   ,-2.4  ,2.5  ,3.7
573  ,9.952e+08   ,-2.4  ,2.5  ,3.5
574  ,1.431e+09   ,-2.4  ,2.5  ,3.3
575  ,1.228e+09   ,-2.4  ,2.5  ,3.1
576  ,1.166e+09   ,-2.4  ,2.5  ,2.9
577  ,9.752e+08   ,-2.4  ,2.5  ,2.7
578  ,1.009e+09   ,-2.4  ,2.5  ,2.5
579  ,9.109e+08   ,-2.4  ,2.5  ,2.3
580  ,9.769e+08   ,-2.4  ,2.5  ,2.1
581  ,9.151e+08   ,-2.4  ,2.5  ,1.9
582  ,8.803e+08   ,-2.4  ,2.5  ,1.7
583  ,9.259e+08   ,-2.4  ,2.5  ,1.5
584  ,7.695e+08   ,-2.4  ,2.5  ,1.3
585  ,7.183e+08   ,-2.4  ,2.5  ,1.1
586  ,6.509e+08   ,-2.4  ,2.5  ,0.9
587  ,5.928e+08   ,-2.4  ,2.5  ,0.7
588  ,5.676e+08   ,-2.4  ,2.5  ,0.5
589  ,5.892e+08   ,-2.4  ,2.5  ,0.3
590  ,1.492e+10   ,1.936  ,2.5  ,4.9
591  ,6.720e+09   ,1.7389  ,2.5  ,4.9
592  ,5.165e+09   ,1.5418  ,2.5  ,4.9
593  ,3.941e+09   ,1.3447  ,2.5  ,4.9
594  ,3.056e+09   ,1.1476  ,2.5  ,4.9
595  ,3.075e+09   ,0.95055  ,2.5  ,4.9
596  ,3.244e+09   ,0.75346  ,2.5  ,4.9
597  ,2.705e+09   ,0.55637  ,2.5  ,4.9
598  ,2.630e+09   ,0.35927  ,2.5  ,4.9
599  ,2.219e+09   ,0.16218  ,2.5  ,4.9
600  ,1.904e+09   ,-0.034907  ,2.5  ,4.9
601  ,1.677e+09   ,-0.232  ,2.5  ,4.9
602  ,2.059e+09   ,-0.42909  ,2.5  ,4.9
603  ,2.055e+09   ,-0.62618  ,2.5  ,4.9
604  ,1.930e+09   ,-0.82327  ,2.5  ,4.9
605  ,2.023e+09   ,-1.0204  ,2.5  ,4.9
606  ,1.850e+09   ,-1.2175  ,2.5  ,4.9
607  ,1.477e+09   ,-1.4145  ,2.5  ,4.9
608  ,1.122e+09   ,-1.6116  ,2.5  ,4.9
609  ,8.124e+08   ,-1.8087  ,2.5  ,4.9
610  ,5.867e+08   ,-2.0058  ,2.5  ,4.9
611  ,4.642e+08   ,-2.2029  ,2.5  ,4.9
612  ,1.969e+10   ,2.2665  ,2.5  ,4.7665
613  ,1.318e+10   ,2.4  ,2.5  ,4.436
614  ,8.052e+09   ,2.4  ,2.5  ,4.2389
615  ,5.352e+09   ,2.4  ,2.5  ,4.0418
616  ,4.202e+09   ,2.4  ,2.5  ,3.8447
617  ,3.251e+09   ,2.4  ,2.5  ,3.6476
618  ,3.050e+09   ,2.4  ,2.5  ,3.4505
619  ,3.143e+09   ,2.4  ,2.5  ,3.2535
620  ,2.816e+09   ,2.4  ,2.5  ,3.0564
621  ,2.259e+09   ,2.4  ,2.5  ,2.8593
622  ,2.053e+09   ,2.4  ,2.5  ,2.6622
623  ,1.884e+09   ,2.4  ,2.5  ,2.4651
624  ,1.708e+09   ,2.4  ,2.5  ,2.268
625  ,1.513e+09   ,2.4  ,2.5  ,2.0709
626  ,1.584e+09   ,2.4  ,2.5  ,1.8738
627  ,1.727e+09   ,2.4  ,2.5  ,1.6767
628  ,1.838e+09   ,2.4  ,2.5  ,1.4796
629  ,1.726e+09   ,2.4  ,2.5  ,1.2825
630  ,1.177e+09   ,2.4  ,2.5  ,1.0855
631  ,9.099e+08   ,2.4  ,2.5  ,0.88836
632  ,6.884e+08   ,2.4  ,2.5  ,0.69127
633  ,5.506e+08   ,2.4  ,2.5  ,0.49418
634  ,2.721e+08   ,2.4  ,2.5  ,0.29709
796  ,2.813e+08   ,-2.5  ,2.2  ,0.1
797  ,5.056e+08   ,-2.5  ,2  ,0.1
798  ,6.811e+08   ,-2.5  ,1.8  ,0.1
799  ,8.468e+08   ,-2.5  ,1.6  ,0.1
800  ,9.626e+08   ,-2.5  ,1.4  ,0.1
801  ,1.075e+09   ,-2.5  ,1.2  ,0.1
802  ,1.246e+09   ,-2.5  ,1  ,0.1
803  ,1.358e+09   ,-2.5  ,0.8  ,0.1
804  ,1.213e+09   ,-2.5  ,0.6  ,0.1
805  ,1.101e+09   ,-2.5  ,0.4  ,0.1
806  ,8.963e+08   ,-2.5  ,0.2  ,0.1
807  ,7.646e+08   ,-2.5  ,5.8879E-16  ,0.1
808  ,6.009e+08   ,-2.5  ,-0.2  ,0.1
809  ,4.840e+08   ,-2.5  ,-0.4  ,0.1
810  ,4.435e+08   ,-2.5  ,-0.6  ,0.1
811  ,4.054e+08   ,-2.5  ,-0.8  ,0.1
812  ,3.899e+08   ,-2.5  ,-1  ,0.1
813  ,3.753e+08   ,-2.5  ,-1.2  ,0.1
814  ,2.747e+08   ,-2.5  ,-1.4  ,0.1
815  ,1.727e+08   ,-2.5  ,-1.6  ,0.1
816  ,7.833e+07   ,-2.5  ,-1.8  ,0.1
817  ,1.536e+08   ,-2.5  ,-2  ,0.1
818  ,1.436e+08   ,-2.5  ,-2.2  ,0.1
819  ,7.173e+08   ,-2.5  ,-2.4  ,4.7
820  ,7.125e+08   ,-2.5  ,-2.4  ,4.5
821  ,1.432e+09   ,-2.5  ,-2.4  ,4.3
822  ,2.012e+09   ,-2.5  ,-2.4  ,4.1
823  ,1.870e+09   ,-2.5  ,-2.4  ,3.9
824  ,1.609e+09   ,-2.5  ,-2.4  ,3.7
825  ,1.449e+09   ,-2.5  ,-2.4  ,3.5
826  ,1.049e+09   ,-2.5  ,-2.4  ,3.3
827  ,7.089e+08   ,-2.5  ,-2.4  ,3.1
828  ,3.751e+08   ,-2.5  ,-2.4  ,2.9
829  ,1.840e+08   ,-2.5  ,-2.4  ,2.7
830  ,4.809e+07   ,-2.5  ,-2.4  ,2.5
831  ,3.509e+08   ,-2.5  ,-2.4  ,2.3
832  ,7.346e+08   ,-2.5  ,-2.4  ,2.1
833  ,7.554e+08   ,-2.5  ,-2.4  ,1.9
834  ,5.770e+08   ,-2.5  ,-2.4  ,1.7
835  ,2.963e+08   ,-2.5  ,-2.4  ,1.5
836  ,4.367e+08   ,-2.5  ,-2.4  ,1.3
837  ,6.257e+08   ,-2.5  ,-2.4  ,1.1
838  ,6.500e+08   ,-2.5  ,-2.4  ,0.9
839  ,5.143e+08   ,-2.5  ,-2.4  ,0.7
840  ,4.074e+08   ,-2.5  ,-2.4  ,0.5
841  ,3.720e+08   ,-2.5  ,-2.4  ,0.3
842  ,2.173e+08   ,-2.5  ,2.2  ,4.9
843  ,3.828e+08   ,-2.5  ,2  ,4.9
844  ,4.562e+08   ,-2.5  ,1.8  ,4.9
845  ,5.965e+08   ,-2.5  ,1.6  ,4.9
846  ,7.010e+08   ,-2.5  ,1.4  ,4.9
847  ,8.074e+08   ,-2.5  ,1.2  ,4.9
848  ,8.504e+08   ,-2.5  ,1  ,4.9
849  ,9.439e+08   ,-2.5  ,0.8  ,4.9
850  ,7.220e+08   ,-2.5  ,0.6  ,4.9
851  ,6.885e+08   ,-2.5  ,0.4  ,4.9
852  ,6.950e+08   ,-2.5  ,0.2  ,4.9
853  ,7.926e+08   ,-2.5  ,5.8879E-16  ,4.9
854  ,8.091e+08   ,-2.5  ,-0.2  ,4.9
855  ,7.490e+08   ,-2.5  ,-0.4  ,4.9
856  ,5.836e+08   ,-2.5  ,-0.6  ,4.9
857  ,5.470e+08   ,-2.5  ,-0.8  ,4.9
858  ,5.082e+08   ,-2.5  ,-1  ,4.9
859  ,4.660e+08   ,-2.5  ,-1.2  ,4.9
860  ,3.891e+08   ,-2.5  ,-1.4  ,4.9
861  ,3.461e+08   ,-2.5  ,-1.6  ,4.9
862  ,3.809e+08   ,-2.5  ,-1.8  ,4.9
863  ,5.372e+08   ,-2.5  ,-2  ,4.9
864  ,7.060e+08   ,-2.5  ,-2.2  ,4.9
865  ,2.074e+08   ,-2.5  ,2.4  ,4.7
866  ,4.320e+08   ,-2.5  ,2.4  ,4.5
867  ,5.885e+08   ,-2.5  ,2.4  ,4.3
868  ,6.420e+08   ,-2.5  ,2.4  ,4.1
869  ,8.139e+08   ,-2.5  ,2.4  ,3.9
870  ,9.757e+08   ,-2.5  ,2.4  ,3.7
871  ,1.142e+09   ,-2.5  ,2.4  ,3.5
872  ,1.295e+09   ,-2.5  ,2.4  ,3.3
873  ,1.148e+09   ,-2.5  ,2.4  ,3.1
874  ,1.099e+09   ,-2.5  ,2.4  ,2.9
875  ,9.965e+08   ,-2.5  ,2.4  ,2.7
876  ,9.750e+08   ,-2.5  ,2.4  ,2.5
877  ,8.533e+08   ,-2.5  ,2.4  ,2.3
878  ,8.345e+08   ,-2.5  ,2.4  ,2.1
879  ,8.056e+08   ,-2.5  ,2.4  ,1.9
880  ,7.837e+08   ,-2.5  ,2.4  ,1.7
881  ,6.747e+08   ,-2.5  ,2.4  ,1.5
882  ,6.596e+08   ,-2.5  ,2.4  ,1.3
883  ,6.295e+08   ,-2.5  ,2.4  ,1.1
884  ,6.272e+08   ,-2.5  ,2.4  ,0.9
885  ,5.424e+08   ,-2.5  ,2.4  ,0.7
886  ,5.236e+08   ,-2.5  ,2.4  ,0.5
887  ,3.934e+08   ,-2.5  ,2.4  ,0.3
1044  ,3.287e+08   ,-2.3  ,-2.5  ,0.44697
1045  ,1.484e+08   ,-2.3  ,-2.5  ,0.68705
1046  ,3.153e+08   ,-2.3  ,-2.5  ,0.92554
1047  ,6.212e+08   ,-2.3  ,-2.5  ,1.1682
1048  ,7.758e+08   ,-2.3  ,-2.5  ,1.4148
1049  ,6.591e+08   ,-2.3  ,-2.5  ,1.6581
1050  ,2.858e+08   ,-2.3  ,-2.5  ,1.8967
1051  ,3.165e+08   ,-2.3  ,-2.5  ,2.1357
1052  ,7.517e+08   ,-2.3  ,-2.5  ,2.3794
1053  ,9.508e+08   ,-2.3  ,-2.5  ,2.6206
1054  ,9.009e+08   ,-2.3  ,-2.5  ,2.8643
1055  ,6.355e+08   ,-2.3  ,-2.5  ,3.1033
1056  ,3.161e+08   ,-2.3  ,-2.5  ,3.342
1057  ,7.400e+07   ,-2.3  ,-2.5  ,3.5852
1058  ,4.238e+08   ,-2.3  ,-2.5  ,3.8318
1059  ,8.041e+08   ,-2.3  ,-2.5  ,4.0745
1060  ,6.395e+08   ,-2.3  ,-2.5  ,4.3129
1061  ,5.575e+08   ,-2.3  ,-2.5  ,4.553
1062  ,1.356e+09   ,-2.053  ,-2.5  ,4.8
1063  ,5.428e+08   ,-1.8129  ,-2.5  ,4.8
1064  ,2.929e+08   ,-1.5745  ,-2.5  ,4.8
1065  ,4.953e+08   ,-1.3318  ,-2.5  ,4.8
1066  ,6.114e+08   ,-1.0852  ,-2.5  ,4.8
1067  ,8.115e+08   ,-0.84195  ,-2.5  ,4.8
1068  ,6.702e+08   ,-0.60329  ,-2.5  ,4.8
1069  ,4.643e+08   ,-0.3643  ,-2.5  ,4.8
1070  ,9.949e+08   ,-0.12055  ,-2.5  ,4.8
1071  ,1.184e+09   ,0.12056  ,-2.5  ,4.8
1072  ,1.091e+09   ,0.3643  ,-2.5  ,4.8
1073  ,1.294e+09   ,0.6033  ,-2.5  ,4.8
1074  ,1.226e+09   ,0.84195  ,-2.5  ,4.8
1075  ,7.753e+08   ,1.0852  ,-2.5  ,4.8
1076  ,2.188e+08   ,1.3318  ,-2.5  ,4.8
1077  ,1.441e+08   ,1.5745  ,-2.5  ,4.8
1078  ,4.248e+08   ,1.8129  ,-2.5  ,4.8
1079  ,2.041e+09   ,2.053  ,-2.5  ,4.8
1080  ,2.018e+09   ,2.3  ,-2.5  ,4.553
1081  ,5.143e+08   ,2.3  ,-2.5  ,4.3129
1082  ,2.323e+08   ,2.3  ,-2.5  ,4.0745
1083  ,1.373e+08   ,2.3  ,-2.5  ,3.8318
1084  ,7.279e+08   ,2.3  ,-2.5  ,3.5852
1085  ,1.324e+09   ,2.3  ,-2.5  ,3.3419
1086  ,1.472e+09   ,2.3  ,-2.5  ,3.1033
1087  ,1.262e+09   ,2.3  ,-2.5  ,2.8643
1088  ,1.290e+09   ,2.3  ,-2.5  ,2.6206
1089  ,1.029e+09   ,2.3  ,-2.5  ,2.3794
1090  ,4.887e+08   ,2.3  ,-2.5  ,2.1357
1091  ,5.222e+08   ,2.3  ,-2.5  ,1.8967
1092  ,7.844e+08   ,2.3  ,-2.5  ,1.658
1093  ,6.395e+08   ,2.3  ,-2.5  ,1.4148
1094  ,4.945e+08   ,2.3  ,-2.5  ,1.1682
1095  ,1.959e+08   ,2.3  ,-2.5  ,0.92554
1096  ,7.122e+08   ,2.3  ,-2.5  ,0.68705
1097  ,1.420e+09   ,2.3  ,-2.5  ,0.44697
1098  ,2.065e+08   ,-2.053  ,-2.5  ,0.2
1099  ,1.571e+08   ,-1.8129  ,-2.5  ,0.2
1100  ,3.637e+08   ,-1.5745  ,-2.5  ,0.2
1101  ,5.284e+08   ,-1.3318  ,-2.5  ,0.2
1102  ,6.792e+08   ,-1.0852  ,-2.5  ,0.2
1103  ,6.678e+08   ,-0.84195  ,-2.5  ,0.2
1104  ,3.097e+08   ,-0.60329  ,-2.5  ,0.2
1105  ,2.838e+08   ,-0.3643  ,-2.5  ,0.2
1106  ,7.199e+08   ,-0.12055  ,-2.5  ,0.2
1107  ,9.112e+08   ,0.12056  ,-2.5  ,0.2
1108  ,8.861e+08   ,0.3643  ,-2.5  ,0.2
1109  ,6.472e+08   ,0.6033  ,-2.5  ,0.2
1110  ,2.184e+08   ,0.84195  ,-2.5  ,0.2
1111  ,5.704e+07   ,1.0852  ,-2.5  ,0.2
1112  ,3.081e+08   ,1.3318  ,-2.5  ,0.2
1113  ,7.999e+08   ,1.5745  ,-2.5  ,0.2
1114  ,6.747e+08   ,1.8129  ,-2.5  ,0.2
1115  ,6.703e+08   ,2.053  ,-2.5  ,0.2
1116  ,7.907e+08   ,-2.2  ,-2.5  ,4.9
1117  ,4.732e+08   ,-2  ,-2.5  ,4.9
1118  ,3.695e+08   ,-1.8  ,-2.5  ,4.9
1119  ,1.808e+08   ,-1.6  ,-2.5  ,4.9
1120  ,4.355e+08   ,-1.4  ,-2.5  ,4.9
1121  ,5.808e+08   ,-1.2  ,-2.5  ,4.9
1122  ,7.077e+08   ,-1  ,-2.5  ,4.9
1123  ,8.077e+08   ,-0.8  ,-2.5  ,4.9
1124  ,6.932e+08   ,-0.6  ,-2.5  ,4.9
1125  ,6.259e+08   ,-0.4  ,-2.5  ,4.9
1126  ,9.369e+08   ,-0.2  ,-2.5  ,4.9
1127  ,1.072e+09   ,-1.7664E-15  ,-2.5  ,4.9
1128  ,1.007e+09   ,0.2  ,-2.5  ,4.9
1129  ,9.909e+08   ,0.4  ,-2.5  ,4.9
1130  ,1.029e+09   ,0.6  ,-2.5  ,4.9
1131  ,1.182e+09   ,0.8  ,-2.5  ,4.9
1132  ,1.446e+09   ,1  ,-2.5  ,4.9
1133  ,1.712e+09   ,1.2  ,-2.5  ,4.9
1134  ,1.284e+09   ,1.4  ,-2.5  ,4.9
1135  ,1.269e+09   ,1.6  ,-2.5  ,4.9
1136  ,1.251e+09   ,1.8  ,-2.5  ,4.9
1137  ,1.305e+09   ,2  ,-2.5  ,4.9
1138  ,1.191e+09   ,2.2  ,-2.5  ,4.9
1139  ,6.543e+08   ,-2.4  ,-2.5  ,4.7
1140  ,9.140e+08   ,-2.4  ,-2.5  ,4.5
1141  ,8.576e+08   ,-2.4  ,-2.5  ,4.3
1142  ,6.178e+08   ,-2.4  ,-2.5  ,4.1
1143  ,8.133e+08   ,-2.4  ,-2.5  ,3.9
1144  ,9.574e+08   ,-2.4  ,-2.5  ,3.7
1145  ,8.016e+08   ,-2.4  ,-2.5  ,3.5
1146  ,8.089e+08   ,-2.4  ,-2.5  ,3.3
1147  ,7.114e+08   ,-2.4  ,-2.5  ,3.1
1148  ,6.641e+08   ,-2.4  ,-2.5  ,2.9
1149  ,5.120e+08   ,-2.4  ,-2.5  ,2.7
1150  ,4.434e+08   ,-2.4  ,-2.5  ,2.5
1151  ,5.132e+08   ,-2.4  ,-2.5  ,2.3
1152  ,5.531e+08   ,-2.4  ,-2.5  ,2.1
1153  ,6.499e+08   ,-2.4  ,-2.5  ,1.9
1154  ,6.506e+08   ,-2.4  ,-2.5  ,1.7
1155  ,5.669e+08   ,-2.4  ,-2.5  ,1.5
1156  ,5.029e+08   ,-2.4  ,-2.5  ,1.3
1157  ,5.981e+08   ,-2.4  ,-2.5  ,1.1
1158  ,4.345e+08   ,-2.4  ,-2.5  ,0.9
1159  ,2.651e+08   ,-2.4  ,-2.5  ,0.7
1160  ,3.350e+08   ,-2.4  ,-2.5  ,0.5
1161  ,4.667e+08   ,-2.4  ,-2.5  ,0.3
1162  ,4.545e+08   ,-2.2  ,-2.5  ,0.1
1163  ,2.550e+08   ,-2  ,-2.5  ,0.1
1164  ,3.169e+08   ,-1.8  ,-2.5  ,0.1
1165  ,4.615e+08   ,-1.6  ,-2.5  ,0.1
1166  ,4.854e+08   ,-1.4  ,-2.5  ,0.1
1167  ,4.224e+08   ,-1.2  ,-2.5  ,0.1
1168  ,5.141e+08   ,-1  ,-2.5  ,0.1
1169  ,6.560e+08   ,-0.8  ,-2.5  ,0.1
1170  ,6.552e+08   ,-0.6  ,-2.5  ,0.1
1171  ,5.903e+08   ,-0.4  ,-2.5  ,0.1
1172  ,5.395e+08   ,-0.2  ,-2.5  ,0.1
1173  ,4.337e+08   ,-1.7664E-15  ,-2.5  ,0.1
1174  ,5.272e+08   ,0.2  ,-2.5  ,0.1
1175  ,6.145e+08   ,0.4  ,-2.5  ,0.1
1176  ,6.847e+08   ,0.6  ,-2.5  ,0.1
1177  ,7.061e+08   ,0.8  ,-2.5  ,0.1
1178  ,7.871e+08   ,1  ,-2.5  ,0.1
1179  ,8.188e+08   ,1.2  ,-2.5  ,0.1
1180  ,7.752e+08   ,1.4  ,-2.5  ,0.1
1181  ,6.806e+08   ,1.6  ,-2.5  ,0.1
1182  ,9.014e+08   ,1.8  ,-2.5  ,0.1
1183  ,8.883e+08   ,2  ,-2.5  ,0.1
1184  ,6.147e+08   ,2.2  ,-2.5  ,0.1
1185  ,1.095e+09   ,2.4  ,-2.5  ,4.7
1186  ,1.292e+09   ,2.4  ,-2.5  ,4.5
1187  ,1.284e+09   ,2.4  ,-2.5  ,4.3
1188  ,1.205e+09   ,2.4  ,-2.5  ,4.1
1189  ,1.471e+09   ,2.4  ,-2.5  ,3.9
1190  ,1.633e+09   ,2.4  ,-2.5  ,3.7
1191  ,1.506e+09   ,2.4  ,-2.5  ,3.5
1192  ,1.325e+09   ,2.4  ,-2.5  ,3.3
1193  ,1.100e+09   ,2.4  ,-2.5  ,3.1
1194  ,1.144e+09   ,2.4  ,-2.5  ,2.9
1195  ,1.215e+09   ,2.4  ,-2.5  ,2.7
1196  ,1.187e+09   ,2.4  ,-2.5  ,2.5
1197  ,9.493e+08   ,2.4  ,-2.5  ,2.3
1198  ,5.927e+08   ,2.4  ,-2.5  ,2.1
1199  ,6.114e+08   ,2.4  ,-2.5  ,1.9
1200  ,7.880e+08   ,2.4  ,-2.5  ,1.7
1201  ,7.273e+08   ,2.4  ,-2.5  ,1.5
1202  ,6.332e+08   ,2.4  ,-2.5  ,1.3
1203  ,4.254e+08   ,2.4  ,-2.5  ,1.1
1204  ,2.096e+08   ,2.4  ,-2.5  ,0.9
1205  ,5.635e+08   ,2.4  ,-2.5  ,0.7
1206  ,6.262e+08   ,2.4  ,-2.5  ,0.5
1207  ,7.551e+08   ,2.4  ,-2.5  ,0.3
1208  ,6.380e+08   ,2.4  ,-2.2  ,0
1209  ,5.617e+08   ,2.4  ,-2  ,0
1210  ,4.324e+08   ,2.4  ,-1.8  ,0
1211  ,3.367e+08   ,2.4  ,-1.6  ,0
1212  ,3.972e+08   ,2.4  ,-1.4  ,0
1213  ,4.533e+08   ,2.4  ,-1.2  ,0
1214  ,4.991e+08   ,2.4  ,-1  ,0
1215  ,5.660e+08   ,2.4  ,-0.8  ,0
1216  ,5.122e+08   ,2.4  ,-0.6  ,0
1217  ,6.261e+08   ,2.4  ,-0.4  ,0
1218  ,7.337e+08   ,2.4  ,-0.2  ,0
1219  ,6.866e+08   ,2.4  ,-1.7664E-15  ,0
1220  ,7.833e+08   ,2.4  ,0.2  ,0
1221  ,7.375e+08   ,2.4  ,0.4  ,0
1222  ,8.175e+08   ,2.4  ,0.6  ,0
1223  ,8.801e+08   ,2.4  ,0.8  ,0
1224  ,8.591e+08   ,2.4  ,1  ,0
1225  ,8.176e+08   ,2.4  ,1.2  ,0
1226  ,7.299e+08   ,2.4  ,1.4  ,0
1227  ,5.610e+08   ,2.4  ,1.6  ,0
1228  ,5.107e+08   ,2.4  ,1.8  ,0
1229  ,3.849e+08   ,2.4  ,2  ,0
1230  ,1.582e+08   ,2.4  ,2.2  ,0
1231  ,3.631e+08   ,-2.2  ,-2.4  ,0
1232  ,3.044e+08   ,-2  ,-2.4  ,0
1233  ,4.813e+08   ,-1.8  ,-2.4  ,0
1234  ,6.032e+08   ,-1.6  ,-2.4  ,0
1235  ,4.992e+08   ,-1.4  ,-2.4  ,0
1236  ,2.980e+08   ,-1.2  ,-2.4  ,0
1237  ,3.037e+08   ,-1  ,-2.4  ,0
1238  ,5.811e+08   ,-0.8  ,-2.4  ,0
1239  ,8.473e+08   ,-0.6  ,-2.4  ,0
1240  ,7.521e+08   ,-0.4  ,-2.4  ,0
1241  ,3.768e+08   ,-0.2  ,-2.4  ,0
1242  ,1.522e+08   ,5.8879E-16  ,-2.4  ,0
1243  ,1.563e+08   ,0.2  ,-2.4  ,0
1244  ,3.444e+08   ,0.4  ,-2.4  ,0
1245  ,6.242e+08   ,0.6  ,-2.4  ,0
1246  ,1.059e+09   ,0.8  ,-2.4  ,0
1247  ,1.396e+09   ,1  ,-2.4  ,0
1248  ,1.579e+09   ,1.2  ,-2.4  ,0
1249  ,1.786e+09   ,1.4  ,-2.4  ,0
1250  ,1.921e+09   ,1.6  ,-2.4  ,0
1251  ,1.474e+09   ,1.8  ,-2.4  ,0
1252  ,9.835e+08   ,2  ,-2.4  ,0
1253  ,9.085e+08   ,2.2  ,-2.4  ,0
1254  ,2.542e+08   ,-2.4  ,2.2  ,0
1255  ,4.829e+08   ,-2.4  ,2  ,0
1256  ,7.065e+08   ,-2.4  ,1.8  ,0
1257  ,8.117e+08   ,-2.4  ,1.6  ,0
1258  ,9.702e+08   ,-2.4  ,1.4  ,0
1259  ,1.104e+09   ,-2.4  ,1.2  ,0
1260  ,1.236e+09   ,-2.4  ,1  ,0
1261  ,1.364e+09   ,-2.4  ,0.8  ,0
1262  ,1.222e+09   ,-2.4  ,0.6  ,0
1263  ,9.819e+08   ,-2.4  ,0.4  ,0
1264  ,8.434e+08   ,-2.4  ,0.2  ,0
1265  ,7.687e+08   ,-2.4  ,5.8879E-16  ,0
1266  ,6.169e+08   ,-2.4  ,-0.2  ,0
1267  ,5.244e+08   ,-2.4  ,-0.4  ,0
1268  ,4.856e+08   ,-2.4  ,-0.6  ,0
1269  ,4.526e+08   ,-2.4  ,-0.8  ,0
1270  ,4.248e+08   ,-2.4  ,-1  ,0
1271  ,3.706e+08   ,-2.4  ,-1.2  ,0
1272  ,2.863e+08   ,-2.4  ,-1.4  ,0
1273  ,1.936e+08   ,-2.4  ,-1.6  ,0
1274  ,1.093e+08   ,-2.4  ,-1.8  ,0
1275  ,1.740e+08   ,-2.4  ,-2  ,0
1276  ,2.203e+08   ,-2.4  ,-2.2  ,0
1277  ,2.119e+08   ,2.2  ,2.4  ,0
1278  ,5.313e+08   ,2  ,2.4  ,0
1279  ,6.887e+08   ,1.8  ,2.4  ,0
1280  ,6.974e+08   ,1.6  ,2.4  ,0
1281  ,7.766e+08   ,1.4  ,2.4  ,0
1282  ,9.454e+08   ,1.2  ,2.4  ,0
1283  ,1.128e+09   ,1  ,2.4  ,0
1284  ,1.218e+09   ,0.8  ,2.4  ,0
1285  ,1.217e+09   ,0.6  ,2.4  ,0
1286  ,1.126e+09   ,0.4  ,2.4  ,0
1287  ,1.121e+09   ,0.2  ,2.4  ,0
1288  ,1.124e+09   ,5.8879E-16  ,2.4  ,0
1289  ,1.236e+09   ,-0.2  ,2.4  ,0
1290  ,1.010e+09   ,-0.4  ,2.4  ,0
1291  ,7.998e+08   ,-0.6  ,2.4  ,0
1292  ,7.020e+08   ,-0.8  ,2.4  ,0
1293  ,5.915e+08   ,-1  ,2.4  ,0
1294  ,6.087e+08   ,-1.2  ,2.4  ,0
1295  ,5.740e+08   ,-1.4  ,2.4  ,0
1296  ,5.860e+08   ,-1.6  ,2.4  ,0
1297  ,6.034e+08   ,-1.8  ,2.4  ,0
1298  ,5.364e+08   ,-2  ,2.4  ,0
1299  ,3.944e+08   ,-2.2  ,2.4  ,0
1460  ,1.129e+10   ,2.3243  ,2.3243  ,4.9577
1461  ,1.025e+10   ,2.4577  ,2.3243  ,4.8243
1462  ,7.363e+09   ,2.3243  ,2.4577  ,4.8243
1463  ,7.684e+08   ,-2.3  ,-2.1759  ,4.8
1464  ,1.256e+09   ,-2.3  ,-1.7631  ,4.8
1465  ,1.595e+09   ,-2.3  ,-1.1827  ,4.8
1466  ,1.646e+09   ,-2.3  ,-0.34986  ,4.8
1467  ,1.884e+09   ,-2.3  ,0.80545  ,4.8
1468  ,1.917e+09   ,-0.81337  ,2.3  ,4.8
1469  ,4.569e+09   ,0.67326  ,2.3  ,4.8
1470  ,1.604e+09   ,2.3  ,-2.1824  ,4.8
1471  ,1.287e+09   ,2.3  ,-1.7784  ,4.8
1472  ,9.501e+08   ,2.3  ,-1.2138  ,4.8
1473  ,1.768e+09   ,2.3  ,-0.40752  ,4.8
1474  ,4.485e+09   ,2.3  ,0.70532  ,4.8
1516  ,1.823e+09   ,2.3  ,2.3  ,1.6866
1517  ,4.528e+09   ,2.3  ,2.3  ,3.1733
1518  ,7.866e+08   ,2.3  ,-2.1759  ,0.2
1519  ,1.293e+09   ,2.3  ,-1.7631  ,0.2
1520  ,1.555e+09   ,2.3  ,-1.1827  ,0.2
1521  ,1.597e+09   ,2.3  ,-0.34986  ,0.2
1522  ,1.953e+09   ,2.3  ,0.80545  ,0.2
1564  ,1.570e+09   ,-0.76667  ,2.3  ,0.2
1565  ,1.982e+09   ,0.76667  ,2.3  ,0.2
1566  ,1.646e+09   ,-2.3  ,2.3  ,1.7333
1567  ,2.065e+09   ,-2.3  ,2.3  ,3.2667
1574  ,1.984e+08   ,-2.3  ,-2.1759  ,0.2
1575  ,5.588e+07   ,-2.3  ,-1.7631  ,0.2
1576  ,1.898e+08   ,-2.3  ,-1.1827  ,0.2
1577  ,4.198e+08   ,-2.3  ,-0.34986  ,0.2
1578  ,5.468e+08   ,-2.3  ,0.80545  ,0.2
1777  ,2.080e+09   ,-0.52764  ,2.5  ,4.9
1801  ,5.145e+08   ,-2.3  ,1.5527  ,0.2
1825  ,1.701e+09   ,-1.5333  ,2.3  ,0.2
1841  ,2.090e+09   ,0.063638  ,2.5  ,4.9
1876  ,8.792e+08   ,-0.5  ,2.4  ,0
1894  ,1.945e+09   ,2.3  ,1.5527  ,0.2
1907  ,3.260e+08   ,2.1  ,2.5  ,0.1
1928  ,5.959e+08   ,1.9  ,2.4  ,0
1974  ,8.651e+08   ,2.4  ,1.1  ,0
1981  ,6.390e+08   ,2.4  ,2.5  ,0.59273
1987  ,7.601e+08   ,-2.5  ,2.4  ,4
2004  ,3.100e+08   ,-2.4  ,2.5  ,4.6
2009  ,7.511e+08   ,2.4  ,1.3  ,0
2020  ,7.362e+08   ,2.5  ,1.1  ,0.1
2035  ,3.052e+08   ,-2.3  ,-0.76628  ,0.2
2070  ,6.480e+09   ,1.6404  ,2.4  ,5
2081  ,1.457e+09   ,2.4  ,2.5  ,1.9724
2095  ,8.562e+08   ,2.4  ,2.5  ,0.78982
2138  ,6.871e+08   ,-2.4  ,-0.1  ,0
2146  ,1.882e+09   ,-0.92182  ,2.4  ,5
2174  ,1.367e+09   ,2.4  ,2.5  ,1.184
2190  ,1.115e+09   ,2.5  ,2.4  ,0.98691
2203  ,1.815e+09   ,2.5  ,-0.13345  ,4.9
2232  ,4.030e+09   ,2.3  ,0.1489  ,4.8
2242  ,2.633e+09   ,2.4  ,2.5  ,2.9578
2293  ,1.171e+09   ,-2.5  ,0.5  ,0.1
2311  ,4.555e+09   ,2.3  ,2.3  ,2.4299
2313  ,1.040e+09   ,2.5  ,2.4  ,0.78982
2329  ,1.578e+09   ,2.4  ,2.5  ,2.1695
2355  ,4.182e+08   ,-2.4  ,2.5  ,4.4
2380  ,2.234e+08   ,-2.5  ,-1.5  ,0.1
2383  ,2.494e+09   ,0.45782  ,2.5  ,4.9
2408  ,1.669e+09   ,2.3  ,-1.4961  ,4.8
2445  ,9.574e+08   ,2.5  ,-1.5131  ,4.9
2484  ,3.981e+08   ,-2.5  ,-2.4  ,1.6
2495  ,4.579e+08   ,-2.4  ,1.7  ,5
2508  ,7.527e+08   ,2.4  ,0.3  ,0
2514  ,2.063e+09   ,2.3  ,0.2278  ,0.2
2570  ,5.708e+08   ,-2.4  ,1.5  ,5
2580  ,6.175e+09   ,1.6404  ,2.5  ,4.9
2603  ,2.029e+09   ,-1.1189  ,2.5  ,4.9
2695  ,1.215e+09   ,2.3  ,2.3  ,0.94331
2705  ,1.831e+09   ,2.4  ,2.5  ,1.3811
2714  ,2.202e+09   ,2.5  ,0.45782  ,4.9
2734  ,5.030e+08   ,2.4  ,-0.9  ,0
2775  ,7.183e+08   ,2.5  ,-0.1  ,0.1
2779  ,7.001e+08   ,2.4  ,-0.1  ,0
2801  ,8.905e+09   ,1.4166  ,2.3  ,4.8
2814  ,4.679e+09   ,1.4433  ,2.5  ,4.9
2863  ,5.664e+08   ,-2.4  ,2.5  ,0.6
2884  ,6.240e+08   ,-2.4  ,2.5  ,0.8
2886  ,7.388e+08   ,-2.4  ,2.5  ,1.2
2967  ,4.997e+08   ,2.4  ,1.7  ,0
2973  ,5.012e+08   ,2.5  ,1.5  ,0.1
2987  ,8.073e+08   ,-0.3  ,2.5  ,0.1
3008  ,1.730e+09   ,-2.3  ,2.3  ,0.96667
3012  ,9.732e+08   ,-2.5  ,2.4  ,2.6
3021  ,1.009e+09   ,-2.5  ,2.4  ,2.8
3025  ,9.019e+08   ,-2.5  ,2.4  ,2.4
3030  ,9.555e+08   ,-2.4  ,2.5  ,2.4
3033  ,9.071e+08   ,-2.4  ,2.5  ,2.2
3047  ,1.744e+09   ,2.4  ,2.5  ,2.3665
3052  ,2.162e+09   ,2.5  ,2.4  ,2.5636
3061  ,1.980e+09   ,2.4  ,2.5  ,2.5636
3081  ,6.796e+08   ,-2.4  ,1.3  ,5
3088  ,6.646e+08   ,-1.9073  ,2.4  ,5
3099  ,3.698e+08   ,-2.4  ,1.9  ,5
3107  ,7.392e+08   ,-2.4  ,2.5  ,3.8
3139  ,1.213e+09   ,-1.5131  ,2.4  ,5
3145  ,1.306e+09   ,-1.5131  ,2.5  ,4.9
3148  ,9.892e+08   ,-1.7102  ,2.5  ,4.9
3168  ,8.842e+08   ,-2.4  ,1.5  ,0
3188  ,6.547e+08   ,-2.5  ,-2.4  ,1
3202  ,2.226e+09   ,0.26073  ,2.5  ,4.9
3212  ,6.733e+09   ,2.5  ,1.6404  ,4.9
3247  ,1.121e+10   ,2.5  ,1.8375  ,4.9
3265  ,9.144e+09   ,2.3  ,1.4326  ,4.8
3271  ,1.538e+10   ,2.2299  ,2.2299  ,4.8
3284  ,4.924e+09   ,2.4  ,1.4433  ,5
3291  ,4.776e+09   ,2.5  ,1.4433  ,4.9
3296  ,1.786e+09   ,-2.3  ,-0.76628  ,4.8
3303  ,6.641e+08   ,-2.4  ,-0.9  ,5
3311  ,6.280e+08   ,-2.4  ,-0.7  ,5
3315  ,5.108e+08   ,1.9  ,2.5  ,0.1
3336  ,9.000e+08   ,-2.4  ,0.3  ,0
3340  ,8.201e+08   ,-2.5  ,0.1  ,0.1
3344  ,7.968e+08   ,-2.4  ,0.1  ,0
3356  ,1.091e+09   ,-0.3  ,2.4  ,0
3361  ,1.702e+09   ,-0.33054  ,2.5  ,4.9
3364  ,1.788e+09   ,-0.13345  ,2.5  ,4.9
3383  ,3.112e+09   ,2.4  ,2.5  ,3.5491
3402  ,1.630e+10   ,2.4  ,2.5  ,4.5345
3421  ,1.603e+09   ,-1.316  ,2.5  ,4.9
3439  ,4.655e+09   ,2.5  ,2.4  ,3.9433
3447  ,4.826e+09   ,2.4  ,2.5  ,3.9433
3451  ,3.630e+09   ,2.4  ,2.5  ,3.7462
3468  ,4.676e+09   ,1.4433  ,2.4  ,5
3480  ,3.117e+09   ,1.0491  ,2.4  ,5
3519  ,7.347e+08   ,1.5  ,2.4  ,0
3527  ,1.811e+09   ,2.3  ,-1.4729  ,0.2
3550  ,5.899e+08   ,-1.7  ,2.4  ,0
3554  ,6.471e+08   ,-1.7  ,2.5  ,0.1
3558  ,5.615e+08   ,-1.5  ,2.4  ,0
3562  ,6.833e+08   ,-1.5  ,2.5  ,0.1
3574  ,3.110e+08   ,-2.4  ,2.1  ,5
3581  ,7.458e+08   ,-2.5  ,1.7  ,0.1
3583  ,6.028e+08   ,-2.5  ,1.9  ,0.1
3584  ,6.547e+08   ,-1.9073  ,2.5  ,4.9
3591  ,7.239e+08   ,2.5  ,0.3  ,0.1
3595  ,7.161e+08   ,2.5  ,0.1  ,0.1
3603  ,1.844e+10   ,2.4577  ,2.391  ,4.7576
3663  ,1.002e+08   ,-1.933  ,-2.5  ,0.2
3669  ,4.349e+08   ,-2.1765  ,-2.5  ,0.2
3672  ,2.701e+08   ,-2.3  ,-2.3379  ,0.2
3682  ,3.909e+08   ,-1.9  ,-2.4  ,0
3700  ,1.272e+09   ,2.3  ,-2.5  ,2.7424
3712  ,5.956e+08   ,-2.1  ,-2.5  ,4.9
3715  ,4.555e+08   ,-1.9  ,-2.5  ,4.9
3740  ,5.047e+08   ,-1.3  ,-2.4  ,5
3746  ,5.283e+08   ,-1.2085  ,-2.5  ,4.8
3755  ,3.423e+08   ,-1.5  ,-2.4  ,5
3760  ,2.426e+08   ,-1.7  ,-2.5  ,4.9
3786  ,1.755e+09   ,2.4  ,2.5  ,1.5782
3813  ,2.547e+09   ,0.26073  ,2.4  ,5
3858  ,8.306e+08   ,-0.9  ,-2.4  ,5
3863  ,9.003e+08   ,-2.5  ,0.9  ,4.9
3875  ,6.953e+08   ,-1.9  ,-2.4  ,5
3885  ,1.188e+09   ,2.4  ,-0.72473  ,5
3910  ,8.078e+08   ,-2.4  ,-2.5  ,3.4
3959  ,7.115e+09   ,2.5  ,2.4  ,4.1404
3969  ,3.114e+09   ,2.5  ,1.0491  ,4.9
3992  ,1.558e+10   ,2.391  ,2.2576  ,4.9577
3993  ,1.789e+10   ,2.4577  ,2.2576  ,4.891
4016  ,3.311e+08   ,-2.3015  ,2.5  ,4.9
4018  ,3.236e+08   ,-2.4  ,2.5  ,4.8
4021  ,3.520e+09   ,1.2462  ,2.4  ,5
4042  ,4.836e+08   ,2.4  ,-1.1  ,0
4046  ,6.151e+08   ,-0.9  ,2.4  ,0
4055  ,1.210e+09   ,1.7  ,-2.5  ,4.9
4087  ,6.744e+08   ,1.7  ,2.4  ,0
4114  ,1.333e+09   ,2.5  ,-0.33054  ,4.9
4120  ,7.521e+08   ,2.4  ,-2.5  ,1.8
4125  ,8.249e+08   ,2.4  ,2.5  ,0.98691
4144  ,1.054e+10   ,2.4  ,2.5  ,4.3375
4161  ,8.600e+08   ,-2.4  ,0.3  ,5
4201  ,4.893e+08   ,1.933  ,-2.5  ,0.2
4225  ,2.720e+08   ,-2.3  ,-2.4  ,0
4230  ,1.828e+08   ,-2.3  ,-2.5  ,0.56701
4269  ,8.250e+08   ,-0.9  ,-2.5  ,4.9
4277  ,6.277e+08   ,-1.1  ,-2.4  ,5
4288  ,4.130e+09   ,-0.070055  ,2.3  ,4.8
4328  ,1.722e+09   ,-2.5  ,-2.4  ,4.2
4336  ,1.097e+09   ,-2.5  ,-2.4  ,4.4
4342  ,2.830e+08   ,-2.5  ,-2.4  ,4.6
4348  ,1.030e+09   ,-2.4  ,-2.4707  ,4.9707
4352  ,3.055e+08   ,-2.3  ,-2.5  ,4.9
4354  ,1.698e+09   ,-2.1765  ,-2.5  ,4.8
4355  ,9.944e+08   ,-2.3  ,-2.3379  ,4.8
4362  ,6.342e+08   ,2.5  ,2.4  ,0.59273
4364  ,9.480e+08   ,2.5  ,-2.4  ,2.4
4366  ,7.859e+08   ,2.5  ,-2.4  ,2.2
4372  ,7.829e+08   ,2.4  ,-2.5  ,2.2
4385  ,1.098e+08   ,-2.5  ,-1.9  ,0.1
4399  ,3.585e+08   ,-2.5  ,2.1  ,0.1
4407  ,7.203e+08   ,-0.7  ,-2.4  ,0
4436  ,6.740e+08   ,-2.5  ,-0.1  ,0.1
4462  ,1.748e+09   ,-2.3  ,2.3  ,4.0333
4491  ,1.096e+09   ,2.5  ,-0.52764  ,4.9
4494  ,7.297e+08   ,2.5  ,-2.4  ,1.4
4503  ,6.461e+08   ,2.4  ,-2.5  ,1.4
4508  ,5.552e+08   ,2.4  ,-2.5  ,1.2
4515  ,8.140e+08   ,2.5  ,-2.4  ,1.8
4517  ,7.936e+08   ,2.4  ,-2.5  ,1.6
4522  ,7.834e+08   ,0.7  ,-2.4  ,0
4538  ,1.668e+09   ,-1.1189  ,2.4  ,5
4546  ,6.158e+09   ,2.4  ,2.5  ,4.1404
4559  ,1.741e+09   ,1.7  ,-2.4  ,0
4590  ,4.751e+08   ,0.5  ,-2.4  ,0
4631  ,1.214e+09   ,2.4  ,-2.5  ,2.6
4634  ,1.052e+09   ,2.5  ,-2.4  ,2.8
4657  ,8.131e+08   ,-2.5  ,-2.4  ,2
4660  ,6.931e+08   ,-2.5  ,-2.4  ,1.8
4664  ,6.005e+08   ,-0.3  ,-2.4  ,0
4675  ,4.124e+08   ,-2.4  ,-2.5  ,4.8
4681  ,5.325e+08   ,-2.5  ,-0.3  ,0.1
4684  ,1.913e+09   ,1.7  ,-2.4  ,5
4703  ,1.006e+09   ,-2.4  ,0.7  ,5
4707  ,6.894e+08   ,-2.5  ,0.3  ,4.9
4714  ,1.204e+09   ,2.4  ,-0.33054  ,5
4723  ,1.804e+09   ,-1.5567  ,2.3  ,4.8
4739  ,4.768e+08   ,-2.1044  ,2.5  ,4.9
4763  ,5.054e+08   ,-1.9  ,2.4  ,0
4780  ,1.610e+08   ,-2.3  ,-1.9695  ,0.2
4782  ,1.582e+08   ,-2.4707  ,-2.4  ,0.029289
4784  ,1.145e+08   ,-2.4  ,-1.9  ,0
4791  ,6.526e+08   ,-2.4  ,-2.5  ,1.8
4796  ,1.743e+09   ,2.4707  ,-2.4707  ,4.9
4799  ,1.784e+09   ,2.5  ,-2.4  ,4.8
4806  ,1.065e+09   ,2.3  ,-2.5  ,4.9
4809  ,9.368e+09   ,2.3  ,2.3  ,3.9166
4833  ,5.648e+08   ,-2.4  ,2.5  ,0.4
4841  ,9.619e+08   ,-2.4  ,2.5  ,2.6
4846  ,2.855e+08   ,-2.5  ,2.1  ,4.9
4848  ,2.508e+08   ,-2.5  ,2.3  ,4.9
4849  ,2.285e+08   ,-2.5  ,2.4  ,4.8
4893  ,5.441e+08   ,-2.4  ,2.5  ,4.2
4897  ,1.954e+10   ,2.3333  ,2.1998  ,5
4900  ,1.725e+10   ,2.391  ,2.4577  ,4.7576
4908  ,1.836e+10   ,2.2576  ,2.391  ,4.9577
4911  ,1.782e+10   ,2.2576  ,2.4577  ,4.891
4926  ,6.142e+08   ,-2.5  ,2.4  ,1
4932  ,9.283e+08   ,-2.4  ,2.5  ,1.6
4937  ,8.404e+08   ,-1.1  ,2.5  ,0.1
4939  ,1.536e+10   ,2.3  ,2.2299  ,4.7299
4944  ,1.283e+09   ,2.5  ,-1.9073  ,4.9
4987  ,1.830e+09   ,-2.3  ,1.5527  ,4.8
5010  ,4.644e+10   ,2.4973  ,2.1331  ,4.923
5013  ,1.550e+10   ,2.5  ,2.0345  ,4.9
5017  ,1.779e+10   ,2.4  ,2.0345  ,5
5035  ,1.593e+09   ,1.3  ,-2.4  ,0
5038  ,1.309e+08   ,1.2085  ,-2.5  ,0.2
5092  ,5.418e+08   ,-2.4  ,-2.5  ,1.2
5123  ,9.558e+08   ,2.5  ,-2.4  ,0.6
5151  ,4.622e+08   ,-2.5  ,-0.5  ,0.1
5160  ,4.197e+08   ,-2.5  ,-0.7  ,0.1
5164  ,9.760e+08   ,-2.4  ,0.9  ,5
5168  ,8.660e+08   ,-2.4  ,0.5  ,5
5176  ,5.232e+08   ,2.5  ,-0.7  ,0.1
5179  ,5.220e+08   ,2.4  ,-0.5  ,0
5189  ,1.113e+09   ,2.4  ,-2.5  ,2.4
5194  ,7.057e+08   ,2.3  ,-2.5  ,2.2576
5198  ,6.067e+08   ,-2.3  ,-2.5  ,0.32348
5205  ,1.958e+08   ,-2.4  ,-2.5  ,0.2
5207  ,3.829e+08   ,-2.1  ,-2.5  ,0.1
5246  ,1.223e+09   ,-2.5  ,2.4  ,3.2
5257  ,6.407e+08   ,-2.5  ,1.5  ,4.9
5263  ,5.958e+08   ,-2.3  ,0.2278  ,0.2
5272  ,9.613e+08   ,-2.5  ,0.3  ,0.1
5275  ,7.031e+08   ,-2.5  ,0.5  ,4.9
5281  ,7.988e+09   ,1.8375  ,2.5  ,4.9
5297  ,7.915e+08   ,-0.9  ,2.5  ,0.1
5306  ,7.203e+08   ,-0.7  ,2.4  ,0
5309  ,8.003e+08   ,-0.5  ,2.5  ,0.1
5324  ,2.065e+09   ,2.4  ,2.5  ,2.7607
5332  ,3.118e+08   ,2.5  ,-2.4  ,0.8
5334  ,3.003e+08   ,2.4  ,-2.5  ,1
5360  ,1.078e+09   ,2.4  ,-1.7102  ,5
5362  ,9.470e+08   ,2.4  ,-1.5131  ,5
5368  ,9.040e+09   ,2.4  ,1.8375  ,5
5371  ,3.875e+10   ,2.4325  ,2.4888  ,4.6656
5372  ,2.521e+10   ,2.3333  ,2.5  ,4.6998
5376  ,3.344e+10   ,2.4707  ,2.4707  ,4.6331
5377  ,1.985e+10   ,2.5  ,2.4  ,4.5345
5379  ,3.463e+08   ,-1.5  ,-2.5  ,4.9
5406  ,1.181e+09   ,-2.5  ,-2.4  ,3.4
5420  ,4.732e+08   ,-2.3  ,-2.5  ,3.2226
5423  ,1.849e+09   ,1.5  ,-2.4  ,0
5502  ,1.531e+08   ,-2.5  ,-2.3  ,0.1
5504  ,2.106e+08   ,-2.5  ,-2.4  ,0.2
5506  ,2.343e+08   ,-2.4  ,-2.3  ,0
5511  ,1.567e+08   ,-2.5  ,-2.1  ,0.1
5513  ,1.084e+09   ,-2.4  ,0.5  ,0
5517  ,5.966e+08   ,-0.9  ,-2.5  ,0.1
5532  ,2.578e+08   ,-2.4707  ,2.4707  ,4.9
5534  ,5.047e+08   ,2.4  ,-0.7  ,0
5551  ,2.364e+09   ,2.5  ,-2.4  ,3.8
5566  ,1.362e+09   ,2.5  ,2.4  ,1.3811
5603  ,6.926e+08   ,2.4  ,-0.3  ,0
5617  ,5.522e+08   ,-2.1  ,2.5  ,0.1
5637  ,9.192e+08   ,-2.3  ,-1.9695  ,4.8
5641  ,1.066e+09   ,2.3  ,-2.5  ,3.4636
5645  ,5.815e+08   ,-2.4  ,-2.5  ,2
5649  ,5.659e+08   ,-2.4  ,-2.5  ,2.2
5659  ,4.695e+08   ,-2.3  ,-2.5  ,1.7774
5662  ,2.942e+09   ,2.1765  ,-2.5  ,4.8
5666  ,1.009e+09   ,2.4  ,-2.5  ,4.8
5669  ,1.979e+09   ,2.3  ,-2.3412  ,4.8
5695  ,1.302e+09   ,-2.4  ,0.7  ,0
5701  ,6.980e+08   ,-2.5  ,2.4  ,1.6
5715  ,8.601e+08   ,-2.4  ,2.5  ,1.8
5726  ,7.513e+08   ,-0.7  ,2.5  ,0.1
5727  ,6.397e+08   ,-1.1  ,2.4  ,0
5730  ,6.725e+08   ,2.3  ,-2.5  ,1.7774
5746  ,1.674e+09   ,2.5  ,2.4  ,1.7753
5755  ,1.109e+09   ,2.5  ,-2.4  ,4.4
5763  ,1.176e+09   ,2.4  ,-2.5  ,4.4
5773  ,3.143e+09   ,1.0491  ,2.5  ,4.9
5791  ,1.793e+09   ,-0.72473  ,2.4  ,5
5795  ,8.806e+09   ,1.8375  ,2.4  ,5
5803  ,8.425e+08   ,-0.3  ,-2.4  ,5
5810  ,6.439e+09   ,2.4  ,1.6404  ,5
5836  ,7.403e+08   ,-2.5  ,1.3  ,4.9
5860  ,8.926e+08   ,2.5  ,-2.4  ,1.6
5866  ,6.800e+08   ,1.5  ,-2.5  ,0.1
5884  ,8.791e+08   ,-2.4  ,-0.3  ,5
5888  ,6.069e+08   ,-2.5  ,-0.5  ,4.9
5901  ,1.252e+09   ,2.3  ,-2.5  ,2.5
5908  ,5.229e+08   ,2.5  ,-2.4  ,1.2
5909  ,6.081e+08   ,2.5  ,-2.4  ,2
5934  ,1.175e+09   ,1.9  ,-2.5  ,4.9
5938  ,9.167e+08   ,1.933  ,-2.5  ,4.8
5948  ,7.821e+08   ,-2.4  ,-2.5  ,4.6
5950  ,7.781e+08   ,-2.4707  ,-2.4707  ,4.9
5951  ,7.442e+08   ,-2.5  ,-2.4  ,4.8
5952  ,6.896e+08   ,-2.5  ,-2.3  ,4.9
5986  ,4.434e+08   ,2.3  ,-2.5  ,3.7085
5990  ,1.818e+09   ,-0.92182  ,2.5  ,4.9
6019  ,3.440e+08   ,2.5  ,1.9  ,0.1
6025  ,4.153e+08   ,2.4  ,-1.3  ,0
6035  ,4.031e+08   ,-2.5  ,1.9  ,4.9
6044  ,1.553e+09   ,0.1  ,2.5  ,0.1
6054  ,7.206e+08   ,2.4  ,0.1  ,0
6070  ,2.299e+08   ,-2.4  ,2.3  ,0
6071  ,2.447e+08   ,-2.3  ,2.4  ,0
6076  ,3.648e+08   ,-2.4  ,2.1  ,0
6083  ,5.306e+08   ,2.1  ,-2.4  ,0
6084  ,1.676e+08   ,2.4  ,2.3  ,0
6087  ,2.000e+08   ,2.3  ,2.4  ,0
6092  ,4.493e+08   ,-2.4  ,-2.5  ,0.4
6096  ,2.888e+08   ,-2.3  ,-2.5  ,0.1
6099  ,7.153e+08   ,0.7  ,-2.5  ,0.1
6149  ,4.397e+08   ,-2.4  ,-0.9  ,0
6159  ,1.168e+08   ,-2.5  ,-2.4  ,2.6
6183  ,3.418e+09   ,1.2462  ,2.5  ,4.9
6224  ,2.334e+09   ,2.5  ,-2.4  ,4
6228  ,1.490e+09   ,2.4  ,-2.5  ,3.8
6237  ,1.082e+09   ,2.5  ,0.7  ,0.1
6241  ,2.455e+10   ,2.5  ,2.3333  ,4.6998
6245  ,1.420e+09   ,2.5  ,2.4  ,1.5782
6259  ,1.393e+09   ,2.5  ,-2.1044  ,4.9
6265  ,1.582e+09   ,2.3  ,-1.9804  ,4.8
6267  ,1.569e+09   ,2.5  ,-2.3015  ,4.9
6268  ,1.423e+09   ,2.4707  ,-2.4  ,4.9707
6270  ,1.403e+09   ,2.4  ,-2.1044  ,5
6317  ,1.887e+09   ,-2.3  ,0.2278  ,4.8
6349  ,1.906e+09   ,-0.52764  ,2.4  ,5
6391  ,1.673e+09   ,2.4  ,2.5  ,1.7753
6440  ,9.033e+08   ,-2.5  ,2.4  ,3.8
6471  ,1.004e+09   ,2.5  ,-0.92182  ,4.9
6489  ,3.679e+09   ,2.5  ,1.2462  ,4.9
6523  ,2.509e+08   ,-1.1  ,-2.4  ,0
6528  ,4.402e+08   ,-1.1  ,-2.5  ,0.1
6535  ,4.042e+08   ,-0.9  ,-2.4  ,0
6538  ,2.292e+09   ,1.5  ,-2.4  ,5
6541  ,1.288e+09   ,1.5  ,-2.5  ,4.9
6551  ,1.060e+09   ,2.5  ,-0.72473  ,4.9
6564  ,4.927e+10   ,2.1331  ,2.4973  ,4.923
6565  ,1.623e+10   ,2.0345  ,2.5  ,4.9
6572  ,3.498e+08   ,2.4  ,-1.7  ,0
6581  ,1.955e+09   ,0  ,2.3  ,0.2
6592  ,9.045e+08   ,2.3  ,-1.9695  ,0.2
6594  ,1.114e+09   ,0.3  ,2.4  ,0
6601  ,1.364e+09   ,0.5  ,2.5  ,0.1
6605  ,3.249e+08   ,-2.4  ,-1.3  ,0
6606  ,3.942e+08   ,-2.4  ,-1.1  ,0
6615  ,5.681e+08   ,-2.4  ,-0.3  ,0
6634  ,1.475e+09   ,2.1  ,-2.5  ,4.9
6635  ,1.791e+09   ,2.4  ,-2.4707  ,4.9707
6636  ,1.790e+09   ,2.3  ,-2.4  ,5
6647  ,6.538e+08   ,0.5  ,-2.5  ,0.1
6704  ,7.750e+07   ,-2.4707  ,2.4707  ,0.1
6708  ,2.213e+08   ,-2.5  ,2.4  ,0.2
6712  ,9.112e+08   ,-2.4  ,2.5  ,3.6
6715  ,1.200e+09   ,-2.4  ,2.5  ,3.4
6728  ,8.003e+08   ,-2.5  ,0.7  ,4.9
6753  ,5.534e+08   ,-2.1044  ,2.4  ,5
6788  ,1.139e+10   ,2.5  ,2.4  ,4.3375
6791  ,7.958e+08   ,-1.933  ,-2.5  ,4.8
6795  ,2.560e+10   ,2.1998  ,2.5  ,4.8333
6837  ,1.877e+08   ,-2.3  ,-2.5  ,0.8063
6869  ,1.108e+09   ,2.5  ,-1.7102  ,4.9
6873  ,1.369e+09   ,2.4  ,-1.9073  ,5
6880  ,1.070e+09   ,2.4  ,-0.92182  ,5
6885  ,1.175e+09   ,2.4  ,-0.52764  ,5
6893  ,3.514e+09   ,2.4  ,1.2462  ,5
6914  ,1.368e+09   ,0.7  ,2.5  ,0.1
6920  ,1.192e+09   ,0.9  ,2.4  ,0
6923  ,1.216e+09   ,0.7  ,2.4  ,0
6936  ,1.417e+09   ,2.4  ,-2.5  ,3.4
6939  ,1.460e+09   ,2.3  ,-2.5  ,3.2226
6961  ,1.045e+09   ,-0.1  ,-2.5  ,4.9
6967  ,3.971e+08   ,-2.5  ,-1.5  ,4.9
6975  ,8.183e+08   ,-2.4  ,1.1  ,5
6978  ,3.823e+08   ,-2.4  ,2.5  ,0.2
6987  ,9.703e+08   ,2.4  ,-1.316  ,5
6994  ,4.121e+08   ,2.4  ,-1.5  ,0
7004  ,1.578e+09   ,2.4  ,-2.5  ,3.6
7011  ,2.668e+09   ,2.4  ,0.65491  ,5
7016  ,2.384e+09   ,2.4  ,0.45782  ,5
7019  ,1.730e+09   ,2.5  ,2.4  ,2.1695
7021  ,1.656e+09   ,2.5  ,2.4  ,1.9724
7052  ,6.571e+08   ,-1.3  ,2.5  ,0.1
7054  ,3.127e+08   ,-2.4  ,-2.5  ,0.8
7057  ,5.882e+08   ,0.3  ,-2.5  ,0.1
7065  ,9.159e+08   ,0.24243  ,-2.5  ,0.2
7075  ,3.823e+10   ,2.4888  ,2.4325  ,4.6656
7113  ,4.704e+08   ,-2.4  ,-2.5  ,2.6
7121  ,6.051e+08   ,-2.4  ,-2.5  ,2.8
7126  ,2.679e+08   ,-2.5  ,-2.4  ,2.8
7128  ,1.011e+08   ,-2.4707  ,-2.4707  ,0.1
7129  ,1.542e+08   ,-2.4  ,-2.4707  ,0.029289
7141  ,2.626e+08   ,-1.7  ,-2.4  ,5
7145  ,1.017e+09   ,1.1  ,2.4  ,0
7163  ,8.105e+08   ,-1.7102  ,2.4  ,5
7172  ,9.693e+08   ,2.5  ,-2.4  ,3.2
7174  ,1.053e+09   ,-2.5  ,2.4  ,3.6
7183  ,3.844e+08   ,-1.4531  ,-2.5  ,4.8
7204  ,2.614e+09   ,2.3  ,-0.81068  ,4.8
7220  ,1.820e+09   ,2.5  ,0.063638  ,4.9
7227  ,5.886e+08   ,2.5  ,-1.9  ,0.1
7256  ,9.286e+08   ,-0.1  ,-2.4  ,5
7280  ,1.986e+09   ,-0.33054  ,2.4  ,5
7299  ,1.054e+09   ,2.5  ,-1.1189  ,4.9
7316  ,5.663e+08   ,-2.5  ,-2.4  ,0.8
7323  ,5.771e+08   ,-2.4  ,-2.5  ,1
7396  ,1.993e+09   ,1.1  ,-2.4  ,5
7400  ,1.285e+09   ,-2.5  ,0.7  ,0.1
7409  ,2.341e+09   ,1.3  ,-2.4  ,5
7420  ,1.985e+08   ,2.5  ,2.1  ,0.1
7429  ,4.283e+08   ,2.4  ,1.9  ,0
7436  ,4.012e+08   ,2.5  ,-1.7  ,0.1
7438  ,1.188e+09   ,2.4  ,-2.5  ,2.8
7445  ,3.512e+10   ,2.4325  ,2.1656  ,4.9888
7464  ,3.014e+08   ,2.5  ,-1.5  ,0.1
7480  ,1.131e+09   ,2.5  ,-2.4  ,0.2
7482  ,7.132e+08   ,1.9  ,-2.5  ,0.1
7483  ,7.042e+08   ,1.7  ,-2.5  ,0.1
7486  ,1.170e+09   ,1.9  ,-2.4  ,5
7488  ,3.119e+08   ,1.6937  ,-2.5  ,4.8
7492  ,1.151e+09   ,2.1  ,-2.4  ,5
7495  ,4.785e+08   ,0.1  ,-2.5  ,0.1
7504  ,2.474e+08   ,0.3  ,-2.4  ,0
7507  ,7.317e+08   ,0.9  ,-2.5  ,0.1
7533  ,1.296e+09   ,-2.5  ,0.9  ,0.1
7536  ,7.402e+08   ,-2.4  ,-2.5  ,3.2
7540  ,6.908e+08   ,-2.4  ,-2.5  ,3
7545  ,5.226e+08   ,-2.5  ,-2.4  ,3
7582  ,7.017e+08   ,1.3  ,2.5  ,0.1
7588  ,2.071e+09   ,2.5  ,2.4  ,2.3665
7598  ,6.003e+08   ,-2.5  ,2.4  ,4.2
7607  ,1.718e+09   ,1.5333  ,2.3  ,0.2
7627  ,7.956e+08   ,-2.5  ,1.1  ,4.9
7651  ,4.984e+08   ,2.4  ,-1.9  ,0
7656  ,4.452e+08   ,2.5  ,2.4  ,0.39564
7660  ,1.574e+10   ,2.2299  ,2.3  ,4.7299
7668  ,7.093e+07   ,1.4531  ,-2.5  ,4.8
7676  ,1.029e+09   ,0.1  ,-2.5  ,4.9
7683  ,8.102e+08   ,0.1  ,-2.4  ,5
7686  ,5.998e+08   ,-2.4  ,-1.1  ,5
7702  ,4.865e+08   ,-2.3  ,-2.5  ,4.433
7710  ,1.165e+09   ,-2.3  ,-2.5  ,4.6765
7752  ,1.405e+09   ,0.9  ,-2.4  ,5
7763  ,1.127e+09   ,0.24243  ,-2.5  ,4.8
7767  ,8.828e+08   ,-2.5  ,-2.4  ,3.2
7768  ,1.966e+08   ,-2.4  ,-2.1  ,0
7776  ,1.295e+09   ,-2.4  ,0.9  ,0
7786  ,5.034e+08   ,-0.4838  ,-2.5  ,4.8
7800  ,1.157e+09   ,2.5  ,-2.4  ,4.6
7805  ,4.348e+08   ,-2.5  ,-1.3  ,4.9
7811  ,5.027e+08   ,-2.5  ,-1.1  ,4.9
7820  ,6.140e+08   ,2.5  ,-2.1  ,0.1
7824  ,6.074e+08   ,2.4  ,-2.1  ,0
7828  ,1.250e+09   ,2.4  ,-2.5  ,4.2
7831  ,1.270e+09   ,2.4  ,-2.5  ,4
7838  ,1.914e+09   ,2.5  ,-2.4  ,4.2
7839  ,2.086e+09   ,2.5  ,2.4  ,2.7607
7840  ,2.510e+09   ,2.5  ,2.4  ,2.9578
7863  ,2.416e+08   ,-2.4  ,-1.5  ,0
7890  ,8.333e+08   ,2.4  ,0.9  ,0
7897  ,4.655e+08   ,-2.4  ,-0.7  ,0
7912  ,5.623e+08   ,-1.5  ,-2.4  ,0
7917  ,4.208e+08   ,-1.3  ,-2.5  ,0.1
7931  ,1.148e+09   ,0.5  ,2.4  ,0
7934  ,1.451e+09   ,1.1  ,-2.4  ,0
7937  ,3.808e+08   ,2.4  ,-2.5  ,0.8
7941  ,2.229e+08   ,-2.4  ,-2.5  ,0.6
7969  ,1.806e+08   ,-2.5  ,2.3  ,0.1
7971  ,5.895e+08   ,-2.4  ,1.9  ,0
7972  ,5.908e+08   ,-1.9  ,2.5  ,0.1
7978  ,1.143e+09   ,-2.4  ,1.1  ,0
7996  ,8.398e+08   ,-2.4  ,-0.5  ,5
8000  ,4.097e+08   ,-2.5  ,-2.4  ,0.6
8003  ,4.059e+08   ,-2.5  ,-2.4  ,0.4
8025  ,1.162e+09   ,0.9  ,2.5  ,0.1
8035  ,1.422e+09   ,0.3  ,2.5  ,0.1
8039  ,1.728e+09   ,2.3  ,-2.5  ,0.32348
8041  ,1.010e+09   ,2.3  ,-2.3379  ,0.2
8043  ,1.214e+09   ,2.1765  ,-2.5  ,0.2
8045  ,7.120e+08   ,-0.96359  ,-2.5  ,0.2
8054  ,8.806e+08   ,1.3  ,2.4  ,0
8058  ,8.835e+08   ,1.1  ,2.5  ,0.1
8062  ,6.932e+08   ,-2.5  ,2.4  ,1.4
8067  ,5.699e+08   ,-2.5  ,2.4  ,0.8
8087  ,8.877e+08   ,-2.5  ,1.5  ,0.1
8132  ,2.338e+09   ,-0.13345  ,2.4  ,5
8183  ,5.758e+08   ,2.5  ,-0.9  ,0.1
8184  ,8.464e+08   ,1.6937  ,-2.5  ,0.2
8214  ,7.014e+08   ,-2.4707  ,-2.4  ,4.9707
8217  ,1.215e+09   ,-2.1  ,-2.4  ,5
8219  ,8.245e+08   ,-2.4  ,-2.5  ,4.4
8227  ,2.875e+09   ,2.5  ,2.4  ,3.1549
8242  ,1.047e+09   ,0.7  ,-2.5  ,4.9
8248  ,2.096e+09   ,2.5  ,-2.4  ,3.6
8254  ,7.577e+08   ,2.5  ,-0.3  ,0.1
8256  ,6.800e+08   ,2.5  ,-0.5  ,0.1
8258  ,7.952e+08   ,-0.3  ,-2.5  ,4.9
8263  ,6.786e+08   ,-0.5  ,-2.5  ,4.9
8268  ,1.960e+08   ,-2.3  ,-2.5  ,3.7085
8277  ,4.738e+08   ,-0.1  ,-2.5  ,0.1
8285  ,1.532e+09   ,1.1  ,-2.5  ,4.9
8307  ,1.079e+09   ,0.1  ,2.4  ,0
8308  ,8.329e+08   ,-0.1  ,2.5  ,0.1
8309  ,1.127e+09   ,-0.1  ,2.4  ,0
8313  ,7.028e+08   ,2.5  ,-2.3  ,0.1
8318  ,1.001e+09   ,2.5  ,-2.4  ,3
8338  ,3.085e+09   ,2.5  ,2.4  ,3.352
8339  ,2.932e+09   ,2.4  ,2.5  ,3.1549
8344  ,1.220e+09   ,-2.5  ,2.4  ,3.4
8357  ,3.455e+10   ,2.4888  ,2.1656  ,4.9325
8358  ,2.421e+10   ,2.5  ,2.1998  ,4.8333
8383  ,5.442e+08   ,-1.7  ,-2.4  ,0
8396  ,7.654e+08   ,1.1  ,-2.5  ,0.1
8399  ,4.461e+10   ,2.4526  ,2.1331  ,4.9851
8405  ,2.645e+08   ,2.5  ,-2.4  ,1
8412  ,3.335e+08   ,2.3  ,-2.5  ,0.8063
8417  ,8.623e+08   ,-2.3  ,-2.5  ,2.5
8434  ,1.033e+09   ,0.9636  ,-2.5  ,4.8
8438  ,5.755e+08   ,-0.3  ,-2.5  ,0.1
8452  ,7.304e+08   ,-2.4  ,-0.1  ,5
8468  ,3.704e+09   ,2.5  ,2.4  ,3.7462
8471  ,5.353e+08   ,-1.3  ,-2.5  ,4.9
8493  ,6.292e+08   ,-1.1  ,-2.5  ,4.9
8509  ,1.266e+08   ,-2.5  ,-1.7  ,0.1
8517  ,1.179e+09   ,-2.4  ,2.5  ,3
8531  ,7.466e+08   ,-2.4  ,1.7  ,0
8556  ,3.257e+09   ,2.5  ,2.4  ,3.5491
8573  ,1.427e+09   ,-1.316  ,2.4  ,5
8576  ,1.026e+09   ,-2.4  ,1.3  ,0
8611  ,5.637e+08   ,2.3  ,-2.5  ,1.2915
8618  ,5.918e+08   ,-2.4  ,2.5  ,4
8646  ,1.149e+09   ,-2.5  ,1.1  ,0.1
8656  ,5.906e+08   ,2.5  ,-1.3  ,0.1
8657  ,2.523e+08   ,2.4  ,2.1  ,0
8673  ,5.580e+08   ,-1.3  ,2.4  ,0
8692  ,1.316e+09   ,0.72263  ,-2.5  ,4.8
8696  ,3.355e+08   ,2.3  ,-2.5  ,1.0469
8706  ,2.473e+09   ,2.5  ,0.65491  ,4.9
8721  ,6.035e+08   ,-2.4  ,-2.5  ,1.6
8725  ,2.890e+09   ,0.65491  ,2.4  ,5
8739  ,3.523e+10   ,2.1656  ,2.4325  ,4.9888
8741  ,2.431e+10   ,2.1998  ,2.3333  ,5
8746  ,2.602e+08   ,-2.1  ,-2.4  ,0
8748  ,5.384e+08   ,-2.5  ,-2.4  ,1.2
8752  ,4.698e+10   ,2.1331  ,2.4526  ,4.9851
8759  ,4.694e+08   ,-2.3  ,-2.5  ,1.0469
8787  ,2.377e+08   ,-0.1  ,-2.4  ,0
8793  ,5.316e+08   ,-2.3  ,-2.5  ,2.2576
8795  ,4.649e+08   ,-2.4  ,-2.5  ,2.4
8798  ,7.965e+08   ,-2.3  ,-2.5  ,4.1937
8808  ,6.447e+08   ,-2.3  ,-2.5  ,3.9531
8814  ,6.337e+08   ,-2.4  ,-1.5  ,5
8849  ,1.171e+09   ,0.4838  ,-2.5  ,4.8
8851  ,7.675e+08   ,-2.4  ,-2.5  ,4.2
8868  ,1.090e+09   ,2.4  ,-2.5  ,3
8874  ,3.076e+09   ,0.852  ,2.4  ,5
8883  ,6.394e+08   ,-0.5  ,-2.4  ,5
8886  ,7.808e+08   ,-0.72262  ,-2.5  ,4.8
8893  ,8.106e+08   ,-0.7  ,-2.5  ,4.9
8897  ,1.510e+09   ,-2.5  ,-2.4  ,3.6
8899  ,1.798e+08   ,-2.3  ,-2.5  ,3.4636
8900  ,1.831e+08   ,-2.3  ,-1.4729  ,0.2
8906  ,3.197e+08   ,-2.5  ,-1.3  ,0.1
8910  ,3.088e+09   ,0.852  ,2.5  ,4.9
8925  ,7.187e+08   ,-2.4  ,2.5  ,1.4
8941  ,1.844e+08   ,2.4707  ,2.4  ,0.029289
8942  ,2.070e+08   ,2.5  ,2.3  ,0.1
8945  ,6.907e+08   ,-2.5  ,0.1  ,4.9
8950  ,1.693e+08   ,2.4707  ,2.4707  ,0.1
8951  ,2.374e+08   ,2.4  ,2.4707  ,0.029289
8959  ,1.871e+09   ,2.4  ,0.26073  ,5
8965  ,2.514e+09   ,0.45782  ,2.4  ,5
8978  ,2.802e+09   ,2.4  ,0.852  ,5
8983  ,5.528e+08   ,2.5  ,-1.1  ,0.1
8991  ,5.009e+08   ,-2.5  ,2.4  ,0.6
9008  ,2.600e+09   ,2.5  ,0.852  ,4.9
9011  ,5.036e+08   ,-2.4  ,-0.5  ,0
9025  ,4.927e+08   ,-1.5  ,-2.5  ,0.1
9038  ,5.987e+08   ,2.4  ,-2.5  ,2
9041  ,9.774e+08   ,2.5  ,0.9  ,0.1
9050  ,9.087e+08   ,2.5  ,0.5  ,0.1
9054  ,1.190e+09   ,0.9  ,-2.4  ,0
9060  ,6.957e+08   ,2.4  ,-2.5  ,0.4
9062  ,1.054e+09   ,2.3  ,-2.5  ,0.56701
9064  ,1.229e+09   ,2.5  ,-2.4  ,0.4
9069  ,6.024e+08   ,2.4  ,-2.5  ,0.6
9071  ,5.735e+08   ,1.4531  ,-2.5  ,0.2
9082  ,7.296e+08   ,-2.3  ,-2.5  ,1.2915
9086  ,5.137e+08   ,-2.4  ,-2.5  ,1.4
9091  ,3.359e+08   ,-2.5  ,-2.4  ,1.4
9094  ,1.474e+09   ,1.3  ,-2.5  ,4.9
9097  ,6.903e+08   ,-0.7  ,-2.5  ,0.1
9137  ,5.534e+08   ,-2.5  ,-0.7  ,4.9
9143  ,7.970e+08   ,-2.5  ,-0.1  ,4.9
9146  ,4.549e+08   ,-2.1  ,2.4  ,0
9148  ,5.244e+08   ,-2.5  ,1.7  ,4.9
9173  ,1.030e+09   ,-2.5  ,2.4  ,3
9192  ,8.614e+08   ,-0.7  ,-2.4  ,5
9195  ,4.327e+08   ,0.72263  ,-2.5  ,0.2
9209  ,1.441e+09   ,2.5  ,-2.4  ,3.4
9215  ,8.220e+07   ,0.9636  ,-2.5  ,0.2
9217  ,1.129e+09   ,2.4  ,-2.5  ,3.2
9218  ,7.499e+08   ,-0.96359  ,-2.5  ,4.8
9229  ,1.040e+09   ,-2.4  ,2.5  ,2.8
9248  ,1.015e+09   ,2.3  ,-2.5  ,4.433
9255  ,6.189e+08   ,2.5  ,1.3  ,0.1
9257  ,6.268e+08   ,2.4  ,1.5  ,0
9262  ,8.876e+08   ,0.5  ,-2.4  ,5
9264  ,1.388e+09   ,2.4  ,-0.13345  ,5
9272  ,2.170e+09   ,0.063638  ,2.4  ,5
9277  ,5.906e+08   ,-2.5  ,2.4  ,1.2
9279  ,2.029e+09   ,2.5  ,0.26073  ,4.9
9282  ,5.252e+08   ,1.2085  ,-2.5  ,4.8
9286  ,1.307e+09   ,0.9  ,-2.5  ,4.9
9292  ,2.266e+08   ,-2.4  ,2.4707  ,4.9707
9293  ,2.731e+08   ,-2.3015  ,2.4  ,5
9296  ,6.226e+08   ,-2.4  ,-2.1  ,5
9303  ,6.094e+08   ,-2.4  ,-1.9  ,5
9311  ,3.120e+08   ,-2.4  ,2.3  ,5
9313  ,6.660e+08   ,-2.4  ,0.1  ,5
9319  ,8.679e+08   ,-0.5  ,-2.4  ,0
9328  ,7.553e+08   ,-2.3  ,-2.5  ,1.5364
9334  ,3.822e+08   ,-2.3  ,2.5  ,0.1
9338  ,1.965e+08   ,-2.5  ,-2.4  ,2.4
9339  ,9.978e+08   ,-2.5  ,1.3  ,0.1
9341  ,9.464e+08   ,-2.3  ,-2.5  ,2.7424
9344  ,5.517e+08   ,-2.5  ,-2.4  ,2.2
9358  ,2.960e+09   ,-2.3  ,2.3  ,2.5
9364  ,6.286e+08   ,-2.5  ,-2.1  ,4.9
9367  ,7.921e+08   ,-2.4  ,-2.3  ,5
9374  ,5.849e+08   ,-2.4  ,-1.3  ,5
9378  ,8.015e+08   ,-2.5  ,2.4  ,1.8
9384  ,4.111e+08   ,2.3  ,-2.5  ,2.0162
9385  ,4.892e+08   ,-2.5  ,2.4  ,4.4
9389  ,7.946e+08   ,-2.5  ,2.4  ,2
9395  ,1.451e+09   ,2.4  ,-2.3015  ,5
9396  ,1.390e+08   ,-2.4  ,-1.7  ,0
9407  ,1.709e+09   ,-2.3  ,-1.4729  ,4.8
9411  ,3.740e+08   ,-2.5  ,-1.7  ,4.9
9423  ,8.265e+08   ,-2.4  ,-2.5  ,3.6
9432  ,8.766e+08   ,0.7  ,-2.4  ,5
9438  ,4.965e+08   ,-2.5  ,-0.9  ,4.9
9443  ,7.668e+08   ,-2.5  ,-0.3  ,4.9
9445  ,2.522e+08   ,-2.4707  ,2.4  ,4.9707
9448  ,9.568e+08   ,2.4  ,-1.1189  ,5
9453  ,8.324e+08   ,2.4  ,0.7  ,0
9455  ,9.494e+08   ,2.5  ,-2.4  ,2.6
9457  ,1.346e+09   ,2.3  ,-2.5  ,2.9838
9494  ,6.691e+08   ,-2.4  ,2.5  ,1
9500  ,9.825e+08   ,0.3  ,-2.5  ,4.9
9504  ,8.801e+08   ,0.3  ,-2.4  ,5
9506  ,7.301e+08   ,2.1  ,-2.5  ,0.1
9518  ,1.814e+08   ,-1.9  ,-2.5  ,0.1
9528  ,4.366e+08   ,2.3  ,-2.5  ,0.1
9531  ,1.036e+09   ,2.4707  ,-2.4707  ,0.1
9533  ,6.637e+08   ,2.4707  ,-2.4  ,0.029289
9534  ,7.834e+08   ,2.4  ,-2.4707  ,0.029289
9541  ,9.784e+08   ,0.5  ,-2.5  ,4.9
9544  ,6.140e+08   ,-0.5  ,-2.5  ,0.1
9559  ,4.218e+08   ,-2.5  ,-1.9  ,4.9
9562  ,2.968e+08   ,-2.5  ,2.4  ,4.6
9565  ,9.058e+08   ,-2.4  ,2.5  ,2
9571  ,1.757e+09   ,-2.5  ,-2.4  ,3.8
9574  ,8.398e+08   ,-2.4  ,-2.5  ,3.8
9577  ,7.543e+08   ,1.3  ,-2.5  ,0.1
9582  ,4.008e+08   ,-2.5  ,-0.9  ,0.1
9596  ,3.650e+08   ,2.1  ,2.4  ,0
9598  ,1.309e+09   ,-2.4  ,2.5  ,3.2
9602  ,6.233e+08   ,1.5  ,2.5  ,0.1
9610  ,3.978e+08   ,2.4  ,2.5  ,0.39564
9612  ,2.085e+09   ,-0.72473  ,2.5  ,4.9
9614  ,6.045e+08   ,1.7  ,2.5  ,0.1
9635  ,4.299e+08   ,2.5  ,1.7  ,0.1
9646  ,3.212e+08   ,2.3  ,2.5  ,0.1
9651  ,3.614e+10   ,2.1656  ,2.4888  ,4.9325
9653  ,9.943e+08   ,2.5  ,-1.316  ,4.9
9656  ,5.211e+08   ,-2.4  ,-1.7  ,5
9659  ,2.870e+09   ,2.3  ,-2.5  ,4.6765
9661  ,1.442e+08   ,2.3  ,-2.5  ,3.9531
9664  ,1.148e+09   ,-2.3  ,-2.4  ,5
9666  ,1.160e+09   ,1.9  ,-2.4  ,0
9677  ,8.016e+08   ,2.4  ,0.5  ,0
9678  ,3.836e+08   ,-2.5  ,-1.1  ,0.1
9680  ,1.169e+09   ,2.5  ,2.4  ,1.184
9681  ,2.527e+08   ,2.5  ,2.4  ,0.19855
9696  ,2.195e+08   ,-2.3  ,-2.5  ,2.0162
9698  ,7.158e+08   ,2.4  ,-2.3  ,0
9699  ,4.967e+08   ,-0.24243  ,-2.5  ,0.2
9701  ,1.249e+08   ,0.1  ,-2.4  ,0
9704  ,1.960e+08   ,-0.4838  ,-2.5  ,0.2
9718  ,5.079e+08   ,-0.72262  ,-2.5  ,0.2
9726  ,2.084e+09   ,2.3  ,-0.76628  ,0.2
9727  ,4.769e+08   ,-2.5  ,2.4  ,0.4
9730  ,1.168e+09   ,1.9433E-06  ,-2.5  ,4.8
9731  ,6.713e+08   ,-0.24243  ,-2.5  ,4.8
9732  ,8.323e+08   ,-2.5  ,2.4  ,2.2
9738  ,1.937e+09   ,-2.5  ,-2.4  ,4
9743  ,3.124e+08   ,-1.6937  ,-2.5  ,4.8
9744  ,7.116e+08   ,-2.4  ,-2.5  ,4
9750  ,3.865e+08   ,-1.7  ,-2.5  ,0.1
9752  ,2.725e+08   ,-1.6937  ,-2.5  ,0.2
9754  ,4.023e+08   ,-1.3  ,-2.4  ,0
9759  ,1.435e+08   ,-2.4707  ,2.4  ,0.029289
9760  ,8.795e+07   ,-2.4  ,2.4707  ,0.029289
9768  ,3.915e+08   ,2.3  ,-2.5  ,4.1937
9770  ,8.268e+08   ,1.9433E-06  ,-2.5  ,0.2
9771  ,7.947e+08   ,0.4838  ,-2.5  ,0.2
9772  ,3.042e+08   ,2.4  ,-2.5  ,0.2
9773  ,1.369e+09   ,2.4  ,-2.5  ,4.6
9776  ,1.547e+09   ,2.4  ,0.063638  ,5
9780  ,3.065e+09   ,0.65491  ,2.5  ,4.9
9781  ,2.473e+08   ,2.4  ,2.5  ,0.19855
9782  ,7.773e+08   ,-2.3  ,-2.5  ,2.9838
9786  ,6.168e+08   ,-1.2085  ,-2.5  ,0.2
9787  ,4.482e+08   ,-1.4531  ,-2.5  ,0.2
9790  ,7.139e+08   ,2.3  ,-2.4  ,0
9793  ,1.847e+10   ,2.0345  ,2.4  ,5
9797  ,7.631e+08   ,2.3  ,-2.5  ,1.5364
9798  ,2.848e+09   ,2.4  ,1.0491  ,5
9809  ,3.021e+09   ,2.4  ,2.5  ,3.352
