Date:  12:52, Monday, July 10, 2023
Model name: Hollow_DropBox
Study name: DropTest_300fts(-Default-)
Plot type:  Stress1
Plot step: 12   time : 62.9694 Microseconds
Result Type: von Mises 


Node  ,Value (N/m^2)  ,X (in)  ,Y (in)  ,Z (in)
1  ,2.919e+10   ,2.5  ,2.1331  ,4.9
2  ,2.385e+10   ,2.4577  ,2.1908  ,4.9577
3  ,5.276e+10   ,2.4894  ,2.1331  ,4.9447
4  ,3.200e+10   ,2.1331  ,2.5  ,4.9
5  ,5.572e+10   ,2.1331  ,2.4894  ,4.9447
6  ,2.259e+10   ,2.1908  ,2.4577  ,4.9577
7  ,1.943e+08   ,-2.4  ,2.4  ,5
8  ,1.140e+09   ,-2.4  ,-2.4  ,5
9  ,2.166e+09   ,2.4  ,-2.4  ,5
10  ,2.722e+10   ,2.4  ,2.1331  ,5
11  ,3.030e+10   ,2.1331  ,2.4  ,5
12  ,2.307e+09   ,2.5  ,-2.4  ,4.9
13  ,1.130e+09   ,2.5  ,-2.4  ,0.1
14  ,2.340e+08   ,2.5  ,2.4  ,0.1
15  ,3.093e+10   ,2.5  ,2.4  ,4.6331
16  ,2.208e+08   ,2.4  ,2.5  ,0.1
17  ,1.564e+08   ,-2.4  ,2.5  ,0.1
18  ,1.373e+08   ,-2.4  ,2.5  ,4.9
19  ,3.263e+10   ,2.4  ,2.5  ,4.6331
20  ,2.180e+08   ,-2.5  ,2.4  ,0.1
21  ,7.255e+07   ,-2.5  ,-2.4  ,0.1
22  ,6.889e+08   ,-2.5  ,-2.4  ,4.9
23  ,1.557e+08   ,-2.5  ,2.4  ,4.9
24  ,2.272e+08   ,-2.3  ,-2.5  ,0.2
25  ,9.872e+08   ,-2.3  ,-2.5  ,4.8
26  ,2.572e+09   ,2.3  ,-2.5  ,4.8
27  ,1.079e+09   ,2.3  ,-2.5  ,0.2
28  ,1.023e+09   ,-2.4  ,-2.5  ,4.9
29  ,2.216e+09   ,2.4  ,-2.5  ,4.9
30  ,1.802e+08   ,-2.4  ,-2.5  ,0.1
31  ,1.082e+09   ,2.4  ,-2.5  ,0.1
32  ,7.891e+08   ,2.4  ,-2.4  ,0
33  ,2.221e+08   ,2.4  ,2.4  ,0
34  ,1.415e+08   ,-2.4  ,-2.4  ,0
35  ,2.116e+08   ,-2.4  ,2.4  ,0
36  ,2.759e+10   ,2.4577  ,2.4577  ,4.6908
37  ,8.631e+08   ,-2.3  ,2.3  ,4.8
38  ,1.594e+10   ,2.1599  ,2.3  ,4.8
39  ,1.548e+10   ,2.3  ,2.1599  ,4.8
40  ,1.623e+10   ,2.3  ,2.3  ,4.6599
41  ,8.641e+08   ,2.3  ,2.3  ,0.2
42  ,6.730e+08   ,-2.3  ,2.3  ,0.2
43  ,3.440e+08   ,-2.4  ,2.2  ,5
44  ,4.860e+08   ,-2.4  ,2  ,5
45  ,4.269e+08   ,-2.4  ,1.8  ,5
46  ,4.152e+08   ,-2.4  ,1.6  ,5
47  ,4.520e+08   ,-2.4  ,1.4  ,5
48  ,6.002e+08   ,-2.4  ,1.2  ,5
49  ,6.638e+08   ,-2.4  ,1  ,5
50  ,1.097e+09   ,-2.4  ,0.8  ,5
51  ,1.186e+09   ,-2.4  ,0.6  ,5
52  ,1.118e+09   ,-2.4  ,0.4  ,5
53  ,1.124e+09   ,-2.4  ,0.2  ,5
54  ,8.483e+08   ,-2.4  ,5.8879E-16  ,5
55  ,8.709e+08   ,-2.4  ,-0.2  ,5
56  ,7.762e+08   ,-2.4  ,-0.4  ,5
57  ,7.403e+08   ,-2.4  ,-0.6  ,5
58  ,6.166e+08   ,-2.4  ,-0.8  ,5
59  ,7.032e+08   ,-2.4  ,-1  ,5
60  ,7.106e+08   ,-2.4  ,-1.2  ,5
61  ,9.013e+08   ,-2.4  ,-1.4  ,5
62  ,6.989e+08   ,-2.4  ,-1.6  ,5
63  ,5.235e+08   ,-2.4  ,-1.8  ,5
64  ,7.499e+08   ,-2.4  ,-2  ,5
65  ,6.964e+08   ,-2.4  ,-2.2  ,5
66  ,1.540e+09   ,-2.2  ,-2.4  ,5
67  ,1.335e+09   ,-2  ,-2.4  ,5
68  ,1.051e+09   ,-1.8  ,-2.4  ,5
69  ,6.853e+08   ,-1.6  ,-2.4  ,5
70  ,8.646e+08   ,-1.4  ,-2.4  ,5
71  ,1.059e+09   ,-1.2  ,-2.4  ,5
72  ,9.104e+08   ,-1  ,-2.4  ,5
73  ,7.894e+08   ,-0.8  ,-2.4  ,5
74  ,7.059e+08   ,-0.6  ,-2.4  ,5
75  ,4.875e+08   ,-0.4  ,-2.4  ,5
76  ,4.715e+08   ,-0.2  ,-2.4  ,5
77  ,5.273e+08   ,-5.8879E-16  ,-2.4  ,5
78  ,7.144e+08   ,0.2  ,-2.4  ,5
79  ,1.002e+09   ,0.4  ,-2.4  ,5
80  ,1.530e+09   ,0.6  ,-2.4  ,5
81  ,1.887e+09   ,0.8  ,-2.4  ,5
82  ,1.991e+09   ,1  ,-2.4  ,5
83  ,2.033e+09   ,1.2  ,-2.4  ,5
84  ,2.578e+09   ,1.4  ,-2.4  ,5
85  ,2.243e+09   ,1.6  ,-2.4  ,5
86  ,1.191e+09   ,1.8  ,-2.4  ,5
87  ,7.453e+08   ,2  ,-2.4  ,5
88  ,2.988e+09   ,2.2  ,-2.4  ,5
89  ,1.851e+09   ,2.4  ,-2.2029  ,5
90  ,1.888e+09   ,2.4  ,-2.0058  ,5
91  ,1.400e+09   ,2.4  ,-1.8087  ,5
92  ,1.228e+09   ,2.4  ,-1.6116  ,5
93  ,1.336e+09   ,2.4  ,-1.4145  ,5
94  ,1.161e+09   ,2.4  ,-1.2175  ,5
95  ,1.347e+09   ,2.4  ,-1.0204  ,5
96  ,1.578e+09   ,2.4  ,-0.82327  ,5
97  ,1.572e+09   ,2.4  ,-0.62618  ,5
98  ,1.501e+09   ,2.4  ,-0.42909  ,5
99  ,1.551e+09   ,2.4  ,-0.232  ,5
100  ,1.543e+09   ,2.4  ,-0.034907  ,5
101  ,1.742e+09   ,2.4  ,0.16218  ,5
102  ,2.100e+09   ,2.4  ,0.35927  ,5
103  ,2.532e+09   ,2.4  ,0.55637  ,5
104  ,2.850e+09   ,2.4  ,0.75346  ,5
105  ,2.288e+09   ,2.4  ,0.95055  ,5
106  ,2.700e+09   ,2.4  ,1.1476  ,5
107  ,3.962e+09   ,2.4  ,1.3447  ,5
108  ,5.845e+09   ,2.4  ,1.5418  ,5
109  ,7.566e+09   ,2.4  ,1.7389  ,5
110  ,1.423e+10   ,2.4  ,1.936  ,5
111  ,1.988e+10   ,2.2665  ,2.2665  ,5
112  ,1.432e+10   ,1.936  ,2.4  ,5
113  ,7.420e+09   ,1.7389  ,2.4  ,5
114  ,5.856e+09   ,1.5418  ,2.4  ,5
115  ,4.142e+09   ,1.3447  ,2.4  ,5
116  ,3.299e+09   ,1.1476  ,2.4  ,5
117  ,3.202e+09   ,0.95055  ,2.4  ,5
118  ,3.370e+09   ,0.75346  ,2.4  ,5
119  ,3.032e+09   ,0.55637  ,2.4  ,5
120  ,2.758e+09   ,0.35927  ,2.4  ,5
121  ,2.589e+09   ,0.16218  ,2.4  ,5
122  ,2.500e+09   ,-0.034907  ,2.4  ,5
123  ,2.602e+09   ,-0.232  ,2.4  ,5
124  ,2.103e+09   ,-0.42909  ,2.4  ,5
125  ,1.821e+09   ,-0.62618  ,2.4  ,5
126  ,2.132e+09   ,-0.82327  ,2.4  ,5
127  ,1.965e+09   ,-1.0204  ,2.4  ,5
128  ,1.768e+09   ,-1.2175  ,2.4  ,5
129  ,1.490e+09   ,-1.4145  ,2.4  ,5
130  ,1.016e+09   ,-1.6116  ,2.4  ,5
131  ,6.639e+08   ,-1.8087  ,2.4  ,5
132  ,4.578e+08   ,-2.0058  ,2.4  ,5
133  ,3.075e+08   ,-2.2029  ,2.4  ,5
294  ,1.584e+09   ,2.5  ,-2.2029  ,4.9
295  ,1.765e+09   ,2.5  ,-2.0058  ,4.9
296  ,1.399e+09   ,2.5  ,-1.8087  ,4.9
297  ,1.367e+09   ,2.5  ,-1.6116  ,4.9
298  ,1.169e+09   ,2.5  ,-1.4145  ,4.9
299  ,1.249e+09   ,2.5  ,-1.2175  ,4.9
300  ,1.350e+09   ,2.5  ,-1.0204  ,4.9
301  ,1.249e+09   ,2.5  ,-0.82327  ,4.9
302  ,1.529e+09   ,2.5  ,-0.62618  ,4.9
303  ,1.597e+09   ,2.5  ,-0.42909  ,4.9
304  ,1.882e+09   ,2.5  ,-0.232  ,4.9
305  ,2.205e+09   ,2.5  ,-0.034907  ,4.9
306  ,2.293e+09   ,2.5  ,0.16218  ,4.9
307  ,2.108e+09   ,2.5  ,0.35927  ,4.9
308  ,2.361e+09   ,2.5  ,0.55637  ,4.9
309  ,2.682e+09   ,2.5  ,0.75346  ,4.9
310  ,2.511e+09   ,2.5  ,0.95055  ,4.9
311  ,3.387e+09   ,2.5  ,1.1476  ,4.9
312  ,4.407e+09   ,2.5  ,1.3447  ,4.9
313  ,5.981e+09   ,2.5  ,1.5418  ,4.9
314  ,9.600e+09   ,2.5  ,1.7389  ,4.9
315  ,1.501e+10   ,2.5  ,1.936  ,4.9
316  ,3.010e+09   ,2.5  ,-2.4  ,4.7
317  ,7.818e+08   ,2.5  ,-2.4  ,4.5
318  ,1.197e+09   ,2.5  ,-2.4  ,4.3
319  ,2.376e+09   ,2.5  ,-2.4  ,4.1
320  ,2.425e+09   ,2.5  ,-2.4  ,3.9
321  ,2.283e+09   ,2.5  ,-2.4  ,3.7
322  ,2.057e+09   ,2.5  ,-2.4  ,3.5
323  ,1.774e+09   ,2.5  ,-2.4  ,3.3
324  ,1.445e+09   ,2.5  ,-2.4  ,3.1
325  ,8.796e+08   ,2.5  ,-2.4  ,2.9
326  ,5.260e+08   ,2.5  ,-2.4  ,2.7
327  ,4.736e+08   ,2.5  ,-2.4  ,2.5
328  ,5.705e+08   ,2.5  ,-2.4  ,2.3
329  ,5.685e+08   ,2.5  ,-2.4  ,2.1
330  ,8.390e+08   ,2.5  ,-2.4  ,1.9
331  ,8.777e+08   ,2.5  ,-2.4  ,1.7
332  ,7.845e+08   ,2.5  ,-2.4  ,1.5
333  ,8.032e+08   ,2.5  ,-2.4  ,1.3
334  ,7.347e+08   ,2.5  ,-2.4  ,1.1
335  ,6.615e+08   ,2.5  ,-2.4  ,0.9
336  ,1.086e+09   ,2.5  ,-2.4  ,0.7
337  ,1.346e+09   ,2.5  ,-2.4  ,0.5
338  ,1.602e+09   ,2.5  ,-2.4  ,0.3
339  ,6.865e+08   ,2.5  ,-2.2  ,0.1
340  ,7.658e+08   ,2.5  ,-2  ,0.1
341  ,5.038e+08   ,2.5  ,-1.8  ,0.1
342  ,5.611e+08   ,2.5  ,-1.6  ,0.1
343  ,5.430e+08   ,2.5  ,-1.4  ,0.1
344  ,6.986e+08   ,2.5  ,-1.2  ,0.1
345  ,6.344e+08   ,2.5  ,-1  ,0.1
346  ,5.353e+08   ,2.5  ,-0.8  ,0.1
347  ,6.863e+08   ,2.5  ,-0.6  ,0.1
348  ,7.359e+08   ,2.5  ,-0.4  ,0.1
349  ,9.494e+08   ,2.5  ,-0.2  ,0.1
350  ,1.035e+09   ,2.5  ,-1.7664E-15  ,0.1
351  ,1.072e+09   ,2.5  ,0.2  ,0.1
352  ,1.125e+09   ,2.5  ,0.4  ,0.1
353  ,1.001e+09   ,2.5  ,0.6  ,0.1
354  ,8.345e+08   ,2.5  ,0.8  ,0.1
355  ,6.696e+08   ,2.5  ,1  ,0.1
356  ,6.453e+08   ,2.5  ,1.2  ,0.1
357  ,6.044e+08   ,2.5  ,1.4  ,0.1
358  ,5.476e+08   ,2.5  ,1.6  ,0.1
359  ,4.364e+08   ,2.5  ,1.8  ,0.1
360  ,2.944e+08   ,2.5  ,2  ,0.1
361  ,3.801e+08   ,2.5  ,2.2  ,0.1
362  ,1.626e+10   ,2.5  ,2.4  ,4.436
363  ,9.738e+09   ,2.5  ,2.4  ,4.2389
364  ,5.479e+09   ,2.5  ,2.4  ,4.0418
365  ,4.216e+09   ,2.5  ,2.4  ,3.8447
366  ,3.041e+09   ,2.5  ,2.4  ,3.6476
367  ,3.098e+09   ,2.5  ,2.4  ,3.4505
368  ,3.351e+09   ,2.5  ,2.4  ,3.2535
369  ,3.092e+09   ,2.5  ,2.4  ,3.0564
370  ,2.574e+09   ,2.5  ,2.4  ,2.8593
371  ,2.371e+09   ,2.5  ,2.4  ,2.6622
372  ,2.556e+09   ,2.5  ,2.4  ,2.4651
373  ,2.165e+09   ,2.5  ,2.4  ,2.268
374  ,2.204e+09   ,2.5  ,2.4  ,2.0709
375  ,1.920e+09   ,2.5  ,2.4  ,1.8738
376  ,2.031e+09   ,2.5  ,2.4  ,1.6767
377  ,1.369e+09   ,2.5  ,2.4  ,1.4796
378  ,1.437e+09   ,2.5  ,2.4  ,1.2825
379  ,1.328e+09   ,2.5  ,2.4  ,1.0855
380  ,1.239e+09   ,2.5  ,2.4  ,0.88836
381  ,9.503e+08   ,2.5  ,2.4  ,0.69127
382  ,5.566e+08   ,2.5  ,2.4  ,0.49418
383  ,3.747e+08   ,2.5  ,2.4  ,0.29709
384  ,1.953e+10   ,2.5  ,2.2665  ,4.7665
544  ,4.593e+08   ,2.2  ,2.5  ,0.1
545  ,5.285e+08   ,2  ,2.5  ,0.1
546  ,5.760e+08   ,1.8  ,2.5  ,0.1
547  ,6.390e+08   ,1.6  ,2.5  ,0.1
548  ,6.136e+08   ,1.4  ,2.5  ,0.1
549  ,7.142e+08   ,1.2  ,2.5  ,0.1
550  ,8.799e+08   ,1  ,2.5  ,0.1
551  ,1.359e+09   ,0.8  ,2.5  ,0.1
552  ,1.404e+09   ,0.6  ,2.5  ,0.1
553  ,1.408e+09   ,0.4  ,2.5  ,0.1
554  ,1.546e+09   ,0.2  ,2.5  ,0.1
555  ,1.378e+09   ,5.8879E-16  ,2.5  ,0.1
556  ,1.037e+09   ,-0.2  ,2.5  ,0.1
557  ,1.180e+09   ,-0.4  ,2.5  ,0.1
558  ,1.287e+09   ,-0.6  ,2.5  ,0.1
559  ,1.335e+09   ,-0.8  ,2.5  ,0.1
560  ,1.201e+09   ,-1  ,2.5  ,0.1
561  ,1.105e+09   ,-1.2  ,2.5  ,0.1
562  ,9.427e+08   ,-1.4  ,2.5  ,0.1
563  ,8.430e+08   ,-1.6  ,2.5  ,0.1
564  ,7.148e+08   ,-1.8  ,2.5  ,0.1
565  ,5.287e+08   ,-2  ,2.5  ,0.1
566  ,4.050e+08   ,-2.2  ,2.5  ,0.1
567  ,3.205e+08   ,-2.4  ,2.5  ,4.7
568  ,5.629e+08   ,-2.4  ,2.5  ,4.5
569  ,6.057e+08   ,-2.4  ,2.5  ,4.3
570  ,5.828e+08   ,-2.4  ,2.5  ,4.1
571  ,5.615e+08   ,-2.4  ,2.5  ,3.9
572  ,6.051e+08   ,-2.4  ,2.5  ,3.7
573  ,8.014e+08   ,-2.4  ,2.5  ,3.5
574  ,1.398e+09   ,-2.4  ,2.5  ,3.3
575  ,1.269e+09   ,-2.4  ,2.5  ,3.1
576  ,1.291e+09   ,-2.4  ,2.5  ,2.9
577  ,1.246e+09   ,-2.4  ,2.5  ,2.7
578  ,1.367e+09   ,-2.4  ,2.5  ,2.5
579  ,1.293e+09   ,-2.4  ,2.5  ,2.3
580  ,1.402e+09   ,-2.4  ,2.5  ,2.1
581  ,1.389e+09   ,-2.4  ,2.5  ,1.9
582  ,1.356e+09   ,-2.4  ,2.5  ,1.7
583  ,1.249e+09   ,-2.4  ,2.5  ,1.5
584  ,1.090e+09   ,-2.4  ,2.5  ,1.3
585  ,9.476e+08   ,-2.4  ,2.5  ,1.1
586  ,8.255e+08   ,-2.4  ,2.5  ,0.9
587  ,7.632e+08   ,-2.4  ,2.5  ,0.7
588  ,5.841e+08   ,-2.4  ,2.5  ,0.5
589  ,4.083e+08   ,-2.4  ,2.5  ,0.3
590  ,1.588e+10   ,1.936  ,2.5  ,4.9
591  ,7.006e+09   ,1.7389  ,2.5  ,4.9
592  ,5.104e+09   ,1.5418  ,2.5  ,4.9
593  ,4.332e+09   ,1.3447  ,2.5  ,4.9
594  ,3.110e+09   ,1.1476  ,2.5  ,4.9
595  ,3.289e+09   ,0.95055  ,2.5  ,4.9
596  ,3.300e+09   ,0.75346  ,2.5  ,4.9
597  ,3.195e+09   ,0.55637  ,2.5  ,4.9
598  ,2.921e+09   ,0.35927  ,2.5  ,4.9
599  ,2.460e+09   ,0.16218  ,2.5  ,4.9
600  ,2.180e+09   ,-0.034907  ,2.5  ,4.9
601  ,2.099e+09   ,-0.232  ,2.5  ,4.9
602  ,2.465e+09   ,-0.42909  ,2.5  ,4.9
603  ,2.455e+09   ,-0.62618  ,2.5  ,4.9
604  ,2.043e+09   ,-0.82327  ,2.5  ,4.9
605  ,2.232e+09   ,-1.0204  ,2.5  ,4.9
606  ,2.058e+09   ,-1.2175  ,2.5  ,4.9
607  ,1.574e+09   ,-1.4145  ,2.5  ,4.9
608  ,1.145e+09   ,-1.6116  ,2.5  ,4.9
609  ,7.753e+08   ,-1.8087  ,2.5  ,4.9
610  ,5.008e+08   ,-2.0058  ,2.5  ,4.9
611  ,3.561e+08   ,-2.2029  ,2.5  ,4.9
612  ,2.044e+10   ,2.2665  ,2.5  ,4.7665
613  ,1.386e+10   ,2.4  ,2.5  ,4.436
614  ,8.491e+09   ,2.4  ,2.5  ,4.2389
615  ,5.444e+09   ,2.4  ,2.5  ,4.0418
616  ,4.111e+09   ,2.4  ,2.5  ,3.8447
617  ,3.433e+09   ,2.4  ,2.5  ,3.6476
618  ,2.963e+09   ,2.4  ,2.5  ,3.4505
619  ,3.402e+09   ,2.4  ,2.5  ,3.2535
620  ,3.191e+09   ,2.4  ,2.5  ,3.0564
621  ,2.656e+09   ,2.4  ,2.5  ,2.8593
622  ,2.495e+09   ,2.4  ,2.5  ,2.6622
623  ,2.188e+09   ,2.4  ,2.5  ,2.4651
624  ,1.951e+09   ,2.4  ,2.5  ,2.268
625  ,1.844e+09   ,2.4  ,2.5  ,2.0709
626  ,1.859e+09   ,2.4  ,2.5  ,1.8738
627  ,1.998e+09   ,2.4  ,2.5  ,1.6767
628  ,2.061e+09   ,2.4  ,2.5  ,1.4796
629  ,1.927e+09   ,2.4  ,2.5  ,1.2825
630  ,1.354e+09   ,2.4  ,2.5  ,1.0855
631  ,1.017e+09   ,2.4  ,2.5  ,0.88836
632  ,7.488e+08   ,2.4  ,2.5  ,0.69127
633  ,6.325e+08   ,2.4  ,2.5  ,0.49418
634  ,3.571e+08   ,2.4  ,2.5  ,0.29709
796  ,2.713e+08   ,-2.5  ,2.2  ,0.1
797  ,5.579e+08   ,-2.5  ,2  ,0.1
798  ,7.891e+08   ,-2.5  ,1.8  ,0.1
799  ,1.021e+09   ,-2.5  ,1.6  ,0.1
800  ,1.198e+09   ,-2.5  ,1.4  ,0.1
801  ,1.317e+09   ,-2.5  ,1.2  ,0.1
802  ,1.489e+09   ,-2.5  ,1  ,0.1
803  ,1.581e+09   ,-2.5  ,0.8  ,0.1
804  ,1.606e+09   ,-2.5  ,0.6  ,0.1
805  ,1.588e+09   ,-2.5  ,0.4  ,0.1
806  ,1.493e+09   ,-2.5  ,0.2  ,0.1
807  ,1.415e+09   ,-2.5  ,5.8879E-16  ,0.1
808  ,1.154e+09   ,-2.5  ,-0.2  ,0.1
809  ,9.060e+08   ,-2.5  ,-0.4  ,0.1
810  ,8.053e+08   ,-2.5  ,-0.6  ,0.1
811  ,7.260e+08   ,-2.5  ,-0.8  ,0.1
812  ,6.702e+08   ,-2.5  ,-1  ,0.1
813  ,5.602e+08   ,-2.5  ,-1.2  ,0.1
814  ,3.602e+08   ,-2.5  ,-1.4  ,0.1
815  ,2.476e+08   ,-2.5  ,-1.6  ,0.1
816  ,2.727e+08   ,-2.5  ,-1.8  ,0.1
817  ,2.580e+08   ,-2.5  ,-2  ,0.1
818  ,1.299e+08   ,-2.5  ,-2.2  ,0.1
819  ,6.909e+08   ,-2.5  ,-2.4  ,4.7
820  ,6.801e+08   ,-2.5  ,-2.4  ,4.5
821  ,1.308e+09   ,-2.5  ,-2.4  ,4.3
822  ,1.975e+09   ,-2.5  ,-2.4  ,4.1
823  ,2.144e+09   ,-2.5  ,-2.4  ,3.9
824  ,2.081e+09   ,-2.5  ,-2.4  ,3.7
825  ,1.941e+09   ,-2.5  ,-2.4  ,3.5
826  ,1.408e+09   ,-2.5  ,-2.4  ,3.3
827  ,1.092e+09   ,-2.5  ,-2.4  ,3.1
828  ,7.487e+08   ,-2.5  ,-2.4  ,2.9
829  ,5.442e+08   ,-2.5  ,-2.4  ,2.7
830  ,4.246e+08   ,-2.5  ,-2.4  ,2.5
831  ,4.840e+08   ,-2.5  ,-2.4  ,2.3
832  ,5.406e+08   ,-2.5  ,-2.4  ,2.1
833  ,7.031e+08   ,-2.5  ,-2.4  ,1.9
834  ,8.393e+08   ,-2.5  ,-2.4  ,1.7
835  ,7.770e+08   ,-2.5  ,-2.4  ,1.5
836  ,5.291e+08   ,-2.5  ,-2.4  ,1.3
837  ,3.700e+08   ,-2.5  ,-2.4  ,1.1
838  ,2.869e+08   ,-2.5  ,-2.4  ,0.9
839  ,4.579e+08   ,-2.5  ,-2.4  ,0.7
840  ,5.314e+08   ,-2.5  ,-2.4  ,0.5
841  ,2.988e+08   ,-2.5  ,-2.4  ,0.3
842  ,1.989e+08   ,-2.5  ,2.2  ,4.9
843  ,4.582e+08   ,-2.5  ,2  ,4.9
844  ,4.418e+08   ,-2.5  ,1.8  ,4.9
845  ,5.243e+08   ,-2.5  ,1.6  ,4.9
846  ,5.945e+08   ,-2.5  ,1.4  ,4.9
847  ,6.750e+08   ,-2.5  ,1.2  ,4.9
848  ,7.663e+08   ,-2.5  ,1  ,4.9
849  ,9.172e+08   ,-2.5  ,0.8  ,4.9
850  ,8.451e+08   ,-2.5  ,0.6  ,4.9
851  ,8.749e+08   ,-2.5  ,0.4  ,4.9
852  ,9.060e+08   ,-2.5  ,0.2  ,4.9
853  ,9.407e+08   ,-2.5  ,5.8879E-16  ,4.9
854  ,8.129e+08   ,-2.5  ,-0.2  ,4.9
855  ,6.770e+08   ,-2.5  ,-0.4  ,4.9
856  ,6.211e+08   ,-2.5  ,-0.6  ,4.9
857  ,6.337e+08   ,-2.5  ,-0.8  ,4.9
858  ,5.855e+08   ,-2.5  ,-1  ,4.9
859  ,5.539e+08   ,-2.5  ,-1.2  ,4.9
860  ,4.553e+08   ,-2.5  ,-1.4  ,4.9
861  ,4.470e+08   ,-2.5  ,-1.6  ,4.9
862  ,5.278e+08   ,-2.5  ,-1.8  ,4.9
863  ,6.208e+08   ,-2.5  ,-2  ,4.9
864  ,5.925e+08   ,-2.5  ,-2.2  ,4.9
865  ,3.573e+08   ,-2.5  ,2.4  ,4.7
866  ,6.900e+08   ,-2.5  ,2.4  ,4.5
867  ,8.011e+08   ,-2.5  ,2.4  ,4.3
868  ,6.944e+08   ,-2.5  ,2.4  ,4.1
869  ,7.999e+08   ,-2.5  ,2.4  ,3.9
870  ,8.746e+08   ,-2.5  ,2.4  ,3.7
871  ,1.009e+09   ,-2.5  ,2.4  ,3.5
872  ,1.074e+09   ,-2.5  ,2.4  ,3.3
873  ,1.083e+09   ,-2.5  ,2.4  ,3.1
874  ,1.152e+09   ,-2.5  ,2.4  ,2.9
875  ,1.173e+09   ,-2.5  ,2.4  ,2.7
876  ,1.266e+09   ,-2.5  ,2.4  ,2.5
877  ,1.216e+09   ,-2.5  ,2.4  ,2.3
878  ,1.231e+09   ,-2.5  ,2.4  ,2.1
879  ,1.218e+09   ,-2.5  ,2.4  ,1.9
880  ,1.229e+09   ,-2.5  ,2.4  ,1.7
881  ,9.438e+08   ,-2.5  ,2.4  ,1.5
882  ,9.437e+08   ,-2.5  ,2.4  ,1.3
883  ,7.841e+08   ,-2.5  ,2.4  ,1.1
884  ,7.327e+08   ,-2.5  ,2.4  ,0.9
885  ,5.858e+08   ,-2.5  ,2.4  ,0.7
886  ,4.160e+08   ,-2.5  ,2.4  ,0.5
887  ,1.754e+08   ,-2.5  ,2.4  ,0.3
1044  ,3.312e+08   ,-2.3  ,-2.5  ,0.44697
1045  ,4.800e+08   ,-2.3  ,-2.5  ,0.68705
1046  ,4.440e+08   ,-2.3  ,-2.5  ,0.92554
1047  ,4.397e+08   ,-2.3  ,-2.5  ,1.1682
1048  ,3.267e+08   ,-2.3  ,-2.5  ,1.4148
1049  ,2.703e+08   ,-2.3  ,-2.5  ,1.6581
1050  ,6.271e+08   ,-2.3  ,-2.5  ,1.8967
1051  ,1.006e+09   ,-2.3  ,-2.5  ,2.1357
1052  ,1.222e+09   ,-2.3  ,-2.5  ,2.3794
1053  ,1.297e+09   ,-2.3  ,-2.5  ,2.6206
1054  ,1.155e+09   ,-2.3  ,-2.5  ,2.8643
1055  ,8.247e+08   ,-2.3  ,-2.5  ,3.1033
1056  ,3.341e+08   ,-2.3  ,-2.5  ,3.342
1057  ,4.747e+08   ,-2.3  ,-2.5  ,3.5852
1058  ,8.363e+08   ,-2.3  ,-2.5  ,3.8318
1059  ,8.179e+08   ,-2.3  ,-2.5  ,4.0745
1060  ,5.193e+08   ,-2.3  ,-2.5  ,4.3129
1061  ,2.746e+08   ,-2.3  ,-2.5  ,4.553
1062  ,1.737e+09   ,-2.053  ,-2.5  ,4.8
1063  ,1.042e+09   ,-1.8129  ,-2.5  ,4.8
1064  ,4.044e+08   ,-1.5745  ,-2.5  ,4.8
1065  ,6.088e+08   ,-1.3318  ,-2.5  ,4.8
1066  ,4.586e+08   ,-1.0852  ,-2.5  ,4.8
1067  ,2.617e+08   ,-0.84195  ,-2.5  ,4.8
1068  ,7.179e+08   ,-0.60329  ,-2.5  ,4.8
1069  ,1.344e+09   ,-0.3643  ,-2.5  ,4.8
1070  ,1.373e+09   ,-0.12055  ,-2.5  ,4.8
1071  ,1.399e+09   ,0.12056  ,-2.5  ,4.8
1072  ,1.416e+09   ,0.3643  ,-2.5  ,4.8
1073  ,9.867e+08   ,0.6033  ,-2.5  ,4.8
1074  ,1.933e+08   ,0.84195  ,-2.5  ,4.8
1075  ,1.161e+08   ,1.0852  ,-2.5  ,4.8
1076  ,4.701e+08   ,1.3318  ,-2.5  ,4.8
1077  ,6.822e+08   ,1.5745  ,-2.5  ,4.8
1078  ,7.413e+08   ,1.8129  ,-2.5  ,4.8
1079  ,2.785e+09   ,2.053  ,-2.5  ,4.8
1080  ,2.830e+09   ,2.3  ,-2.5  ,4.553
1081  ,6.146e+08   ,2.3  ,-2.5  ,4.3129
1082  ,6.106e+08   ,2.3  ,-2.5  ,4.0745
1083  ,4.707e+08   ,2.3  ,-2.5  ,3.8318
1084  ,7.663e+07   ,2.3  ,-2.5  ,3.5852
1085  ,3.219e+08   ,2.3  ,-2.5  ,3.3419
1086  ,9.019e+08   ,2.3  ,-2.5  ,3.1033
1087  ,1.365e+09   ,2.3  ,-2.5  ,2.8643
1088  ,1.362e+09   ,2.3  ,-2.5  ,2.6206
1089  ,1.353e+09   ,2.3  ,-2.5  ,2.3794
1090  ,1.416e+09   ,2.3  ,-2.5  ,2.1357
1091  ,8.021e+08   ,2.3  ,-2.5  ,1.8967
1092  ,3.262e+08   ,2.3  ,-2.5  ,1.658
1093  ,4.188e+08   ,2.3  ,-2.5  ,1.4148
1094  ,4.325e+08   ,2.3  ,-2.5  ,1.1682
1095  ,3.652e+08   ,2.3  ,-2.5  ,0.92554
1096  ,9.702e+08   ,2.3  ,-2.5  ,0.68705
1097  ,1.794e+09   ,2.3  ,-2.5  ,0.44697
1098  ,3.642e+08   ,-2.053  ,-2.5  ,0.2
1099  ,3.054e+08   ,-1.8129  ,-2.5  ,0.2
1100  ,3.101e+08   ,-1.5745  ,-2.5  ,0.2
1101  ,3.808e+08   ,-1.3318  ,-2.5  ,0.2
1102  ,2.951e+08   ,-1.0852  ,-2.5  ,0.2
1103  ,2.256e+08   ,-0.84195  ,-2.5  ,0.2
1104  ,5.870e+08   ,-0.60329  ,-2.5  ,0.2
1105  ,9.922e+08   ,-0.3643  ,-2.5  ,0.2
1106  ,1.229e+09   ,-0.12055  ,-2.5  ,0.2
1107  ,1.329e+09   ,0.12056  ,-2.5  ,0.2
1108  ,1.110e+09   ,0.3643  ,-2.5  ,0.2
1109  ,7.634e+08   ,0.6033  ,-2.5  ,0.2
1110  ,4.087e+08   ,0.84195  ,-2.5  ,0.2
1111  ,3.916e+08   ,1.0852  ,-2.5  ,0.2
1112  ,8.582e+08   ,1.3318  ,-2.5  ,0.2
1113  ,8.938e+08   ,1.5745  ,-2.5  ,0.2
1114  ,6.788e+08   ,1.8129  ,-2.5  ,0.2
1115  ,4.048e+08   ,2.053  ,-2.5  ,0.2
1116  ,3.958e+08   ,-2.2  ,-2.5  ,4.9
1117  ,1.899e+08   ,-2  ,-2.5  ,4.9
1118  ,2.660e+08   ,-1.8  ,-2.5  ,4.9
1119  ,1.645e+08   ,-1.6  ,-2.5  ,4.9
1120  ,6.190e+08   ,-1.4  ,-2.5  ,4.9
1121  ,7.253e+08   ,-1.2  ,-2.5  ,4.9
1122  ,6.483e+08   ,-1  ,-2.5  ,4.9
1123  ,5.920e+08   ,-0.8  ,-2.5  ,4.9
1124  ,7.654e+08   ,-0.6  ,-2.5  ,4.9
1125  ,8.582e+08   ,-0.4  ,-2.5  ,4.9
1126  ,8.312e+08   ,-0.2  ,-2.5  ,4.9
1127  ,9.515e+08   ,-1.7664E-15  ,-2.5  ,4.9
1128  ,1.045e+09   ,0.2  ,-2.5  ,4.9
1129  ,1.270e+09   ,0.4  ,-2.5  ,4.9
1130  ,1.382e+09   ,0.6  ,-2.5  ,4.9
1131  ,1.210e+09   ,0.8  ,-2.5  ,4.9
1132  ,1.036e+09   ,1  ,-2.5  ,4.9
1133  ,1.100e+09   ,1.2  ,-2.5  ,4.9
1134  ,1.011e+09   ,1.4  ,-2.5  ,4.9
1135  ,1.254e+09   ,1.6  ,-2.5  ,4.9
1136  ,1.406e+09   ,1.8  ,-2.5  ,4.9
1137  ,1.401e+09   ,2  ,-2.5  ,4.9
1138  ,1.162e+09   ,2.2  ,-2.5  ,4.9
1139  ,9.253e+08   ,-2.4  ,-2.5  ,4.7
1140  ,6.385e+08   ,-2.4  ,-2.5  ,4.5
1141  ,6.030e+08   ,-2.4  ,-2.5  ,4.3
1142  ,5.722e+08   ,-2.4  ,-2.5  ,4.1
1143  ,7.442e+08   ,-2.4  ,-2.5  ,3.9
1144  ,1.017e+09   ,-2.4  ,-2.5  ,3.7
1145  ,8.920e+08   ,-2.4  ,-2.5  ,3.5
1146  ,1.058e+09   ,-2.4  ,-2.5  ,3.3
1147  ,1.013e+09   ,-2.4  ,-2.5  ,3.1
1148  ,1.009e+09   ,-2.4  ,-2.5  ,2.9
1149  ,9.233e+08   ,-2.4  ,-2.5  ,2.7
1150  ,9.003e+08   ,-2.4  ,-2.5  ,2.5
1151  ,8.246e+08   ,-2.4  ,-2.5  ,2.3
1152  ,7.816e+08   ,-2.4  ,-2.5  ,2.1
1153  ,7.084e+08   ,-2.4  ,-2.5  ,1.9
1154  ,6.199e+08   ,-2.4  ,-2.5  ,1.7
1155  ,5.655e+08   ,-2.4  ,-2.5  ,1.5
1156  ,5.326e+08   ,-2.4  ,-2.5  ,1.3
1157  ,3.911e+08   ,-2.4  ,-2.5  ,1.1
1158  ,3.456e+08   ,-2.4  ,-2.5  ,0.9
1159  ,3.751e+08   ,-2.4  ,-2.5  ,0.7
1160  ,2.865e+08   ,-2.4  ,-2.5  ,0.5
1161  ,3.085e+08   ,-2.4  ,-2.5  ,0.3
1162  ,2.733e+08   ,-2.2  ,-2.5  ,0.1
1163  ,1.631e+08   ,-2  ,-2.5  ,0.1
1164  ,1.531e+08   ,-1.8  ,-2.5  ,0.1
1165  ,2.911e+08   ,-1.6  ,-2.5  ,0.1
1166  ,4.089e+08   ,-1.4  ,-2.5  ,0.1
1167  ,5.202e+08   ,-1.2  ,-2.5  ,0.1
1168  ,5.428e+08   ,-1  ,-2.5  ,0.1
1169  ,5.819e+08   ,-0.8  ,-2.5  ,0.1
1170  ,6.700e+08   ,-0.6  ,-2.5  ,0.1
1171  ,7.518e+08   ,-0.4  ,-2.5  ,0.1
1172  ,8.236e+08   ,-0.2  ,-2.5  ,0.1
1173  ,8.613e+08   ,-1.7664E-15  ,-2.5  ,0.1
1174  ,8.976e+08   ,0.2  ,-2.5  ,0.1
1175  ,9.998e+08   ,0.4  ,-2.5  ,0.1
1176  ,1.076e+09   ,0.6  ,-2.5  ,0.1
1177  ,9.842e+08   ,0.8  ,-2.5  ,0.1
1178  ,9.817e+08   ,1  ,-2.5  ,0.1
1179  ,9.379e+08   ,1.2  ,-2.5  ,0.1
1180  ,7.108e+08   ,1.4  ,-2.5  ,0.1
1181  ,6.260e+08   ,1.6  ,-2.5  ,0.1
1182  ,6.072e+08   ,1.8  ,-2.5  ,0.1
1183  ,5.728e+08   ,2  ,-2.5  ,0.1
1184  ,8.331e+08   ,2.2  ,-2.5  ,0.1
1185  ,1.283e+09   ,2.4  ,-2.5  ,4.7
1186  ,1.426e+09   ,2.4  ,-2.5  ,4.5
1187  ,1.341e+09   ,2.4  ,-2.5  ,4.3
1188  ,1.071e+09   ,2.4  ,-2.5  ,4.1
1189  ,1.229e+09   ,2.4  ,-2.5  ,3.9
1190  ,1.115e+09   ,2.4  ,-2.5  ,3.7
1191  ,1.039e+09   ,2.4  ,-2.5  ,3.5
1192  ,1.231e+09   ,2.4  ,-2.5  ,3.3
1193  ,1.353e+09   ,2.4  ,-2.5  ,3.1
1194  ,1.166e+09   ,2.4  ,-2.5  ,2.9
1195  ,9.147e+08   ,2.4  ,-2.5  ,2.7
1196  ,9.128e+08   ,2.4  ,-2.5  ,2.5
1197  ,9.132e+08   ,2.4  ,-2.5  ,2.3
1198  ,9.679e+08   ,2.4  ,-2.5  ,2.1
1199  ,8.409e+08   ,2.4  ,-2.5  ,1.9
1200  ,6.350e+08   ,2.4  ,-2.5  ,1.7
1201  ,6.020e+08   ,2.4  ,-2.5  ,1.5
1202  ,6.036e+08   ,2.4  ,-2.5  ,1.3
1203  ,4.842e+08   ,2.4  ,-2.5  ,1.1
1204  ,2.269e+08   ,2.4  ,-2.5  ,0.9
1205  ,3.175e+08   ,2.4  ,-2.5  ,0.7
1206  ,3.377e+08   ,2.4  ,-2.5  ,0.5
1207  ,3.394e+08   ,2.4  ,-2.5  ,0.3
1208  ,6.005e+08   ,2.4  ,-2.2  ,0
1209  ,6.186e+08   ,2.4  ,-2  ,0
1210  ,5.087e+08   ,2.4  ,-1.8  ,0
1211  ,4.721e+08   ,2.4  ,-1.6  ,0
1212  ,5.096e+08   ,2.4  ,-1.4  ,0
1213  ,5.308e+08   ,2.4  ,-1.2  ,0
1214  ,6.183e+08   ,2.4  ,-1  ,0
1215  ,6.993e+08   ,2.4  ,-0.8  ,0
1216  ,6.214e+08   ,2.4  ,-0.6  ,0
1217  ,6.753e+08   ,2.4  ,-0.4  ,0
1218  ,8.107e+08   ,2.4  ,-0.2  ,0
1219  ,9.061e+08   ,2.4  ,-1.7664E-15  ,0
1220  ,9.854e+08   ,2.4  ,0.2  ,0
1221  ,8.670e+08   ,2.4  ,0.4  ,0
1222  ,7.824e+08   ,2.4  ,0.6  ,0
1223  ,7.053e+08   ,2.4  ,0.8  ,0
1224  ,7.014e+08   ,2.4  ,1  ,0
1225  ,7.106e+08   ,2.4  ,1.2  ,0
1226  ,7.052e+08   ,2.4  ,1.4  ,0
1227  ,6.078e+08   ,2.4  ,1.6  ,0
1228  ,5.567e+08   ,2.4  ,1.8  ,0
1229  ,3.798e+08   ,2.4  ,2  ,0
1230  ,1.787e+08   ,2.4  ,2.2  ,0
1231  ,3.374e+08   ,-2.2  ,-2.4  ,0
1232  ,2.626e+08   ,-2  ,-2.4  ,0
1233  ,1.444e+08   ,-1.8  ,-2.4  ,0
1234  ,2.769e+08   ,-1.6  ,-2.4  ,0
1235  ,4.079e+08   ,-1.4  ,-2.4  ,0
1236  ,5.739e+08   ,-1.2  ,-2.4  ,0
1237  ,7.503e+08   ,-1  ,-2.4  ,0
1238  ,7.999e+08   ,-0.8  ,-2.4  ,0
1239  ,6.335e+08   ,-0.6  ,-2.4  ,0
1240  ,4.812e+08   ,-0.4  ,-2.4  ,0
1241  ,4.257e+08   ,-0.2  ,-2.4  ,0
1242  ,3.997e+08   ,5.8879E-16  ,-2.4  ,0
1243  ,5.033e+08   ,0.2  ,-2.4  ,0
1244  ,8.619e+08   ,0.4  ,-2.4  ,0
1245  ,1.154e+09   ,0.6  ,-2.4  ,0
1246  ,1.453e+09   ,0.8  ,-2.4  ,0
1247  ,1.805e+09   ,1  ,-2.4  ,0
1248  ,2.187e+09   ,1.2  ,-2.4  ,0
1249  ,2.142e+09   ,1.4  ,-2.4  ,0
1250  ,1.858e+09   ,1.6  ,-2.4  ,0
1251  ,1.268e+09   ,1.8  ,-2.4  ,0
1252  ,8.659e+08   ,2  ,-2.4  ,0
1253  ,8.437e+08   ,2.2  ,-2.4  ,0
1254  ,2.752e+08   ,-2.4  ,2.2  ,0
1255  ,5.133e+08   ,-2.4  ,2  ,0
1256  ,8.208e+08   ,-2.4  ,1.8  ,0
1257  ,9.698e+08   ,-2.4  ,1.6  ,0
1258  ,1.167e+09   ,-2.4  ,1.4  ,0
1259  ,1.331e+09   ,-2.4  ,1.2  ,0
1260  ,1.439e+09   ,-2.4  ,1  ,0
1261  ,1.500e+09   ,-2.4  ,0.8  ,0
1262  ,1.625e+09   ,-2.4  ,0.6  ,0
1263  ,1.621e+09   ,-2.4  ,0.4  ,0
1264  ,1.561e+09   ,-2.4  ,0.2  ,0
1265  ,1.460e+09   ,-2.4  ,5.8879E-16  ,0
1266  ,1.179e+09   ,-2.4  ,-0.2  ,0
1267  ,8.576e+08   ,-2.4  ,-0.4  ,0
1268  ,7.254e+08   ,-2.4  ,-0.6  ,0
1269  ,6.765e+08   ,-2.4  ,-0.8  ,0
1270  ,6.646e+08   ,-2.4  ,-1  ,0
1271  ,5.670e+08   ,-2.4  ,-1.2  ,0
1272  ,3.443e+08   ,-2.4  ,-1.4  ,0
1273  ,2.400e+08   ,-2.4  ,-1.6  ,0
1274  ,2.698e+08   ,-2.4  ,-1.8  ,0
1275  ,2.455e+08   ,-2.4  ,-2  ,0
1276  ,1.409e+08   ,-2.4  ,-2.2  ,0
1277  ,1.762e+08   ,2.2  ,2.4  ,0
1278  ,5.627e+08   ,2  ,2.4  ,0
1279  ,7.424e+08   ,1.8  ,2.4  ,0
1280  ,6.925e+08   ,1.6  ,2.4  ,0
1281  ,7.513e+08   ,1.4  ,2.4  ,0
1282  ,9.562e+08   ,1.2  ,2.4  ,0
1283  ,1.101e+09   ,1  ,2.4  ,0
1284  ,1.041e+09   ,0.8  ,2.4  ,0
1285  ,1.130e+09   ,0.6  ,2.4  ,0
1286  ,1.092e+09   ,0.4  ,2.4  ,0
1287  ,1.174e+09   ,0.2  ,2.4  ,0
1288  ,1.217e+09   ,5.8879E-16  ,2.4  ,0
1289  ,1.406e+09   ,-0.2  ,2.4  ,0
1290  ,1.348e+09   ,-0.4  ,2.4  ,0
1291  ,1.299e+09   ,-0.6  ,2.4  ,0
1292  ,1.187e+09   ,-0.8  ,2.4  ,0
1293  ,9.013e+08   ,-1  ,2.4  ,0
1294  ,8.559e+08   ,-1.2  ,2.4  ,0
1295  ,7.493e+08   ,-1.4  ,2.4  ,0
1296  ,7.143e+08   ,-1.6  ,2.4  ,0
1297  ,6.415e+08   ,-1.8  ,2.4  ,0
1298  ,4.716e+08   ,-2  ,2.4  ,0
1299  ,2.100e+08   ,-2.2  ,2.4  ,0
1460  ,1.116e+10   ,2.3243  ,2.3243  ,4.9577
1461  ,1.005e+10   ,2.4577  ,2.3243  ,4.8243
1462  ,7.344e+09   ,2.3243  ,2.4577  ,4.8243
1463  ,7.700e+08   ,-2.3  ,-2.1759  ,4.8
1464  ,1.162e+09   ,-2.3  ,-1.7631  ,4.8
1465  ,1.814e+09   ,-2.3  ,-1.1827  ,4.8
1466  ,1.770e+09   ,-2.3  ,-0.34986  ,4.8
1467  ,2.325e+09   ,-2.3  ,0.80545  ,4.8
1468  ,2.275e+09   ,-0.81337  ,2.3  ,4.8
1469  ,4.832e+09   ,0.67326  ,2.3  ,4.8
1470  ,1.676e+09   ,2.3  ,-2.1824  ,4.8
1471  ,7.822e+08   ,2.3  ,-1.7784  ,4.8
1472  ,1.295e+09   ,2.3  ,-1.2138  ,4.8
1473  ,2.236e+09   ,2.3  ,-0.40752  ,4.8
1474  ,4.210e+09   ,2.3  ,0.70532  ,4.8
1516  ,2.138e+09   ,2.3  ,2.3  ,1.6866
1517  ,4.663e+09   ,2.3  ,2.3  ,3.1733
1518  ,8.570e+08   ,2.3  ,-2.1759  ,0.2
1519  ,1.197e+09   ,2.3  ,-1.7631  ,0.2
1520  ,1.958e+09   ,2.3  ,-1.1827  ,0.2
1521  ,1.696e+09   ,2.3  ,-0.34986  ,0.2
1522  ,2.336e+09   ,2.3  ,0.80545  ,0.2
1564  ,1.951e+09   ,-0.76667  ,2.3  ,0.2
1565  ,2.229e+09   ,0.76667  ,2.3  ,0.2
1566  ,1.927e+09   ,-2.3  ,2.3  ,1.7333
1567  ,2.285e+09   ,-2.3  ,2.3  ,3.2667
1574  ,3.979e+08   ,-2.3  ,-2.1759  ,0.2
1575  ,1.486e+08   ,-2.3  ,-1.7631  ,0.2
1576  ,2.708e+08   ,-2.3  ,-1.1827  ,0.2
1577  ,7.994e+08   ,-2.3  ,-0.34986  ,0.2
1578  ,7.456e+08   ,-2.3  ,0.80545  ,0.2
1777  ,2.497e+09   ,-0.52764  ,2.5  ,4.9
1801  ,6.138e+08   ,-2.3  ,1.5527  ,0.2
1825  ,1.833e+09   ,-1.5333  ,2.3  ,0.2
1841  ,2.398e+09   ,0.063638  ,2.5  ,4.9
1876  ,1.308e+09   ,-0.5  ,2.4  ,0
1894  ,2.132e+09   ,2.3  ,1.5527  ,0.2
1907  ,4.697e+08   ,2.1  ,2.5  ,0.1
1928  ,6.318e+08   ,1.9  ,2.4  ,0
1974  ,7.157e+08   ,2.4  ,1.1  ,0
1981  ,7.159e+08   ,2.4  ,2.5  ,0.59273
1987  ,7.685e+08   ,-2.5  ,2.4  ,4
2004  ,4.432e+08   ,-2.4  ,2.5  ,4.6
2009  ,6.818e+08   ,2.4  ,1.3  ,0
2020  ,6.200e+08   ,2.5  ,1.1  ,0.1
2035  ,5.577e+08   ,-2.3  ,-0.76628  ,0.2
2070  ,6.417e+09   ,1.6404  ,2.4  ,5
2081  ,1.752e+09   ,2.4  ,2.5  ,1.9724
2095  ,9.387e+08   ,2.4  ,2.5  ,0.78982
2138  ,1.317e+09   ,-2.4  ,-0.1  ,0
2146  ,2.014e+09   ,-0.92182  ,2.4  ,5
2174  ,1.543e+09   ,2.4  ,2.5  ,1.184
2190  ,1.239e+09   ,2.5  ,2.4  ,0.98691
2203  ,2.170e+09   ,2.5  ,-0.13345  ,4.9
2232  ,4.410e+09   ,2.3  ,0.1489  ,4.8
2242  ,2.915e+09   ,2.4  ,2.5  ,2.9578
2293  ,1.617e+09   ,-2.5  ,0.5  ,0.1
2311  ,5.213e+09   ,2.3  ,2.3  ,2.4299
2313  ,1.163e+09   ,2.5  ,2.4  ,0.78982
2329  ,1.902e+09   ,2.4  ,2.5  ,2.1695
2355  ,5.878e+08   ,-2.4  ,2.5  ,4.4
2380  ,2.816e+08   ,-2.5  ,-1.5  ,0.1
2383  ,3.045e+09   ,0.45782  ,2.5  ,4.9
2408  ,1.557e+09   ,2.3  ,-1.4961  ,4.8
2445  ,1.189e+09   ,2.5  ,-1.5131  ,4.9
2484  ,8.417e+08   ,-2.5  ,-2.4  ,1.6
2495  ,3.980e+08   ,-2.4  ,1.7  ,5
2508  ,9.399e+08   ,2.4  ,0.3  ,0
2514  ,2.341e+09   ,2.3  ,0.2278  ,0.2
2570  ,4.387e+08   ,-2.4  ,1.5  ,5
2580  ,6.355e+09   ,1.6404  ,2.5  ,4.9
2603  ,2.232e+09   ,-1.1189  ,2.5  ,4.9
2695  ,1.471e+09   ,2.3  ,2.3  ,0.94331
2705  ,2.061e+09   ,2.4  ,2.5  ,1.3811
2714  ,2.226e+09   ,2.5  ,0.45782  ,4.9
2734  ,6.337e+08   ,2.4  ,-0.9  ,0
2775  ,9.877e+08   ,2.5  ,-0.1  ,0.1
2779  ,8.551e+08   ,2.4  ,-0.1  ,0
2801  ,9.140e+09   ,1.4166  ,2.3  ,4.8
2814  ,4.626e+09   ,1.4433  ,2.5  ,4.9
2863  ,6.846e+08   ,-2.4  ,2.5  ,0.6
2884  ,7.742e+08   ,-2.4  ,2.5  ,0.8
2886  ,1.039e+09   ,-2.4  ,2.5  ,1.2
2967  ,5.307e+08   ,2.4  ,1.7  ,0
2973  ,5.643e+08   ,2.5  ,1.5  ,0.1
2987  ,1.088e+09   ,-0.3  ,2.5  ,0.1
3008  ,1.840e+09   ,-2.3  ,2.3  ,0.96667
3012  ,1.215e+09   ,-2.5  ,2.4  ,2.6
3021  ,1.118e+09   ,-2.5  ,2.4  ,2.8
3025  ,1.243e+09   ,-2.5  ,2.4  ,2.4
3030  ,1.337e+09   ,-2.4  ,2.5  ,2.4
3033  ,1.288e+09   ,-2.4  ,2.5  ,2.2
3047  ,2.050e+09   ,2.4  ,2.5  ,2.3665
3052  ,2.353e+09   ,2.5  ,2.4  ,2.5636
3061  ,2.332e+09   ,2.4  ,2.5  ,2.5636
3081  ,5.168e+08   ,-2.4  ,1.3  ,5
3088  ,5.283e+08   ,-1.9073  ,2.4  ,5
3099  ,4.508e+08   ,-2.4  ,1.9  ,5
3107  ,5.696e+08   ,-2.4  ,2.5  ,3.8
3139  ,1.244e+09   ,-1.5131  ,2.4  ,5
3145  ,1.357e+09   ,-1.5131  ,2.5  ,4.9
3148  ,9.766e+08   ,-1.7102  ,2.5  ,4.9
3168  ,1.072e+09   ,-2.4  ,1.5  ,0
3188  ,2.533e+08   ,-2.5  ,-2.4  ,1
3202  ,2.422e+09   ,0.26073  ,2.5  ,4.9
3212  ,6.829e+09   ,2.5  ,1.6404  ,4.9
3247  ,1.165e+10   ,2.5  ,1.8375  ,4.9
3265  ,9.195e+09   ,2.3  ,1.4326  ,4.8
3271  ,1.480e+10   ,2.2299  ,2.2299  ,4.8
3284  ,4.791e+09   ,2.4  ,1.4433  ,5
3291  ,4.957e+09   ,2.5  ,1.4433  ,4.9
3296  ,2.174e+09   ,-2.3  ,-0.76628  ,4.8
3303  ,6.784e+08   ,-2.4  ,-0.9  ,5
3311  ,6.373e+08   ,-2.4  ,-0.7  ,5
3315  ,5.345e+08   ,1.9  ,2.5  ,0.1
3336  ,1.588e+09   ,-2.4  ,0.3  ,0
3340  ,1.438e+09   ,-2.5  ,0.1  ,0.1
3344  ,1.505e+09   ,-2.4  ,0.1  ,0
3356  ,1.355e+09   ,-0.3  ,2.4  ,0
3361  ,2.044e+09   ,-0.33054  ,2.5  ,4.9
3364  ,2.165e+09   ,-0.13345  ,2.5  ,4.9
3383  ,3.197e+09   ,2.4  ,2.5  ,3.5491
3402  ,1.678e+10   ,2.4  ,2.5  ,4.5345
3421  ,1.770e+09   ,-1.316  ,2.5  ,4.9
3439  ,4.406e+09   ,2.5  ,2.4  ,3.9433
3447  ,4.820e+09   ,2.4  ,2.5  ,3.9433
3451  ,3.601e+09   ,2.4  ,2.5  ,3.7462
3468  ,4.784e+09   ,1.4433  ,2.4  ,5
3480  ,3.290e+09   ,1.0491  ,2.4  ,5
3519  ,6.954e+08   ,1.5  ,2.4  ,0
3527  ,1.929e+09   ,2.3  ,-1.4729  ,0.2
3550  ,6.694e+08   ,-1.7  ,2.4  ,0
3554  ,7.729e+08   ,-1.7  ,2.5  ,0.1
3558  ,7.116e+08   ,-1.5  ,2.4  ,0
3562  ,8.782e+08   ,-1.5  ,2.5  ,0.1
3574  ,4.117e+08   ,-2.4  ,2.1  ,5
3581  ,8.852e+08   ,-2.5  ,1.7  ,0.1
3583  ,6.902e+08   ,-2.5  ,1.9  ,0.1
3584  ,5.877e+08   ,-1.9073  ,2.5  ,4.9
3591  ,1.074e+09   ,2.5  ,0.3  ,0.1
3595  ,1.040e+09   ,2.5  ,0.1  ,0.1
3603  ,1.774e+10   ,2.4577  ,2.391  ,4.7576
3663  ,3.344e+08   ,-1.933  ,-2.5  ,0.2
3669  ,3.123e+08   ,-2.1765  ,-2.5  ,0.2
3672  ,2.281e+08   ,-2.3  ,-2.3379  ,0.2
3682  ,1.804e+08   ,-1.9  ,-2.4  ,0
3700  ,1.408e+09   ,2.3  ,-2.5  ,2.7424
3712  ,2.984e+08   ,-2.1  ,-2.5  ,4.9
3715  ,1.955e+08   ,-1.9  ,-2.5  ,4.9
3740  ,9.353e+08   ,-1.3  ,-2.4  ,5
3746  ,5.447e+08   ,-1.2085  ,-2.5  ,4.8
3755  ,6.557e+08   ,-1.5  ,-2.4  ,5
3760  ,1.710e+08   ,-1.7  ,-2.5  ,4.9
3786  ,1.963e+09   ,2.4  ,2.5  ,1.5782
3813  ,2.795e+09   ,0.26073  ,2.4  ,5
3858  ,8.433e+08   ,-0.9  ,-2.4  ,5
3863  ,8.405e+08   ,-2.5  ,0.9  ,4.9
3875  ,1.103e+09   ,-1.9  ,-2.4  ,5
3885  ,1.525e+09   ,2.4  ,-0.72473  ,5
3910  ,1.012e+09   ,-2.4  ,-2.5  ,3.4
3959  ,7.051e+09   ,2.5  ,2.4  ,4.1404
3969  ,2.890e+09   ,2.5  ,1.0491  ,4.9
3992  ,1.512e+10   ,2.391  ,2.2576  ,4.9577
3993  ,1.771e+10   ,2.4577  ,2.2576  ,4.891
4016  ,2.150e+08   ,-2.3015  ,2.5  ,4.9
4018  ,2.133e+08   ,-2.4  ,2.5  ,4.8
4021  ,3.724e+09   ,1.2462  ,2.4  ,5
4042  ,5.838e+08   ,2.4  ,-1.1  ,0
4046  ,9.931e+08   ,-0.9  ,2.4  ,0
4055  ,1.358e+09   ,1.7  ,-2.5  ,4.9
4087  ,7.266e+08   ,1.7  ,2.4  ,0
4114  ,1.699e+09   ,2.5  ,-0.33054  ,4.9
4120  ,7.563e+08   ,2.4  ,-2.5  ,1.8
4125  ,9.394e+08   ,2.4  ,2.5  ,0.98691
4144  ,1.129e+10   ,2.4  ,2.5  ,4.3375
4161  ,1.157e+09   ,-2.4  ,0.3  ,5
4201  ,5.356e+08   ,1.933  ,-2.5  ,0.2
4225  ,2.273e+08   ,-2.3  ,-2.4  ,0
4230  ,4.816e+08   ,-2.3  ,-2.5  ,0.56701
4269  ,6.238e+08   ,-0.9  ,-2.5  ,4.9
4277  ,9.579e+08   ,-1.1  ,-2.4  ,5
4288  ,4.550e+09   ,-0.070055  ,2.3  ,4.8
4328  ,1.579e+09   ,-2.5  ,-2.4  ,4.2
4336  ,1.029e+09   ,-2.5  ,-2.4  ,4.4
4342  ,2.016e+08   ,-2.5  ,-2.4  ,4.6
4348  ,1.023e+09   ,-2.4  ,-2.4707  ,4.9707
4352  ,5.969e+08   ,-2.3  ,-2.5  ,4.9
4354  ,1.946e+09   ,-2.1765  ,-2.5  ,4.8
4355  ,1.044e+09   ,-2.3  ,-2.3379  ,4.8
4362  ,6.314e+08   ,2.5  ,2.4  ,0.59273
4364  ,5.699e+08   ,2.5  ,-2.4  ,2.4
4366  ,5.284e+08   ,2.5  ,-2.4  ,2.2
4372  ,9.442e+08   ,2.4  ,-2.5  ,2.2
4385  ,2.666e+08   ,-2.5  ,-1.9  ,0.1
4399  ,3.600e+08   ,-2.5  ,2.1  ,0.1
4407  ,7.361e+08   ,-0.7  ,-2.4  ,0
4436  ,1.299e+09   ,-2.5  ,-0.1  ,0.1
4462  ,1.935e+09   ,-2.3  ,2.3  ,4.0333
4491  ,1.499e+09   ,2.5  ,-0.52764  ,4.9
4494  ,7.906e+08   ,2.5  ,-2.4  ,1.4
4503  ,5.722e+08   ,2.4  ,-2.5  ,1.4
4508  ,5.435e+08   ,2.4  ,-2.5  ,1.2
4515  ,8.992e+08   ,2.5  ,-2.4  ,1.8
4517  ,5.961e+08   ,2.4  ,-2.5  ,1.6
4522  ,1.249e+09   ,0.7  ,-2.4  ,0
4538  ,1.821e+09   ,-1.1189  ,2.4  ,5
4546  ,6.196e+09   ,2.4  ,2.5  ,4.1404
4559  ,1.544e+09   ,1.7  ,-2.4  ,0
4590  ,1.024e+09   ,0.5  ,-2.4  ,0
4631  ,8.871e+08   ,2.4  ,-2.5  ,2.6
4634  ,6.654e+08   ,2.5  ,-2.4  ,2.8
4657  ,6.222e+08   ,-2.5  ,-2.4  ,2
4660  ,7.935e+08   ,-2.5  ,-2.4  ,1.8
4664  ,4.786e+08   ,-0.3  ,-2.4  ,0
4675  ,6.628e+08   ,-2.4  ,-2.5  ,4.8
4681  ,1.009e+09   ,-2.5  ,-0.3  ,0.1
4684  ,1.752e+09   ,1.7  ,-2.4  ,5
4703  ,1.105e+09   ,-2.4  ,0.7  ,5
4707  ,8.726e+08   ,-2.5  ,0.3  ,4.9
4714  ,1.466e+09   ,2.4  ,-0.33054  ,5
4723  ,1.956e+09   ,-1.5567  ,2.3  ,4.8
4739  ,3.911e+08   ,-2.1044  ,2.5  ,4.9
4763  ,4.798e+08   ,-1.9  ,2.4  ,0
4780  ,3.593e+08   ,-2.3  ,-1.9695  ,0.2
4782  ,8.363e+07   ,-2.4707  ,-2.4  ,0.029289
4784  ,2.449e+08   ,-2.4  ,-1.9  ,0
4791  ,6.568e+08   ,-2.4  ,-2.5  ,1.8
4796  ,2.086e+09   ,2.4707  ,-2.4707  ,4.9
4799  ,2.236e+09   ,2.5  ,-2.4  ,4.8
4806  ,1.187e+09   ,2.3  ,-2.5  ,4.9
4809  ,9.492e+09   ,2.3  ,2.3  ,3.9166
4833  ,4.692e+08   ,-2.4  ,2.5  ,0.4
4841  ,1.300e+09   ,-2.4  ,2.5  ,2.6
4846  ,3.276e+08   ,-2.5  ,2.1  ,4.9
4848  ,1.233e+08   ,-2.5  ,2.3  ,4.9
4849  ,2.068e+08   ,-2.5  ,2.4  ,4.8
4893  ,6.046e+08   ,-2.4  ,2.5  ,4.2
4897  ,2.031e+10   ,2.3333  ,2.1998  ,5
4900  ,1.692e+10   ,2.391  ,2.4577  ,4.7576
4908  ,1.805e+10   ,2.2576  ,2.391  ,4.9577
4911  ,1.728e+10   ,2.2576  ,2.4577  ,4.891
4926  ,7.264e+08   ,-2.5  ,2.4  ,1
4932  ,1.325e+09   ,-2.4  ,2.5  ,1.6
4937  ,1.133e+09   ,-1.1  ,2.5  ,0.1
4939  ,1.488e+10   ,2.3  ,2.2299  ,4.7299
4944  ,1.501e+09   ,2.5  ,-1.9073  ,4.9
4987  ,2.107e+09   ,-2.3  ,1.5527  ,4.8
5010  ,4.678e+10   ,2.4973  ,2.1331  ,4.923
5013  ,1.556e+10   ,2.5  ,2.0345  ,4.9
5017  ,1.840e+10   ,2.4  ,2.0345  ,5
5035  ,2.120e+09   ,1.3  ,-2.4  ,0
5038  ,6.416e+08   ,1.2085  ,-2.5  ,0.2
5092  ,4.699e+08   ,-2.4  ,-2.5  ,1.2
5123  ,1.193e+09   ,2.5  ,-2.4  ,0.6
5151  ,8.448e+08   ,-2.5  ,-0.5  ,0.1
5160  ,7.638e+08   ,-2.5  ,-0.7  ,0.1
5164  ,8.686e+08   ,-2.4  ,0.9  ,5
5168  ,1.110e+09   ,-2.4  ,0.5  ,5
5176  ,5.555e+08   ,2.5  ,-0.7  ,0.1
5179  ,6.208e+08   ,2.4  ,-0.5  ,0
5189  ,9.205e+08   ,2.4  ,-2.5  ,2.4
5194  ,1.420e+09   ,2.3  ,-2.5  ,2.2576
5198  ,2.470e+08   ,-2.3  ,-2.5  ,0.32348
5205  ,2.013e+08   ,-2.4  ,-2.5  ,0.2
5207  ,2.462e+08   ,-2.1  ,-2.5  ,0.1
5246  ,1.073e+09   ,-2.5  ,2.4  ,3.2
5257  ,5.589e+08   ,-2.5  ,1.5  ,4.9
5263  ,9.027e+08   ,-2.3  ,0.2278  ,0.2
5272  ,1.520e+09   ,-2.5  ,0.3  ,0.1
5275  ,8.472e+08   ,-2.5  ,0.5  ,4.9
5281  ,8.323e+09   ,1.8375  ,2.5  ,4.9
5297  ,1.278e+09   ,-0.9  ,2.5  ,0.1
5306  ,1.218e+09   ,-0.7  ,2.4  ,0
5309  ,1.214e+09   ,-0.5  ,2.5  ,0.1
5324  ,2.505e+09   ,2.4  ,2.5  ,2.7607
5332  ,7.018e+08   ,2.5  ,-2.4  ,0.8
5334  ,3.546e+08   ,2.4  ,-2.5  ,1
5360  ,1.256e+09   ,2.4  ,-1.7102  ,5
5362  ,1.269e+09   ,2.4  ,-1.5131  ,5
5368  ,9.379e+09   ,2.4  ,1.8375  ,5
5371  ,3.864e+10   ,2.4325  ,2.4888  ,4.6656
5372  ,2.617e+10   ,2.3333  ,2.5  ,4.6998
5376  ,3.392e+10   ,2.4707  ,2.4707  ,4.6331
5377  ,2.051e+10   ,2.5  ,2.4  ,4.5345
5379  ,3.803e+08   ,-1.5  ,-2.5  ,4.9
5406  ,1.593e+09   ,-2.5  ,-2.4  ,3.4
5420  ,6.008e+08   ,-2.3  ,-2.5  ,3.2226
5423  ,1.971e+09   ,1.5  ,-2.4  ,0
5502  ,7.101e+07   ,-2.5  ,-2.3  ,0.1
5504  ,1.628e+08   ,-2.5  ,-2.4  ,0.2
5506  ,1.195e+08   ,-2.4  ,-2.3  ,0
5511  ,1.905e+08   ,-2.5  ,-2.1  ,0.1
5513  ,1.613e+09   ,-2.4  ,0.5  ,0
5517  ,5.461e+08   ,-0.9  ,-2.5  ,0.1
5532  ,1.291e+08   ,-2.4707  ,2.4707  ,4.9
5534  ,6.154e+08   ,2.4  ,-0.7  ,0
5551  ,2.350e+09   ,2.5  ,-2.4  ,3.8
5566  ,1.551e+09   ,2.5  ,2.4  ,1.3811
5603  ,7.165e+08   ,2.4  ,-0.3  ,0
5617  ,4.564e+08   ,-2.1  ,2.5  ,0.1
5637  ,8.647e+08   ,-2.3  ,-1.9695  ,4.8
5641  ,1.334e+08   ,2.3  ,-2.5  ,3.4636
5645  ,7.304e+08   ,-2.4  ,-2.5  ,2
5649  ,8.249e+08   ,-2.4  ,-2.5  ,2.2
5659  ,4.161e+08   ,-2.3  ,-2.5  ,1.7774
5662  ,3.718e+09   ,2.1765  ,-2.5  ,4.8
5666  ,1.141e+09   ,2.4  ,-2.5  ,4.8
5669  ,2.359e+09   ,2.3  ,-2.3412  ,4.8
5695  ,1.551e+09   ,-2.4  ,0.7  ,0
5701  ,1.052e+09   ,-2.5  ,2.4  ,1.6
5715  ,1.366e+09   ,-2.4  ,2.5  ,1.8
5726  ,1.289e+09   ,-0.7  ,2.5  ,0.1
5727  ,9.020e+08   ,-1.1  ,2.4  ,0
5730  ,4.610e+08   ,2.3  ,-2.5  ,1.7774
5746  ,1.964e+09   ,2.5  ,2.4  ,1.7753
5755  ,7.745e+08   ,2.5  ,-2.4  ,4.4
5763  ,1.272e+09   ,2.4  ,-2.5  ,4.4
5773  ,3.429e+09   ,1.0491  ,2.5  ,4.9
5791  ,1.972e+09   ,-0.72473  ,2.4  ,5
5795  ,9.274e+09   ,1.8375  ,2.4  ,5
5803  ,4.036e+08   ,-0.3  ,-2.4  ,5
5810  ,6.490e+09   ,2.4  ,1.6404  ,5
5836  ,6.073e+08   ,-2.5  ,1.3  ,4.9
5860  ,8.142e+08   ,2.5  ,-2.4  ,1.6
5866  ,6.351e+08   ,1.5  ,-2.5  ,0.1
5884  ,8.309e+08   ,-2.4  ,-0.3  ,5
5888  ,5.970e+08   ,-2.5  ,-0.5  ,4.9
5901  ,1.317e+09   ,2.3  ,-2.5  ,2.5
5908  ,7.552e+08   ,2.5  ,-2.4  ,1.2
5909  ,7.261e+08   ,2.5  ,-2.4  ,2
5934  ,1.296e+09   ,1.9  ,-2.5  ,4.9
5938  ,1.487e+09   ,1.933  ,-2.5  ,4.8
5948  ,7.265e+08   ,-2.4  ,-2.5  ,4.6
5950  ,8.181e+08   ,-2.4707  ,-2.4707  ,4.9
5951  ,6.701e+08   ,-2.5  ,-2.4  ,4.8
5952  ,6.094e+08   ,-2.5  ,-2.3  ,4.9
5986  ,2.194e+08   ,2.3  ,-2.5  ,3.7085
5990  ,1.961e+09   ,-0.92182  ,2.5  ,4.9
6019  ,3.422e+08   ,2.5  ,1.9  ,0.1
6025  ,4.871e+08   ,2.4  ,-1.3  ,0
6035  ,4.298e+08   ,-2.5  ,1.9  ,4.9
6044  ,1.674e+09   ,0.1  ,2.5  ,0.1
6054  ,9.403e+08   ,2.4  ,0.1  ,0
6070  ,2.365e+08   ,-2.4  ,2.3  ,0
6071  ,1.680e+08   ,-2.3  ,2.4  ,0
6076  ,3.600e+08   ,-2.4  ,2.1  ,0
6083  ,4.391e+08   ,2.1  ,-2.4  ,0
6084  ,1.788e+08   ,2.4  ,2.3  ,0
6087  ,1.677e+08   ,2.3  ,2.4  ,0
6092  ,3.173e+08   ,-2.4  ,-2.5  ,0.4
6096  ,2.511e+08   ,-2.3  ,-2.5  ,0.1
6099  ,1.026e+09   ,0.7  ,-2.5  ,0.1
6149  ,6.834e+08   ,-2.4  ,-0.9  ,0
6159  ,4.906e+08   ,-2.5  ,-2.4  ,2.6
6183  ,3.450e+09   ,1.2462  ,2.5  ,4.9
6224  ,2.464e+09   ,2.5  ,-2.4  ,4
6228  ,1.085e+09   ,2.4  ,-2.5  ,3.8
6237  ,8.879e+08   ,2.5  ,0.7  ,0.1
6241  ,2.491e+10   ,2.5  ,2.3333  ,4.6998
6245  ,1.659e+09   ,2.5  ,2.4  ,1.5782
6259  ,1.669e+09   ,2.5  ,-2.1044  ,4.9
6265  ,1.284e+09   ,2.3  ,-1.9804  ,4.8
6267  ,1.945e+09   ,2.5  ,-2.3015  ,4.9
6268  ,1.758e+09   ,2.4707  ,-2.4  ,4.9707
6270  ,1.760e+09   ,2.4  ,-2.1044  ,5
6317  ,2.066e+09   ,-2.3  ,0.2278  ,4.8
6349  ,2.299e+09   ,-0.52764  ,2.4  ,5
6391  ,1.933e+09   ,2.4  ,2.5  ,1.7753
6440  ,8.362e+08   ,-2.5  ,2.4  ,3.8
6471  ,1.288e+09   ,2.5  ,-0.92182  ,4.9
6489  ,3.879e+09   ,2.5  ,1.2462  ,4.9
6523  ,6.421e+08   ,-1.1  ,-2.4  ,0
6528  ,5.220e+08   ,-1.1  ,-2.5  ,0.1
6535  ,8.043e+08   ,-0.9  ,-2.4  ,0
6538  ,2.454e+09   ,1.5  ,-2.4  ,5
6541  ,1.161e+09   ,1.5  ,-2.5  ,4.9
6551  ,1.416e+09   ,2.5  ,-0.72473  ,4.9
6564  ,4.998e+10   ,2.1331  ,2.4973  ,4.923
6565  ,1.676e+10   ,2.0345  ,2.5  ,4.9
6572  ,4.775e+08   ,2.4  ,-1.7  ,0
6581  ,2.274e+09   ,0  ,2.3  ,0.2
6592  ,9.161e+08   ,2.3  ,-1.9695  ,0.2
6594  ,1.127e+09   ,0.3  ,2.4  ,0
6601  ,1.352e+09   ,0.5  ,2.5  ,0.1
6605  ,4.572e+08   ,-2.4  ,-1.3  ,0
6606  ,6.094e+08   ,-2.4  ,-1.1  ,0
6615  ,9.959e+08   ,-2.4  ,-0.3  ,0
6634  ,1.537e+09   ,2.1  ,-2.5  ,4.9
6635  ,2.104e+09   ,2.4  ,-2.4707  ,4.9707
6636  ,2.205e+09   ,2.3  ,-2.4  ,5
6647  ,1.012e+09   ,0.5  ,-2.5  ,0.1
6704  ,1.381e+08   ,-2.4707  ,2.4707  ,0.1
6708  ,1.602e+08   ,-2.5  ,2.4  ,0.2
6712  ,7.077e+08   ,-2.4  ,2.5  ,3.6
6715  ,1.076e+09   ,-2.4  ,2.5  ,3.4
6728  ,8.751e+08   ,-2.5  ,0.7  ,4.9
6753  ,3.903e+08   ,-2.1044  ,2.4  ,5
6788  ,1.208e+10   ,2.5  ,2.4  ,4.3375
6791  ,1.415e+09   ,-1.933  ,-2.5  ,4.8
6795  ,2.641e+10   ,2.1998  ,2.5  ,4.8333
6837  ,4.778e+08   ,-2.3  ,-2.5  ,0.8063
6869  ,1.351e+09   ,2.5  ,-1.7102  ,4.9
6873  ,1.659e+09   ,2.4  ,-1.9073  ,5
6880  ,1.387e+09   ,2.4  ,-0.92182  ,5
6885  ,1.519e+09   ,2.4  ,-0.52764  ,5
6893  ,3.586e+09   ,2.4  ,1.2462  ,5
6914  ,1.366e+09   ,0.7  ,2.5  ,0.1
6920  ,1.101e+09   ,0.9  ,2.4  ,0
6923  ,1.080e+09   ,0.7  ,2.4  ,0
6936  ,1.138e+09   ,2.4  ,-2.5  ,3.4
6939  ,6.044e+08   ,2.3  ,-2.5  ,3.2226
6961  ,9.091e+08   ,-0.1  ,-2.5  ,4.9
6967  ,5.185e+08   ,-2.5  ,-1.5  ,4.9
6975  ,5.914e+08   ,-2.4  ,1.1  ,5
6978  ,2.385e+08   ,-2.4  ,2.5  ,0.2
6987  ,1.230e+09   ,2.4  ,-1.316  ,5
6994  ,5.583e+08   ,2.4  ,-1.5  ,0
7004  ,1.028e+09   ,2.4  ,-2.5  ,3.6
7011  ,2.716e+09   ,2.4  ,0.65491  ,5
7016  ,2.359e+09   ,2.4  ,0.45782  ,5
7019  ,2.116e+09   ,2.5  ,2.4  ,2.1695
7021  ,2.005e+09   ,2.5  ,2.4  ,1.9724
7052  ,8.942e+08   ,-1.3  ,2.5  ,0.1
7054  ,3.284e+08   ,-2.4  ,-2.5  ,0.8
7057  ,9.401e+08   ,0.3  ,-2.5  ,0.1
7065  ,1.247e+09   ,0.24243  ,-2.5  ,0.2
7075  ,3.774e+10   ,2.4888  ,2.4325  ,4.6656
7113  ,9.162e+08   ,-2.4  ,-2.5  ,2.6
7121  ,9.822e+08   ,-2.4  ,-2.5  ,2.8
7126  ,6.613e+08   ,-2.5  ,-2.4  ,2.8
7128  ,1.137e+08   ,-2.4707  ,-2.4707  ,0.1
7129  ,1.306e+08   ,-2.4  ,-2.4707  ,0.029289
7141  ,7.587e+08   ,-1.7  ,-2.4  ,5
7145  ,1.009e+09   ,1.1  ,2.4  ,0
7163  ,7.414e+08   ,-1.7102  ,2.4  ,5
7172  ,1.620e+09   ,2.5  ,-2.4  ,3.2
7174  ,9.211e+08   ,-2.5  ,2.4  ,3.6
7183  ,5.061e+08   ,-1.4531  ,-2.5  ,4.8
7204  ,3.335e+09   ,2.3  ,-0.81068  ,4.8
7220  ,2.126e+09   ,2.5  ,0.063638  ,4.9
7227  ,6.118e+08   ,2.5  ,-1.9  ,0.1
7256  ,5.251e+08   ,-0.1  ,-2.4  ,5
7280  ,2.238e+09   ,-0.33054  ,2.4  ,5
7299  ,1.267e+09   ,2.5  ,-1.1189  ,4.9
7316  ,3.498e+08   ,-2.5  ,-2.4  ,0.8
7323  ,3.260e+08   ,-2.4  ,-2.5  ,1
7396  ,1.955e+09   ,1.1  ,-2.4  ,5
7400  ,1.594e+09   ,-2.5  ,0.7  ,0.1
7409  ,2.254e+09   ,1.3  ,-2.4  ,5
7420  ,2.964e+08   ,2.5  ,2.1  ,0.1
7429  ,4.438e+08   ,2.4  ,1.9  ,0
7436  ,5.063e+08   ,2.5  ,-1.7  ,0.1
7438  ,1.032e+09   ,2.4  ,-2.5  ,2.8
7445  ,3.494e+10   ,2.4325  ,2.1656  ,4.9888
7464  ,4.321e+08   ,2.5  ,-1.5  ,0.1
7480  ,1.139e+09   ,2.5  ,-2.4  ,0.2
7482  ,4.005e+08   ,1.9  ,-2.5  ,0.1
7483  ,5.395e+08   ,1.7  ,-2.5  ,0.1
7486  ,7.736e+08   ,1.9  ,-2.4  ,5
7488  ,6.387e+08   ,1.6937  ,-2.5  ,4.8
7492  ,1.731e+09   ,2.1  ,-2.4  ,5
7495  ,8.798e+08   ,0.1  ,-2.5  ,0.1
7504  ,6.662e+08   ,0.3  ,-2.4  ,0
7507  ,9.850e+08   ,0.9  ,-2.5  ,0.1
7533  ,1.513e+09   ,-2.5  ,0.9  ,0.1
7536  ,9.946e+08   ,-2.4  ,-2.5  ,3.2
7540  ,9.978e+08   ,-2.4  ,-2.5  ,3
7545  ,8.931e+08   ,-2.5  ,-2.4  ,3
7582  ,6.228e+08   ,1.3  ,2.5  ,0.1
7588  ,2.350e+09   ,2.5  ,2.4  ,2.3665
7598  ,7.573e+08   ,-2.5  ,2.4  ,4.2
7607  ,1.945e+09   ,1.5333  ,2.3  ,0.2
7627  ,6.925e+08   ,-2.5  ,1.1  ,4.9
7651  ,5.534e+08   ,2.4  ,-1.9  ,0
7656  ,5.014e+08   ,2.5  ,2.4  ,0.39564
7660  ,1.523e+10   ,2.2299  ,2.3  ,4.7299
7668  ,6.588e+08   ,1.4531  ,-2.5  ,4.8
7676  ,9.972e+08   ,0.1  ,-2.5  ,4.9
7683  ,6.410e+08   ,0.1  ,-2.4  ,5
7686  ,6.749e+08   ,-2.4  ,-1.1  ,5
7702  ,3.809e+08   ,-2.3  ,-2.5  ,4.433
7710  ,7.760e+08   ,-2.3  ,-2.5  ,4.6765
7752  ,1.873e+09   ,0.9  ,-2.4  ,5
7763  ,1.425e+09   ,0.24243  ,-2.5  ,4.8
7767  ,1.227e+09   ,-2.5  ,-2.4  ,3.2
7768  ,1.870e+08   ,-2.4  ,-2.1  ,0
7776  ,1.450e+09   ,-2.4  ,0.9  ,0
7786  ,1.074e+09   ,-0.4838  ,-2.5  ,4.8
7800  ,1.765e+09   ,2.5  ,-2.4  ,4.6
7805  ,4.668e+08   ,-2.5  ,-1.3  ,4.9
7811  ,5.889e+08   ,-2.5  ,-1.1  ,4.9
7820  ,6.981e+08   ,2.5  ,-2.1  ,0.1
7824  ,5.882e+08   ,2.4  ,-2.1  ,0
7828  ,1.251e+09   ,2.4  ,-2.5  ,4.2
7831  ,1.051e+09   ,2.4  ,-2.5  ,4
7838  ,1.742e+09   ,2.5  ,-2.4  ,4.2
7839  ,2.515e+09   ,2.5  ,2.4  ,2.7607
7840  ,2.833e+09   ,2.5  ,2.4  ,2.9578
7863  ,2.633e+08   ,-2.4  ,-1.5  ,0
7890  ,6.748e+08   ,2.4  ,0.9  ,0
7897  ,6.850e+08   ,-2.4  ,-0.7  ,0
7912  ,3.351e+08   ,-1.5  ,-2.4  ,0
7917  ,4.742e+08   ,-1.3  ,-2.5  ,0.1
7931  ,1.091e+09   ,0.5  ,2.4  ,0
7934  ,1.926e+09   ,1.1  ,-2.4  ,0
7937  ,1.850e+08   ,2.4  ,-2.5  ,0.8
7941  ,3.250e+08   ,-2.4  ,-2.5  ,0.6
7969  ,2.026e+08   ,-2.5  ,2.3  ,0.1
7971  ,6.641e+08   ,-2.4  ,1.9  ,0
7972  ,6.267e+08   ,-1.9  ,2.5  ,0.1
7978  ,1.367e+09   ,-2.4  ,1.1  ,0
7996  ,7.728e+08   ,-2.4  ,-0.5  ,5
8000  ,4.914e+08   ,-2.5  ,-2.4  ,0.6
8003  ,4.406e+08   ,-2.5  ,-2.4  ,0.4
8025  ,1.074e+09   ,0.9  ,2.5  ,0.1
8035  ,1.463e+09   ,0.3  ,2.5  ,0.1
8039  ,2.087e+09   ,2.3  ,-2.5  ,0.32348
8041  ,1.152e+09   ,2.3  ,-2.3379  ,0.2
8043  ,8.586e+08   ,2.1765  ,-2.5  ,0.2
8045  ,2.284e+08   ,-0.96359  ,-2.5  ,0.2
8054  ,8.654e+08   ,1.3  ,2.4  ,0
8058  ,7.844e+08   ,1.1  ,2.5  ,0.1
8062  ,9.723e+08   ,-2.5  ,2.4  ,1.4
8067  ,6.369e+08   ,-2.5  ,2.4  ,0.8
8087  ,1.099e+09   ,-2.5  ,1.5  ,0.1
8132  ,2.557e+09   ,-0.13345  ,2.4  ,5
8183  ,6.372e+08   ,2.5  ,-0.9  ,0.1
8184  ,8.167e+08   ,1.6937  ,-2.5  ,0.2
8214  ,6.335e+08   ,-2.4707  ,-2.4  ,4.9707
8217  ,1.457e+09   ,-2.1  ,-2.4  ,5
8219  ,4.905e+08   ,-2.4  ,-2.5  ,4.4
8227  ,3.234e+09   ,2.5  ,2.4  ,3.1549
8242  ,1.354e+09   ,0.7  ,-2.5  ,4.9
8248  ,2.058e+09   ,2.5  ,-2.4  ,3.6
8254  ,8.416e+08   ,2.5  ,-0.3  ,0.1
8256  ,7.020e+08   ,2.5  ,-0.5  ,0.1
8258  ,8.314e+08   ,-0.3  ,-2.5  ,4.9
8263  ,8.401e+08   ,-0.5  ,-2.5  ,4.9
8268  ,6.752e+08   ,-2.3  ,-2.5  ,3.7085
8277  ,8.517e+08   ,-0.1  ,-2.5  ,0.1
8285  ,9.502e+08   ,1.1  ,-2.5  ,4.9
8307  ,1.163e+09   ,0.1  ,2.4  ,0
8308  ,9.631e+08   ,-0.1  ,2.5  ,0.1
8309  ,1.244e+09   ,-0.1  ,2.4  ,0
8313  ,7.169e+08   ,2.5  ,-2.3  ,0.1
8318  ,1.158e+09   ,2.5  ,-2.4  ,3
8338  ,3.078e+09   ,2.5  ,2.4  ,3.352
8339  ,3.375e+09   ,2.4  ,2.5  ,3.1549
8344  ,1.061e+09   ,-2.5  ,2.4  ,3.4
8357  ,3.473e+10   ,2.4888  ,2.1656  ,4.9325
8358  ,2.446e+10   ,2.5  ,2.1998  ,4.8333
8383  ,1.741e+08   ,-1.7  ,-2.4  ,0
8396  ,8.920e+08   ,1.1  ,-2.5  ,0.1
8399  ,4.475e+10   ,2.4526  ,2.1331  ,4.9851
8405  ,6.425e+08   ,2.5  ,-2.4  ,1
8412  ,5.742e+08   ,2.3  ,-2.5  ,0.8063
8417  ,1.266e+09   ,-2.3  ,-2.5  ,2.5
8434  ,8.873e+07   ,0.9636  ,-2.5  ,4.8
8438  ,7.990e+08   ,-0.3  ,-2.5  ,0.1
8452  ,8.719e+08   ,-2.4  ,-0.1  ,5
8468  ,3.555e+09   ,2.5  ,2.4  ,3.7462
8471  ,7.255e+08   ,-1.3  ,-2.5  ,4.9
8493  ,6.945e+08   ,-1.1  ,-2.5  ,4.9
8509  ,2.558e+08   ,-2.5  ,-1.7  ,0.1
8517  ,1.248e+09   ,-2.4  ,2.5  ,3
8531  ,8.841e+08   ,-2.4  ,1.7  ,0
8556  ,3.369e+09   ,2.5  ,2.4  ,3.5491
8573  ,1.533e+09   ,-1.316  ,2.4  ,5
8576  ,1.237e+09   ,-2.4  ,1.3  ,0
8611  ,4.152e+08   ,2.3  ,-2.5  ,1.2915
8618  ,5.192e+08   ,-2.4  ,2.5  ,4
8646  ,1.402e+09   ,-2.5  ,1.1  ,0.1
8656  ,7.127e+08   ,2.5  ,-1.3  ,0.1
8657  ,1.974e+08   ,2.4  ,2.1  ,0
8673  ,7.596e+08   ,-1.3  ,2.4  ,0
8692  ,5.766e+08   ,0.72263  ,-2.5  ,4.8
8696  ,3.906e+08   ,2.3  ,-2.5  ,1.0469
8706  ,2.491e+09   ,2.5  ,0.65491  ,4.9
8721  ,5.872e+08   ,-2.4  ,-2.5  ,1.6
8725  ,3.305e+09   ,0.65491  ,2.4  ,5
8739  ,3.534e+10   ,2.1656  ,2.4325  ,4.9888
8741  ,2.495e+10   ,2.1998  ,2.3333  ,5
8746  ,3.129e+08   ,-2.1  ,-2.4  ,0
8748  ,4.390e+08   ,-2.5  ,-2.4  ,1.2
8752  ,4.713e+10   ,2.1331  ,2.4526  ,4.9851
8759  ,4.494e+08   ,-2.3  ,-2.5  ,1.0469
8787  ,4.305e+08   ,-0.1  ,-2.4  ,0
8793  ,1.119e+09   ,-2.3  ,-2.5  ,2.2576
8795  ,8.798e+08   ,-2.4  ,-2.5  ,2.4
8798  ,6.804e+08   ,-2.3  ,-2.5  ,4.1937
8808  ,8.571e+08   ,-2.3  ,-2.5  ,3.9531
8814  ,8.318e+08   ,-2.4  ,-1.5  ,5
8849  ,1.273e+09   ,0.4838  ,-2.5  ,4.8
8851  ,5.725e+08   ,-2.4  ,-2.5  ,4.2
8868  ,1.276e+09   ,2.4  ,-2.5  ,3
8874  ,3.285e+09   ,0.852  ,2.4  ,5
8883  ,6.393e+08   ,-0.5  ,-2.4  ,5
8886  ,3.731e+08   ,-0.72262  ,-2.5  ,4.8
8893  ,7.046e+08   ,-0.7  ,-2.5  ,4.9
8897  ,1.994e+09   ,-2.5  ,-2.4  ,3.6
8899  ,2.542e+08   ,-2.3  ,-2.5  ,3.4636
8900  ,2.572e+08   ,-2.3  ,-1.4729  ,0.2
8906  ,4.343e+08   ,-2.5  ,-1.3  ,0.1
8910  ,3.213e+09   ,0.852  ,2.5  ,4.9
8925  ,1.041e+09   ,-2.4  ,2.5  ,1.4
8941  ,1.912e+08   ,2.4707  ,2.4  ,0.029289
8942  ,2.880e+08   ,2.5  ,2.3  ,0.1
8945  ,8.584e+08   ,-2.5  ,0.1  ,4.9
8950  ,1.737e+08   ,2.4707  ,2.4707  ,0.1
8951  ,1.919e+08   ,2.4  ,2.4707  ,0.029289
8959  ,1.952e+09   ,2.4  ,0.26073  ,5
8965  ,2.864e+09   ,0.45782  ,2.4  ,5
8978  ,2.502e+09   ,2.4  ,0.852  ,5
8983  ,6.470e+08   ,2.5  ,-1.1  ,0.1
8991  ,4.732e+08   ,-2.5  ,2.4  ,0.6
9008  ,2.440e+09   ,2.5  ,0.852  ,4.9
9011  ,7.848e+08   ,-2.4  ,-0.5  ,0
9025  ,3.594e+08   ,-1.5  ,-2.5  ,0.1
9038  ,9.379e+08   ,2.4  ,-2.5  ,2
9041  ,7.001e+08   ,2.5  ,0.9  ,0.1
9050  ,1.027e+09   ,2.5  ,0.5  ,0.1
9054  ,1.526e+09   ,0.9  ,-2.4  ,0
9060  ,3.550e+08   ,2.4  ,-2.5  ,0.4
9062  ,1.391e+09   ,2.3  ,-2.5  ,0.56701
9064  ,1.456e+09   ,2.5  ,-2.4  ,0.4
9069  ,3.134e+08   ,2.4  ,-2.5  ,0.6
9071  ,9.164e+08   ,1.4531  ,-2.5  ,0.2
9082  ,3.864e+08   ,-2.3  ,-2.5  ,1.2915
9086  ,5.389e+08   ,-2.4  ,-2.5  ,1.4
9091  ,6.282e+08   ,-2.5  ,-2.4  ,1.4
9094  ,1.042e+09   ,1.3  ,-2.5  ,4.9
9097  ,6.205e+08   ,-0.7  ,-2.5  ,0.1
9137  ,6.338e+08   ,-2.5  ,-0.7  ,4.9
9143  ,8.514e+08   ,-2.5  ,-0.1  ,4.9
9146  ,3.145e+08   ,-2.1  ,2.4  ,0
9148  ,4.649e+08   ,-2.5  ,1.7  ,4.9
9173  ,1.038e+09   ,-2.5  ,2.4  ,3
9192  ,8.008e+08   ,-0.7  ,-2.4  ,5
9195  ,6.071e+08   ,0.72263  ,-2.5  ,0.2
9209  ,1.824e+09   ,2.5  ,-2.4  ,3.4
9215  ,2.305e+08   ,0.9636  ,-2.5  ,0.2
9217  ,1.319e+09   ,2.4  ,-2.5  ,3.2
9218  ,3.232e+08   ,-0.96359  ,-2.5  ,4.8
9229  ,1.242e+09   ,-2.4  ,2.5  ,2.8
9248  ,1.406e+09   ,2.3  ,-2.5  ,4.433
9255  ,6.363e+08   ,2.5  ,1.3  ,0.1
9257  ,6.546e+08   ,2.4  ,1.5  ,0
9262  ,1.189e+09   ,0.5  ,-2.4  ,5
9264  ,1.536e+09   ,2.4  ,-0.13345  ,5
9272  ,2.338e+09   ,0.063638  ,2.4  ,5
9277  ,8.121e+08   ,-2.5  ,2.4  ,1.2
9279  ,2.151e+09   ,2.5  ,0.26073  ,4.9
9282  ,2.251e+08   ,1.2085  ,-2.5  ,4.8
9286  ,1.062e+09   ,0.9  ,-2.5  ,4.9
9292  ,1.438e+08   ,-2.4  ,2.4707  ,4.9707
9293  ,2.439e+08   ,-2.3015  ,2.4  ,5
9296  ,6.674e+08   ,-2.4  ,-2.1  ,5
9303  ,6.828e+08   ,-2.4  ,-1.9  ,5
9311  ,2.290e+08   ,-2.4  ,2.3  ,5
9313  ,9.712e+08   ,-2.4  ,0.1  ,5
9319  ,5.674e+08   ,-0.5  ,-2.4  ,0
9328  ,2.825e+08   ,-2.3  ,-2.5  ,1.5364
9334  ,2.417e+08   ,-2.3  ,2.5  ,0.1
9338  ,4.695e+08   ,-2.5  ,-2.4  ,2.4
9339  ,1.237e+09   ,-2.5  ,1.3  ,0.1
9341  ,1.239e+09   ,-2.3  ,-2.5  ,2.7424
9344  ,5.343e+08   ,-2.5  ,-2.4  ,2.2
9358  ,3.397e+09   ,-2.3  ,2.3  ,2.5
9364  ,6.307e+08   ,-2.5  ,-2.1  ,4.9
9367  ,7.908e+08   ,-2.4  ,-2.3  ,5
9374  ,7.690e+08   ,-2.4  ,-1.3  ,5
9378  ,1.256e+09   ,-2.5  ,2.4  ,1.8
9384  ,1.154e+09   ,2.3  ,-2.5  ,2.0162
9385  ,7.141e+08   ,-2.5  ,2.4  ,4.4
9389  ,1.190e+09   ,-2.5  ,2.4  ,2
9395  ,1.822e+09   ,2.4  ,-2.3015  ,5
9396  ,2.394e+08   ,-2.4  ,-1.7  ,0
9407  ,1.721e+09   ,-2.3  ,-1.4729  ,4.8
9411  ,4.998e+08   ,-2.5  ,-1.7  ,4.9
9423  ,8.685e+08   ,-2.4  ,-2.5  ,3.6
9432  ,1.704e+09   ,0.7  ,-2.4  ,5
9438  ,5.713e+08   ,-2.5  ,-0.9  ,4.9
9443  ,7.270e+08   ,-2.5  ,-0.3  ,4.9
9445  ,1.179e+08   ,-2.4707  ,2.4  ,4.9707
9448  ,1.194e+09   ,2.4  ,-1.1189  ,5
9453  ,7.240e+08   ,2.4  ,0.7  ,0
9455  ,4.886e+08   ,2.5  ,-2.4  ,2.6
9457  ,1.165e+09   ,2.3  ,-2.5  ,2.9838
9494  ,8.577e+08   ,-2.4  ,2.5  ,1
9500  ,1.161e+09   ,0.3  ,-2.5  ,4.9
9504  ,8.454e+08   ,0.3  ,-2.4  ,5
9506  ,6.480e+08   ,2.1  ,-2.5  ,0.1
9518  ,1.378e+08   ,-1.9  ,-2.5  ,0.1
9528  ,6.770e+08   ,2.3  ,-2.5  ,0.1
9531  ,1.104e+09   ,2.4707  ,-2.4707  ,0.1
9533  ,6.967e+08   ,2.4707  ,-2.4  ,0.029289
9534  ,8.755e+08   ,2.4  ,-2.4707  ,0.029289
9541  ,1.371e+09   ,0.5  ,-2.5  ,4.9
9544  ,7.048e+08   ,-0.5  ,-2.5  ,0.1
9559  ,5.369e+08   ,-2.5  ,-1.9  ,4.9
9562  ,5.134e+08   ,-2.5  ,2.4  ,4.6
9565  ,1.339e+09   ,-2.4  ,2.5  ,2
9571  ,2.140e+09   ,-2.5  ,-2.4  ,3.8
9574  ,7.782e+08   ,-2.4  ,-2.5  ,3.8
9577  ,7.553e+08   ,1.3  ,-2.5  ,0.1
9582  ,7.022e+08   ,-2.5  ,-0.9  ,0.1
9596  ,3.564e+08   ,2.1  ,2.4  ,0
9598  ,1.338e+09   ,-2.4  ,2.5  ,3.2
9602  ,5.910e+08   ,1.5  ,2.5  ,0.1
9610  ,4.811e+08   ,2.4  ,2.5  ,0.39564
9612  ,2.251e+09   ,-0.72473  ,2.5  ,4.9
9614  ,5.878e+08   ,1.7  ,2.5  ,0.1
9635  ,5.191e+08   ,2.5  ,1.7  ,0.1
9646  ,2.880e+08   ,2.3  ,2.5  ,0.1
9651  ,3.621e+10   ,2.1656  ,2.4888  ,4.9325
9653  ,1.217e+09   ,2.5  ,-1.316  ,4.9
9656  ,5.671e+08   ,-2.4  ,-1.7  ,5
9659  ,3.801e+09   ,2.3  ,-2.5  ,4.6765
9661  ,6.230e+08   ,2.3  ,-2.5  ,3.9531
9664  ,1.074e+09   ,-2.3  ,-2.4  ,5
9666  ,1.022e+09   ,1.9  ,-2.4  ,0
9677  ,8.383e+08   ,2.4  ,0.5  ,0
9678  ,6.278e+08   ,-2.5  ,-1.1  ,0.1
9680  ,1.377e+09   ,2.5  ,2.4  ,1.184
9681  ,2.728e+08   ,2.5  ,2.4  ,0.19855
9696  ,8.398e+08   ,-2.3  ,-2.5  ,2.0162
9698  ,6.935e+08   ,2.4  ,-2.3  ,0
9699  ,1.118e+09   ,-0.24243  ,-2.5  ,0.2
9701  ,4.267e+08   ,0.1  ,-2.4  ,0
9704  ,8.108e+08   ,-0.4838  ,-2.5  ,0.2
9718  ,3.796e+08   ,-0.72262  ,-2.5  ,0.2
9726  ,2.489e+09   ,2.3  ,-0.76628  ,0.2
9727  ,2.881e+08   ,-2.5  ,2.4  ,0.4
9730  ,1.364e+09   ,1.9433E-06  ,-2.5  ,4.8
9731  ,1.389e+09   ,-0.24243  ,-2.5  ,4.8
9732  ,1.184e+09   ,-2.5  ,2.4  ,2.2
9738  ,2.002e+09   ,-2.5  ,-2.4  ,4
9743  ,6.834e+08   ,-1.6937  ,-2.5  ,4.8
9744  ,6.331e+08   ,-2.4  ,-2.5  ,4
9750  ,2.163e+08   ,-1.7  ,-2.5  ,0.1
9752  ,3.126e+08   ,-1.6937  ,-2.5  ,0.2
9754  ,4.734e+08   ,-1.3  ,-2.4  ,0
9759  ,1.862e+08   ,-2.4707  ,2.4  ,0.029289
9760  ,1.358e+08   ,-2.4  ,2.4707  ,0.029289
9768  ,4.910e+08   ,2.3  ,-2.5  ,4.1937
9770  ,1.279e+09   ,1.9433E-06  ,-2.5  ,0.2
9771  ,9.348e+08   ,0.4838  ,-2.5  ,0.2
9772  ,5.662e+08   ,2.4  ,-2.5  ,0.2
9773  ,1.650e+09   ,2.4  ,-2.5  ,4.6
9776  ,1.575e+09   ,2.4  ,0.063638  ,5
9780  ,3.151e+09   ,0.65491  ,2.5  ,4.9
9781  ,2.378e+08   ,2.4  ,2.5  ,0.19855
9782  ,1.012e+09   ,-2.3  ,-2.5  ,2.9838
9786  ,3.609e+08   ,-1.2085  ,-2.5  ,0.2
9787  ,3.488e+08   ,-1.4531  ,-2.5  ,0.2
9790  ,7.040e+08   ,2.3  ,-2.4  ,0
9793  ,1.898e+10   ,2.0345  ,2.4  ,5
9797  ,3.584e+08   ,2.3  ,-2.5  ,1.5364
9798  ,2.835e+09   ,2.4  ,1.0491  ,5
9809  ,3.038e+09   ,2.4  ,2.5  ,3.352
