Date:  12:53, Monday, July 10, 2023
Model name: Hollow_DropBox
Study name: DropTest_300fts(-Default-)
Plot type:  Stress1
Plot step: 15   time : 78.7059 Microseconds
Result Type: von Mises 


Node  ,Value (N/m^2)  ,X (in)  ,Y (in)  ,Z (in)
1  ,2.729e+10   ,2.5  ,2.1331  ,4.9
2  ,2.453e+10   ,2.4577  ,2.1908  ,4.9577
3  ,5.054e+10   ,2.4894  ,2.1331  ,4.9447
4  ,3.216e+10   ,2.1331  ,2.5  ,4.9
5  ,5.575e+10   ,2.1331  ,2.4894  ,4.9447
6  ,2.271e+10   ,2.1908  ,2.4577  ,4.9577
7  ,4.055e+08   ,-2.4  ,2.4  ,5
8  ,1.742e+09   ,-2.4  ,-2.4  ,5
9  ,2.932e+09   ,2.4  ,-2.4  ,5
10  ,2.537e+10   ,2.4  ,2.1331  ,5
11  ,3.010e+10   ,2.1331  ,2.4  ,5
12  ,3.209e+09   ,2.5  ,-2.4  ,4.9
13  ,1.721e+09   ,2.5  ,-2.4  ,0.1
14  ,2.976e+08   ,2.5  ,2.4  ,0.1
15  ,3.030e+10   ,2.5  ,2.4  ,4.6331
16  ,3.022e+08   ,2.4  ,2.5  ,0.1
17  ,2.293e+08   ,-2.4  ,2.5  ,0.1
18  ,3.284e+08   ,-2.4  ,2.5  ,4.9
19  ,3.261e+10   ,2.4  ,2.5  ,4.6331
20  ,2.263e+08   ,-2.5  ,2.4  ,0.1
21  ,9.887e+08   ,-2.5  ,-2.4  ,0.1
22  ,1.165e+09   ,-2.5  ,-2.4  ,4.9
23  ,4.220e+08   ,-2.5  ,2.4  ,4.9
24  ,1.134e+09   ,-2.3  ,-2.5  ,0.2
25  ,1.863e+09   ,-2.3  ,-2.5  ,4.8
26  ,2.760e+09   ,2.3  ,-2.5  ,4.8
27  ,1.975e+09   ,2.3  ,-2.5  ,0.2
28  ,1.705e+09   ,-2.4  ,-2.5  ,4.9
29  ,3.219e+09   ,2.4  ,-2.5  ,4.9
30  ,1.045e+09   ,-2.4  ,-2.5  ,0.1
31  ,1.789e+09   ,2.4  ,-2.5  ,0.1
32  ,1.327e+09   ,2.4  ,-2.4  ,0
33  ,3.538e+08   ,2.4  ,2.4  ,0
34  ,1.099e+09   ,-2.4  ,-2.4  ,0
35  ,2.647e+08   ,-2.4  ,2.4  ,0
36  ,2.874e+10   ,2.4577  ,2.4577  ,4.6908
37  ,1.123e+09   ,-2.3  ,2.3  ,4.8
38  ,1.588e+10   ,2.1599  ,2.3  ,4.8
39  ,1.540e+10   ,2.3  ,2.1599  ,4.8
40  ,1.614e+10   ,2.3  ,2.3  ,4.6599
41  ,1.148e+09   ,2.3  ,2.3  ,0.2
42  ,6.997e+08   ,-2.3  ,2.3  ,0.2
43  ,5.660e+08   ,-2.4  ,2.2  ,5
44  ,8.441e+08   ,-2.4  ,2  ,5
45  ,8.303e+08   ,-2.4  ,1.8  ,5
46  ,8.086e+08   ,-2.4  ,1.6  ,5
47  ,8.397e+08   ,-2.4  ,1.4  ,5
48  ,1.056e+09   ,-2.4  ,1.2  ,5
49  ,1.099e+09   ,-2.4  ,1  ,5
50  ,1.336e+09   ,-2.4  ,0.8  ,5
51  ,1.227e+09   ,-2.4  ,0.6  ,5
52  ,1.130e+09   ,-2.4  ,0.4  ,5
53  ,1.101e+09   ,-2.4  ,0.2  ,5
54  ,9.342e+08   ,-2.4  ,5.8879E-16  ,5
55  ,9.036e+08   ,-2.4  ,-0.2  ,5
56  ,1.143e+09   ,-2.4  ,-0.4  ,5
57  ,1.196e+09   ,-2.4  ,-0.6  ,5
58  ,1.183e+09   ,-2.4  ,-0.8  ,5
59  ,1.222e+09   ,-2.4  ,-1  ,5
60  ,1.142e+09   ,-2.4  ,-1.2  ,5
61  ,1.386e+09   ,-2.4  ,-1.4  ,5
62  ,1.128e+09   ,-2.4  ,-1.6  ,5
63  ,1.083e+09   ,-2.4  ,-1.8  ,5
64  ,1.488e+09   ,-2.4  ,-2  ,5
65  ,1.468e+09   ,-2.4  ,-2.2  ,5
66  ,2.602e+09   ,-2.2  ,-2.4  ,5
67  ,2.962e+09   ,-2  ,-2.4  ,5
68  ,2.966e+09   ,-1.8  ,-2.4  ,5
69  ,2.536e+09   ,-1.6  ,-2.4  ,5
70  ,2.091e+09   ,-1.4  ,-2.4  ,5
71  ,1.683e+09   ,-1.2  ,-2.4  ,5
72  ,1.111e+09   ,-1  ,-2.4  ,5
73  ,8.653e+08   ,-0.8  ,-2.4  ,5
74  ,8.344e+08   ,-0.6  ,-2.4  ,5
75  ,8.580e+08   ,-0.4  ,-2.4  ,5
76  ,6.871e+08   ,-0.2  ,-2.4  ,5
77  ,4.944e+08   ,-5.8879E-16  ,-2.4  ,5
78  ,1.050e+09   ,0.2  ,-2.4  ,5
79  ,2.065e+09   ,0.4  ,-2.4  ,5
80  ,3.212e+09   ,0.6  ,-2.4  ,5
81  ,3.608e+09   ,0.8  ,-2.4  ,5
82  ,3.737e+09   ,1  ,-2.4  ,5
83  ,3.365e+09   ,1.2  ,-2.4  ,5
84  ,2.875e+09   ,1.4  ,-2.4  ,5
85  ,1.484e+09   ,1.6  ,-2.4  ,5
86  ,6.550e+08   ,1.8  ,-2.4  ,5
87  ,1.511e+09   ,2  ,-2.4  ,5
88  ,4.612e+09   ,2.2  ,-2.4  ,5
89  ,2.555e+09   ,2.4  ,-2.2029  ,5
90  ,2.885e+09   ,2.4  ,-2.0058  ,5
91  ,2.296e+09   ,2.4  ,-1.8087  ,5
92  ,2.098e+09   ,2.4  ,-1.6116  ,5
93  ,2.288e+09   ,2.4  ,-1.4145  ,5
94  ,2.002e+09   ,2.4  ,-1.2175  ,5
95  ,2.182e+09   ,2.4  ,-1.0204  ,5
96  ,2.453e+09   ,2.4  ,-0.82327  ,5
97  ,2.351e+09   ,2.4  ,-0.62618  ,5
98  ,2.365e+09   ,2.4  ,-0.42909  ,5
99  ,2.021e+09   ,2.4  ,-0.232  ,5
100  ,1.874e+09   ,2.4  ,-0.034907  ,5
101  ,1.838e+09   ,2.4  ,0.16218  ,5
102  ,1.870e+09   ,2.4  ,0.35927  ,5
103  ,2.331e+09   ,2.4  ,0.55637  ,5
104  ,2.250e+09   ,2.4  ,0.75346  ,5
105  ,2.362e+09   ,2.4  ,0.95055  ,5
106  ,2.582e+09   ,2.4  ,1.1476  ,5
107  ,3.704e+09   ,2.4  ,1.3447  ,5
108  ,5.265e+09   ,2.4  ,1.5418  ,5
109  ,7.144e+09   ,2.4  ,1.7389  ,5
110  ,1.348e+10   ,2.4  ,1.936  ,5
111  ,1.882e+10   ,2.2665  ,2.2665  ,5
112  ,1.457e+10   ,1.936  ,2.4  ,5
113  ,7.833e+09   ,1.7389  ,2.4  ,5
114  ,6.283e+09   ,1.5418  ,2.4  ,5
115  ,4.246e+09   ,1.3447  ,2.4  ,5
116  ,3.489e+09   ,1.1476  ,2.4  ,5
117  ,3.438e+09   ,0.95055  ,2.4  ,5
118  ,3.505e+09   ,0.75346  ,2.4  ,5
119  ,3.125e+09   ,0.55637  ,2.4  ,5
120  ,2.927e+09   ,0.35927  ,2.4  ,5
121  ,2.823e+09   ,0.16218  ,2.4  ,5
122  ,2.876e+09   ,-0.034907  ,2.4  ,5
123  ,2.961e+09   ,-0.232  ,2.4  ,5
124  ,2.604e+09   ,-0.42909  ,2.4  ,5
125  ,2.583e+09   ,-0.62618  ,2.4  ,5
126  ,2.948e+09   ,-0.82327  ,2.4  ,5
127  ,2.707e+09   ,-1.0204  ,2.4  ,5
128  ,2.483e+09   ,-1.2175  ,2.4  ,5
129  ,2.070e+09   ,-1.4145  ,2.4  ,5
130  ,1.398e+09   ,-1.6116  ,2.4  ,5
131  ,9.477e+08   ,-1.8087  ,2.4  ,5
132  ,6.355e+08   ,-2.0058  ,2.4  ,5
133  ,4.251e+08   ,-2.2029  ,2.4  ,5
294  ,2.238e+09   ,2.5  ,-2.2029  ,4.9
295  ,2.835e+09   ,2.5  ,-2.0058  ,4.9
296  ,2.295e+09   ,2.5  ,-1.8087  ,4.9
297  ,2.334e+09   ,2.5  ,-1.6116  ,4.9
298  ,1.951e+09   ,2.5  ,-1.4145  ,4.9
299  ,2.039e+09   ,2.5  ,-1.2175  ,4.9
300  ,2.304e+09   ,2.5  ,-1.0204  ,4.9
301  ,1.911e+09   ,2.5  ,-0.82327  ,4.9
302  ,2.157e+09   ,2.5  ,-0.62618  ,4.9
303  ,2.298e+09   ,2.5  ,-0.42909  ,4.9
304  ,2.493e+09   ,2.5  ,-0.232  ,4.9
305  ,2.766e+09   ,2.5  ,-0.034907  ,4.9
306  ,2.275e+09   ,2.5  ,0.16218  ,4.9
307  ,1.887e+09   ,2.5  ,0.35927  ,4.9
308  ,2.119e+09   ,2.5  ,0.55637  ,4.9
309  ,2.241e+09   ,2.5  ,0.75346  ,4.9
310  ,2.579e+09   ,2.5  ,0.95055  ,4.9
311  ,3.246e+09   ,2.5  ,1.1476  ,4.9
312  ,4.062e+09   ,2.5  ,1.3447  ,4.9
313  ,5.488e+09   ,2.5  ,1.5418  ,4.9
314  ,8.942e+09   ,2.5  ,1.7389  ,4.9
315  ,1.442e+10   ,2.5  ,1.936  ,4.9
316  ,4.820e+09   ,2.5  ,-2.4  ,4.7
317  ,1.436e+09   ,2.5  ,-2.4  ,4.5
318  ,4.437e+08   ,2.5  ,-2.4  ,4.3
319  ,1.553e+09   ,2.5  ,-2.4  ,4.1
320  ,2.716e+09   ,2.5  ,-2.4  ,3.9
321  ,3.577e+09   ,2.5  ,-2.4  ,3.7
322  ,3.855e+09   ,2.5  ,-2.4  ,3.5
323  ,3.438e+09   ,2.5  ,-2.4  ,3.3
324  ,2.838e+09   ,2.5  ,-2.4  ,3.1
325  ,2.054e+09   ,2.5  ,-2.4  ,2.9
326  ,1.197e+09   ,2.5  ,-2.4  ,2.7
327  ,3.537e+08   ,2.5  ,-2.4  ,2.5
328  ,6.389e+08   ,2.5  ,-2.4  ,2.3
329  ,9.445e+08   ,2.5  ,-2.4  ,2.1
330  ,1.007e+09   ,2.5  ,-2.4  ,1.9
331  ,1.112e+09   ,2.5  ,-2.4  ,1.7
332  ,1.355e+09   ,2.5  ,-2.4  ,1.5
333  ,1.726e+09   ,2.5  ,-2.4  ,1.3
334  ,1.968e+09   ,2.5  ,-2.4  ,1.1
335  ,2.337e+09   ,2.5  ,-2.4  ,0.9
336  ,2.862e+09   ,2.5  ,-2.4  ,0.7
337  ,2.841e+09   ,2.5  ,-2.4  ,0.5
338  ,2.737e+09   ,2.5  ,-2.4  ,0.3
339  ,1.541e+09   ,2.5  ,-2.2  ,0.1
340  ,1.485e+09   ,2.5  ,-2  ,0.1
341  ,9.690e+08   ,2.5  ,-1.8  ,0.1
342  ,9.027e+08   ,2.5  ,-1.6  ,0.1
343  ,9.129e+08   ,2.5  ,-1.4  ,0.1
344  ,1.090e+09   ,2.5  ,-1.2  ,0.1
345  ,1.141e+09   ,2.5  ,-1  ,0.1
346  ,1.064e+09   ,2.5  ,-0.8  ,0.1
347  ,1.130e+09   ,2.5  ,-0.6  ,0.1
348  ,1.030e+09   ,2.5  ,-0.4  ,0.1
349  ,1.010e+09   ,2.5  ,-0.2  ,0.1
350  ,1.044e+09   ,2.5  ,-1.7664E-15  ,0.1
351  ,1.044e+09   ,2.5  ,0.2  ,0.1
352  ,1.242e+09   ,2.5  ,0.4  ,0.1
353  ,1.277e+09   ,2.5  ,0.6  ,0.1
354  ,1.405e+09   ,2.5  ,0.8  ,0.1
355  ,1.037e+09   ,2.5  ,1  ,0.1
356  ,9.676e+08   ,2.5  ,1.2  ,0.1
357  ,9.088e+08   ,2.5  ,1.4  ,0.1
358  ,8.498e+08   ,2.5  ,1.6  ,0.1
359  ,6.932e+08   ,2.5  ,1.8  ,0.1
360  ,6.095e+08   ,2.5  ,2  ,0.1
361  ,4.935e+08   ,2.5  ,2.2  ,0.1
362  ,1.623e+10   ,2.5  ,2.4  ,4.436
363  ,9.850e+09   ,2.5  ,2.4  ,4.2389
364  ,5.981e+09   ,2.5  ,2.4  ,4.0418
365  ,4.696e+09   ,2.5  ,2.4  ,3.8447
366  ,3.722e+09   ,2.5  ,2.4  ,3.6476
367  ,3.568e+09   ,2.5  ,2.4  ,3.4505
368  ,3.500e+09   ,2.5  ,2.4  ,3.2535
369  ,3.225e+09   ,2.5  ,2.4  ,3.0564
370  ,3.107e+09   ,2.5  ,2.4  ,2.8593
371  ,3.015e+09   ,2.5  ,2.4  ,2.6622
372  ,3.072e+09   ,2.5  ,2.4  ,2.4651
373  ,2.844e+09   ,2.5  ,2.4  ,2.268
374  ,2.872e+09   ,2.5  ,2.4  ,2.0709
375  ,2.826e+09   ,2.5  ,2.4  ,1.8738
376  ,3.011e+09   ,2.5  ,2.4  ,1.6767
377  ,1.957e+09   ,2.5  ,2.4  ,1.4796
378  ,2.030e+09   ,2.5  ,2.4  ,1.2825
379  ,1.856e+09   ,2.5  ,2.4  ,1.0855
380  ,1.644e+09   ,2.5  ,2.4  ,0.88836
381  ,1.329e+09   ,2.5  ,2.4  ,0.69127
382  ,6.767e+08   ,2.5  ,2.4  ,0.49418
383  ,2.835e+08   ,2.5  ,2.4  ,0.29709
384  ,1.835e+10   ,2.5  ,2.2665  ,4.7665
544  ,6.503e+08   ,2.2  ,2.5  ,0.1
545  ,8.510e+08   ,2  ,2.5  ,0.1
546  ,9.137e+08   ,1.8  ,2.5  ,0.1
547  ,9.783e+08   ,1.6  ,2.5  ,0.1
548  ,9.626e+08   ,1.4  ,2.5  ,0.1
549  ,1.137e+09   ,1.2  ,2.5  ,0.1
550  ,1.435e+09   ,1  ,2.5  ,0.1
551  ,2.162e+09   ,0.8  ,2.5  ,0.1
552  ,2.198e+09   ,0.6  ,2.5  ,0.1
553  ,2.133e+09   ,0.4  ,2.5  ,0.1
554  ,2.231e+09   ,0.2  ,2.5  ,0.1
555  ,1.914e+09   ,5.8879E-16  ,2.5  ,0.1
556  ,1.026e+09   ,-0.2  ,2.5  ,0.1
557  ,1.317e+09   ,-0.4  ,2.5  ,0.1
558  ,1.550e+09   ,-0.6  ,2.5  ,0.1
559  ,1.736e+09   ,-0.8  ,2.5  ,0.1
560  ,1.717e+09   ,-1  ,2.5  ,0.1
561  ,1.745e+09   ,-1.2  ,2.5  ,0.1
562  ,1.650e+09   ,-1.4  ,2.5  ,0.1
563  ,1.596e+09   ,-1.6  ,2.5  ,0.1
564  ,1.513e+09   ,-1.8  ,2.5  ,0.1
565  ,1.202e+09   ,-2  ,2.5  ,0.1
566  ,9.018e+08   ,-2.2  ,2.5  ,0.1
567  ,5.531e+08   ,-2.4  ,2.5  ,4.7
568  ,7.514e+08   ,-2.4  ,2.5  ,4.5
569  ,8.081e+08   ,-2.4  ,2.5  ,4.3
570  ,9.177e+08   ,-2.4  ,2.5  ,4.1
571  ,9.705e+08   ,-2.4  ,2.5  ,3.9
572  ,1.110e+09   ,-2.4  ,2.5  ,3.7
573  ,1.360e+09   ,-2.4  ,2.5  ,3.5
574  ,2.004e+09   ,-2.4  ,2.5  ,3.3
575  ,1.870e+09   ,-2.4  ,2.5  ,3.1
576  ,1.799e+09   ,-2.4  ,2.5  ,2.9
577  ,1.815e+09   ,-2.4  ,2.5  ,2.7
578  ,1.727e+09   ,-2.4  ,2.5  ,2.5
579  ,1.659e+09   ,-2.4  ,2.5  ,2.3
580  ,1.695e+09   ,-2.4  ,2.5  ,2.1
581  ,1.637e+09   ,-2.4  ,2.5  ,1.9
582  ,1.637e+09   ,-2.4  ,2.5  ,1.7
583  ,1.631e+09   ,-2.4  ,2.5  ,1.5
584  ,1.688e+09   ,-2.4  ,2.5  ,1.3
585  ,1.620e+09   ,-2.4  ,2.5  ,1.1
586  ,1.555e+09   ,-2.4  ,2.5  ,0.9
587  ,1.450e+09   ,-2.4  ,2.5  ,0.7
588  ,1.273e+09   ,-2.4  ,2.5  ,0.5
589  ,9.213e+08   ,-2.4  ,2.5  ,0.3
590  ,1.597e+10   ,1.936  ,2.5  ,4.9
591  ,7.261e+09   ,1.7389  ,2.5  ,4.9
592  ,5.691e+09   ,1.5418  ,2.5  ,4.9
593  ,4.446e+09   ,1.3447  ,2.5  ,4.9
594  ,3.512e+09   ,1.1476  ,2.5  ,4.9
595  ,3.446e+09   ,0.95055  ,2.5  ,4.9
596  ,3.447e+09   ,0.75346  ,2.5  ,4.9
597  ,3.067e+09   ,0.55637  ,2.5  ,4.9
598  ,3.155e+09   ,0.35927  ,2.5  ,4.9
599  ,2.922e+09   ,0.16218  ,2.5  ,4.9
600  ,2.702e+09   ,-0.034907  ,2.5  ,4.9
601  ,2.486e+09   ,-0.232  ,2.5  ,4.9
602  ,3.001e+09   ,-0.42909  ,2.5  ,4.9
603  ,3.165e+09   ,-0.62618  ,2.5  ,4.9
604  ,3.013e+09   ,-0.82327  ,2.5  ,4.9
605  ,2.964e+09   ,-1.0204  ,2.5  ,4.9
606  ,2.710e+09   ,-1.2175  ,2.5  ,4.9
607  ,2.147e+09   ,-1.4145  ,2.5  ,4.9
608  ,1.628e+09   ,-1.6116  ,2.5  ,4.9
609  ,1.056e+09   ,-1.8087  ,2.5  ,4.9
610  ,6.318e+08   ,-2.0058  ,2.5  ,4.9
611  ,3.169e+08   ,-2.2029  ,2.5  ,4.9
612  ,2.053e+10   ,2.2665  ,2.5  ,4.7665
613  ,1.394e+10   ,2.4  ,2.5  ,4.436
614  ,8.748e+09   ,2.4  ,2.5  ,4.2389
615  ,5.707e+09   ,2.4  ,2.5  ,4.0418
616  ,4.569e+09   ,2.4  ,2.5  ,3.8447
617  ,3.828e+09   ,2.4  ,2.5  ,3.6476
618  ,3.500e+09   ,2.4  ,2.5  ,3.4505
619  ,3.463e+09   ,2.4  ,2.5  ,3.2535
620  ,3.421e+09   ,2.4  ,2.5  ,3.0564
621  ,3.016e+09   ,2.4  ,2.5  ,2.8593
622  ,2.969e+09   ,2.4  ,2.5  ,2.6622
623  ,2.759e+09   ,2.4  ,2.5  ,2.4651
624  ,2.632e+09   ,2.4  ,2.5  ,2.268
625  ,2.648e+09   ,2.4  ,2.5  ,2.0709
626  ,2.804e+09   ,2.4  ,2.5  ,1.8738
627  ,2.981e+09   ,2.4  ,2.5  ,1.6767
628  ,2.998e+09   ,2.4  ,2.5  ,1.4796
629  ,2.827e+09   ,2.4  ,2.5  ,1.2825
630  ,2.003e+09   ,2.4  ,2.5  ,1.0855
631  ,1.517e+09   ,2.4  ,2.5  ,0.88836
632  ,1.058e+09   ,2.4  ,2.5  ,0.69127
633  ,7.991e+08   ,2.4  ,2.5  ,0.49418
634  ,2.311e+08   ,2.4  ,2.5  ,0.29709
796  ,4.399e+08   ,-2.5  ,2.2  ,0.1
797  ,7.663e+08   ,-2.5  ,2  ,0.1
798  ,1.012e+09   ,-2.5  ,1.8  ,0.1
799  ,1.288e+09   ,-2.5  ,1.6  ,0.1
800  ,1.501e+09   ,-2.5  ,1.4  ,0.1
801  ,1.670e+09   ,-2.5  ,1.2  ,0.1
802  ,1.908e+09   ,-2.5  ,1  ,0.1
803  ,2.103e+09   ,-2.5  ,0.8  ,0.1
804  ,2.222e+09   ,-2.5  ,0.6  ,0.1
805  ,2.267e+09   ,-2.5  ,0.4  ,0.1
806  ,2.103e+09   ,-2.5  ,0.2  ,0.1
807  ,1.957e+09   ,-2.5  ,5.8879E-16  ,0.1
808  ,1.586e+09   ,-2.5  ,-0.2  ,0.1
809  ,1.404e+09   ,-2.5  ,-0.4  ,0.1
810  ,1.556e+09   ,-2.5  ,-0.6  ,0.1
811  ,1.553e+09   ,-2.5  ,-0.8  ,0.1
812  ,1.430e+09   ,-2.5  ,-1  ,0.1
813  ,1.121e+09   ,-2.5  ,-1.2  ,0.1
814  ,8.187e+08   ,-2.5  ,-1.4  ,0.1
815  ,6.784e+08   ,-2.5  ,-1.6  ,0.1
816  ,6.651e+08   ,-2.5  ,-1.8  ,0.1
817  ,8.179e+08   ,-2.5  ,-2  ,0.1
818  ,8.303e+08   ,-2.5  ,-2.2  ,0.1
819  ,1.406e+09   ,-2.5  ,-2.4  ,4.7
820  ,8.362e+08   ,-2.5  ,-2.4  ,4.5
821  ,1.319e+09   ,-2.5  ,-2.4  ,4.3
822  ,2.187e+09   ,-2.5  ,-2.4  ,4.1
823  ,2.608e+09   ,-2.5  ,-2.4  ,3.9
824  ,2.779e+09   ,-2.5  ,-2.4  ,3.7
825  ,2.963e+09   ,-2.5  ,-2.4  ,3.5
826  ,2.528e+09   ,-2.5  ,-2.4  ,3.3
827  ,2.235e+09   ,-2.5  ,-2.4  ,3.1
828  ,1.374e+09   ,-2.5  ,-2.4  ,2.9
829  ,8.409e+08   ,-2.5  ,-2.4  ,2.7
830  ,5.208e+08   ,-2.5  ,-2.4  ,2.5
831  ,2.920e+08   ,-2.5  ,-2.4  ,2.3
832  ,1.466e+08   ,-2.5  ,-2.4  ,2.1
833  ,3.441e+08   ,-2.5  ,-2.4  ,1.9
834  ,4.856e+08   ,-2.5  ,-2.4  ,1.7
835  ,8.344e+08   ,-2.5  ,-2.4  ,1.5
836  ,1.184e+09   ,-2.5  ,-2.4  ,1.3
837  ,1.447e+09   ,-2.5  ,-2.4  ,1.1
838  ,1.471e+09   ,-2.5  ,-2.4  ,0.9
839  ,1.042e+09   ,-2.5  ,-2.4  ,0.7
840  ,6.988e+08   ,-2.5  ,-2.4  ,0.5
841  ,1.463e+09   ,-2.5  ,-2.4  ,0.3
842  ,6.219e+08   ,-2.5  ,2.2  ,4.9
843  ,8.259e+08   ,-2.5  ,2  ,4.9
844  ,7.793e+08   ,-2.5  ,1.8  ,4.9
845  ,8.331e+08   ,-2.5  ,1.6  ,4.9
846  ,8.798e+08   ,-2.5  ,1.4  ,4.9
847  ,9.753e+08   ,-2.5  ,1.2  ,4.9
848  ,1.064e+09   ,-2.5  ,1  ,4.9
849  ,1.339e+09   ,-2.5  ,0.8  ,4.9
850  ,1.087e+09   ,-2.5  ,0.6  ,4.9
851  ,1.062e+09   ,-2.5  ,0.4  ,4.9
852  ,1.058e+09   ,-2.5  ,0.2  ,4.9
853  ,9.744e+08   ,-2.5  ,5.8879E-16  ,4.9
854  ,8.479e+08   ,-2.5  ,-0.2  ,4.9
855  ,8.234e+08   ,-2.5  ,-0.4  ,4.9
856  ,8.273e+08   ,-2.5  ,-0.6  ,4.9
857  ,1.011e+09   ,-2.5  ,-0.8  ,4.9
858  ,1.038e+09   ,-2.5  ,-1  ,4.9
859  ,1.076e+09   ,-2.5  ,-1.2  ,4.9
860  ,8.434e+08   ,-2.5  ,-1.4  ,4.9
861  ,7.447e+08   ,-2.5  ,-1.6  ,4.9
862  ,8.731e+08   ,-2.5  ,-1.8  ,4.9
863  ,1.267e+09   ,-2.5  ,-2  ,4.9
864  ,1.435e+09   ,-2.5  ,-2.2  ,4.9
865  ,5.697e+08   ,-2.5  ,2.4  ,4.7
866  ,8.687e+08   ,-2.5  ,2.4  ,4.5
867  ,1.023e+09   ,-2.5  ,2.4  ,4.3
868  ,9.764e+08   ,-2.5  ,2.4  ,4.1
869  ,1.239e+09   ,-2.5  ,2.4  ,3.9
870  ,1.380e+09   ,-2.5  ,2.4  ,3.7
871  ,1.586e+09   ,-2.5  ,2.4  ,3.5
872  ,1.740e+09   ,-2.5  ,2.4  ,3.3
873  ,1.723e+09   ,-2.5  ,2.4  ,3.1
874  ,1.711e+09   ,-2.5  ,2.4  ,2.9
875  ,1.717e+09   ,-2.5  ,2.4  ,2.7
876  ,1.676e+09   ,-2.5  ,2.4  ,2.5
877  ,1.643e+09   ,-2.5  ,2.4  ,2.3
878  ,1.612e+09   ,-2.5  ,2.4  ,2.1
879  ,1.488e+09   ,-2.5  ,2.4  ,1.9
880  ,1.366e+09   ,-2.5  ,2.4  ,1.7
881  ,1.372e+09   ,-2.5  ,2.4  ,1.5
882  ,1.515e+09   ,-2.5  ,2.4  ,1.3
883  ,1.366e+09   ,-2.5  ,2.4  ,1.1
884  ,1.318e+09   ,-2.5  ,2.4  ,0.9
885  ,1.183e+09   ,-2.5  ,2.4  ,0.7
886  ,9.087e+08   ,-2.5  ,2.4  ,0.5
887  ,4.707e+08   ,-2.5  ,2.4  ,0.3
1044  ,1.189e+09   ,-2.3  ,-2.5  ,0.44697
1045  ,6.414e+08   ,-2.3  ,-2.5  ,0.68705
1046  ,6.542e+08   ,-2.3  ,-2.5  ,0.92554
1047  ,3.793e+08   ,-2.3  ,-2.5  ,1.1682
1048  ,3.969e+08   ,-2.3  ,-2.5  ,1.4148
1049  ,9.758e+08   ,-2.3  ,-2.5  ,1.6581
1050  ,1.278e+09   ,-2.3  ,-2.5  ,1.8967
1051  ,1.566e+09   ,-2.3  ,-2.5  ,2.1357
1052  ,1.489e+09   ,-2.3  ,-2.5  ,2.3794
1053  ,1.142e+09   ,-2.3  ,-2.5  ,2.6206
1054  ,5.194e+08   ,-2.3  ,-2.5  ,2.8643
1055  ,5.589e+08   ,-2.3  ,-2.5  ,3.1033
1056  ,1.081e+09   ,-2.3  ,-2.5  ,3.342
1057  ,1.308e+09   ,-2.3  ,-2.5  ,3.5852
1058  ,1.345e+09   ,-2.3  ,-2.5  ,3.8318
1059  ,1.313e+09   ,-2.3  ,-2.5  ,4.0745
1060  ,1.179e+09   ,-2.3  ,-2.5  ,4.3129
1061  ,8.477e+08   ,-2.3  ,-2.5  ,4.553
1062  ,3.056e+09   ,-2.053  ,-2.5  ,4.8
1063  ,2.502e+09   ,-1.8129  ,-2.5  ,4.8
1064  ,1.832e+09   ,-1.5745  ,-2.5  ,4.8
1065  ,1.019e+09   ,-1.3318  ,-2.5  ,4.8
1066  ,5.837e+08   ,-1.0852  ,-2.5  ,4.8
1067  ,1.147e+09   ,-0.84195  ,-2.5  ,4.8
1068  ,1.791e+09   ,-0.60329  ,-2.5  ,4.8
1069  ,2.158e+09   ,-0.3643  ,-2.5  ,4.8
1070  ,2.053e+09   ,-0.12055  ,-2.5  ,4.8
1071  ,1.615e+09   ,0.12056  ,-2.5  ,4.8
1072  ,9.334e+08   ,0.3643  ,-2.5  ,4.8
1073  ,7.586e+08   ,0.6033  ,-2.5  ,4.8
1074  ,1.390e+09   ,0.84195  ,-2.5  ,4.8
1075  ,1.363e+09   ,1.0852  ,-2.5  ,4.8
1076  ,8.360e+08   ,1.3318  ,-2.5  ,4.8
1077  ,8.729e+08   ,1.5745  ,-2.5  ,4.8
1078  ,1.949e+09   ,1.8129  ,-2.5  ,4.8
1079  ,3.996e+09   ,2.053  ,-2.5  ,4.8
1080  ,3.887e+09   ,2.3  ,-2.5  ,4.553
1081  ,1.601e+09   ,2.3  ,-2.5  ,4.3129
1082  ,7.492e+08   ,2.3  ,-2.5  ,4.0745
1083  ,6.201e+08   ,2.3  ,-2.5  ,3.8318
1084  ,1.302e+09   ,2.3  ,-2.5  ,3.5852
1085  ,1.150e+09   ,2.3  ,-2.5  ,3.3419
1086  ,3.841e+08   ,2.3  ,-2.5  ,3.1033
1087  ,6.621e+08   ,2.3  ,-2.5  ,2.8643
1088  ,1.555e+09   ,2.3  ,-2.5  ,2.6206
1089  ,2.098e+09   ,2.3  ,-2.5  ,2.3794
1090  ,2.167e+09   ,2.3  ,-2.5  ,2.1357
1091  ,1.788e+09   ,2.3  ,-2.5  ,1.8967
1092  ,1.101e+09   ,2.3  ,-2.5  ,1.658
1093  ,5.318e+08   ,2.3  ,-2.5  ,1.4148
1094  ,1.063e+09   ,2.3  ,-2.5  ,1.1682
1095  ,1.805e+09   ,2.3  ,-2.5  ,0.92554
1096  ,2.445e+09   ,2.3  ,-2.5  ,0.68705
1097  ,2.991e+09   ,2.3  ,-2.5  ,0.44697
1098  ,1.043e+09   ,-2.053  ,-2.5  ,0.2
1099  ,6.388e+08   ,-1.8129  ,-2.5  ,0.2
1100  ,6.705e+08   ,-1.5745  ,-2.5  ,0.2
1101  ,3.415e+08   ,-1.3318  ,-2.5  ,0.2
1102  ,4.747e+08   ,-1.0852  ,-2.5  ,0.2
1103  ,9.856e+08   ,-0.84195  ,-2.5  ,0.2
1104  ,1.355e+09   ,-0.60329  ,-2.5  ,0.2
1105  ,1.553e+09   ,-0.3643  ,-2.5  ,0.2
1106  ,1.356e+09   ,-0.12055  ,-2.5  ,0.2
1107  ,1.034e+09   ,0.12056  ,-2.5  ,0.2
1108  ,5.432e+08   ,0.3643  ,-2.5  ,0.2
1109  ,3.710e+08   ,0.6033  ,-2.5  ,0.2
1110  ,1.115e+09   ,0.84195  ,-2.5  ,0.2
1111  ,1.350e+09   ,1.0852  ,-2.5  ,0.2
1112  ,1.315e+09   ,1.3318  ,-2.5  ,0.2
1113  ,1.177e+09   ,1.5745  ,-2.5  ,0.2
1114  ,1.045e+09   ,1.8129  ,-2.5  ,0.2
1115  ,1.052e+09   ,2.053  ,-2.5  ,0.2
1116  ,1.774e+09   ,-2.2  ,-2.5  ,4.9
1117  ,7.089e+08   ,-2  ,-2.5  ,4.9
1118  ,9.430e+08   ,-1.8  ,-2.5  ,4.9
1119  ,6.184e+08   ,-1.6  ,-2.5  ,4.9
1120  ,9.228e+08   ,-1.4  ,-2.5  ,4.9
1121  ,1.121e+09   ,-1.2  ,-2.5  ,4.9
1122  ,1.002e+09   ,-1  ,-2.5  ,4.9
1123  ,9.261e+08   ,-0.8  ,-2.5  ,4.9
1124  ,9.909e+08   ,-0.6  ,-2.5  ,4.9
1125  ,1.210e+09   ,-0.4  ,-2.5  ,4.9
1126  ,8.530e+08   ,-0.2  ,-2.5  ,4.9
1127  ,9.713e+08   ,-1.7664E-15  ,-2.5  ,4.9
1128  ,1.311e+09   ,0.2  ,-2.5  ,4.9
1129  ,1.759e+09   ,0.4  ,-2.5  ,4.9
1130  ,1.455e+09   ,0.6  ,-2.5  ,4.9
1131  ,1.358e+09   ,0.8  ,-2.5  ,4.9
1132  ,1.391e+09   ,1  ,-2.5  ,4.9
1133  ,1.703e+09   ,1.2  ,-2.5  ,4.9
1134  ,1.498e+09   ,1.4  ,-2.5  ,4.9
1135  ,1.574e+09   ,1.6  ,-2.5  ,4.9
1136  ,1.401e+09   ,1.8  ,-2.5  ,4.9
1137  ,1.163e+09   ,2  ,-2.5  ,4.9
1138  ,9.619e+08   ,2.2  ,-2.5  ,4.9
1139  ,1.887e+09   ,-2.4  ,-2.5  ,4.7
1140  ,1.211e+09   ,-2.4  ,-2.5  ,4.5
1141  ,7.581e+08   ,-2.4  ,-2.5  ,4.3
1142  ,5.139e+08   ,-2.4  ,-2.5  ,4.1
1143  ,7.522e+08   ,-2.4  ,-2.5  ,3.9
1144  ,1.093e+09   ,-2.4  ,-2.5  ,3.7
1145  ,7.532e+08   ,-2.4  ,-2.5  ,3.5
1146  ,1.033e+09   ,-2.4  ,-2.5  ,3.3
1147  ,9.548e+08   ,-2.4  ,-2.5  ,3.1
1148  ,1.059e+09   ,-2.4  ,-2.5  ,2.9
1149  ,9.530e+08   ,-2.4  ,-2.5  ,2.7
1150  ,1.019e+09   ,-2.4  ,-2.5  ,2.5
1151  ,8.748e+08   ,-2.4  ,-2.5  ,2.3
1152  ,8.652e+08   ,-2.4  ,-2.5  ,2.1
1153  ,7.629e+08   ,-2.4  ,-2.5  ,1.9
1154  ,7.777e+08   ,-2.4  ,-2.5  ,1.7
1155  ,7.768e+08   ,-2.4  ,-2.5  ,1.5
1156  ,8.125e+08   ,-2.4  ,-2.5  ,1.3
1157  ,6.094e+08   ,-2.4  ,-2.5  ,1.1
1158  ,7.194e+08   ,-2.4  ,-2.5  ,0.9
1159  ,8.982e+08   ,-2.4  ,-2.5  ,0.7
1160  ,8.125e+08   ,-2.4  ,-2.5  ,0.5
1161  ,6.724e+08   ,-2.4  ,-2.5  ,0.3
1162  ,8.668e+08   ,-2.2  ,-2.5  ,0.1
1163  ,1.157e+09   ,-2  ,-2.5  ,0.1
1164  ,1.008e+09   ,-1.8  ,-2.5  ,0.1
1165  ,6.810e+08   ,-1.6  ,-2.5  ,0.1
1166  ,6.581e+08   ,-1.4  ,-2.5  ,0.1
1167  ,7.992e+08   ,-1.2  ,-2.5  ,0.1
1168  ,7.655e+08   ,-1  ,-2.5  ,0.1
1169  ,7.790e+08   ,-0.8  ,-2.5  ,0.1
1170  ,7.952e+08   ,-0.6  ,-2.5  ,0.1
1171  ,7.918e+08   ,-0.4  ,-2.5  ,0.1
1172  ,8.686e+08   ,-0.2  ,-2.5  ,0.1
1173  ,9.522e+08   ,-1.7664E-15  ,-2.5  ,0.1
1174  ,9.496e+08   ,0.2  ,-2.5  ,0.1
1175  ,9.985e+08   ,0.4  ,-2.5  ,0.1
1176  ,1.129e+09   ,0.6  ,-2.5  ,0.1
1177  ,8.872e+08   ,0.8  ,-2.5  ,0.1
1178  ,9.644e+08   ,1  ,-2.5  ,0.1
1179  ,9.877e+08   ,1.2  ,-2.5  ,0.1
1180  ,7.854e+08   ,1.4  ,-2.5  ,0.1
1181  ,6.915e+08   ,1.6  ,-2.5  ,0.1
1182  ,8.957e+08   ,1.8  ,-2.5  ,0.1
1183  ,1.120e+09   ,2  ,-2.5  ,0.1
1184  ,1.940e+09   ,2.2  ,-2.5  ,0.1
1185  ,1.328e+09   ,2.4  ,-2.5  ,4.7
1186  ,1.200e+09   ,2.4  ,-2.5  ,4.5
1187  ,1.176e+09   ,2.4  ,-2.5  ,4.3
1188  ,1.411e+09   ,2.4  ,-2.5  ,4.1
1189  ,1.599e+09   ,2.4  ,-2.5  ,3.9
1190  ,1.589e+09   ,2.4  ,-2.5  ,3.7
1191  ,1.213e+09   ,2.4  ,-2.5  ,3.5
1192  ,1.384e+09   ,2.4  ,-2.5  ,3.3
1193  ,1.507e+09   ,2.4  ,-2.5  ,3.1
1194  ,1.586e+09   ,2.4  ,-2.5  ,2.9
1195  ,1.367e+09   ,2.4  ,-2.5  ,2.7
1196  ,1.062e+09   ,2.4  ,-2.5  ,2.5
1197  ,8.599e+08   ,2.4  ,-2.5  ,2.3
1198  ,1.149e+09   ,2.4  ,-2.5  ,2.1
1199  ,1.043e+09   ,2.4  ,-2.5  ,1.9
1200  ,1.118e+09   ,2.4  ,-2.5  ,1.7
1201  ,1.095e+09   ,2.4  ,-2.5  ,1.5
1202  ,1.008e+09   ,2.4  ,-2.5  ,1.3
1203  ,7.098e+08   ,2.4  ,-2.5  ,1.1
1204  ,5.494e+08   ,2.4  ,-2.5  ,0.9
1205  ,5.543e+08   ,2.4  ,-2.5  ,0.7
1206  ,1.212e+09   ,2.4  ,-2.5  ,0.5
1207  ,1.785e+09   ,2.4  ,-2.5  ,0.3
1208  ,1.413e+09   ,2.4  ,-2.2  ,0
1209  ,1.278e+09   ,2.4  ,-2  ,0
1210  ,8.559e+08   ,2.4  ,-1.8  ,0
1211  ,7.603e+08   ,2.4  ,-1.6  ,0
1212  ,9.459e+08   ,2.4  ,-1.4  ,0
1213  ,1.064e+09   ,2.4  ,-1.2  ,0
1214  ,1.074e+09   ,2.4  ,-1  ,0
1215  ,1.105e+09   ,2.4  ,-0.8  ,0
1216  ,8.702e+08   ,2.4  ,-0.6  ,0
1217  ,8.167e+08   ,2.4  ,-0.4  ,0
1218  ,8.983e+08   ,2.4  ,-0.2  ,0
1219  ,9.699e+08   ,2.4  ,-1.7664E-15  ,0
1220  ,1.065e+09   ,2.4  ,0.2  ,0
1221  ,1.047e+09   ,2.4  ,0.4  ,0
1222  ,1.163e+09   ,2.4  ,0.6  ,0
1223  ,1.282e+09   ,2.4  ,0.8  ,0
1224  ,1.038e+09   ,2.4  ,1  ,0
1225  ,9.816e+08   ,2.4  ,1.2  ,0
1226  ,9.263e+08   ,2.4  ,1.4  ,0
1227  ,8.317e+08   ,2.4  ,1.6  ,0
1228  ,9.161e+08   ,2.4  ,1.8  ,0
1229  ,8.735e+08   ,2.4  ,2  ,0
1230  ,6.526e+08   ,2.4  ,2.2  ,0
1231  ,1.314e+09   ,-2.2  ,-2.4  ,0
1232  ,7.043e+08   ,-2  ,-2.4  ,0
1233  ,1.163e+09   ,-1.8  ,-2.4  ,0
1234  ,1.556e+09   ,-1.6  ,-2.4  ,0
1235  ,1.478e+09   ,-1.4  ,-2.4  ,0
1236  ,1.119e+09   ,-1.2  ,-2.4  ,0
1237  ,7.281e+08   ,-1  ,-2.4  ,0
1238  ,4.631e+08   ,-0.8  ,-2.4  ,0
1239  ,2.329e+08   ,-0.6  ,-2.4  ,0
1240  ,1.488e+08   ,-0.4  ,-2.4  ,0
1241  ,3.394e+08   ,-0.2  ,-2.4  ,0
1242  ,6.090e+08   ,5.8879E-16  ,-2.4  ,0
1243  ,9.244e+08   ,0.2  ,-2.4  ,0
1244  ,1.462e+09   ,0.4  ,-2.4  ,0
1245  ,2.093e+09   ,0.6  ,-2.4  ,0
1246  ,2.874e+09   ,0.8  ,-2.4  ,0
1247  ,3.037e+09   ,1  ,-2.4  ,0
1248  ,3.069e+09   ,1.2  ,-2.4  ,0
1249  ,2.648e+09   ,1.4  ,-2.4  ,0
1250  ,2.117e+09   ,1.6  ,-2.4  ,0
1251  ,1.396e+09   ,1.8  ,-2.4  ,0
1252  ,1.006e+09   ,2  ,-2.4  ,0
1253  ,1.615e+09   ,2.2  ,-2.4  ,0
1254  ,3.885e+08   ,-2.4  ,2.2  ,0
1255  ,7.088e+08   ,-2.4  ,2  ,0
1256  ,1.064e+09   ,-2.4  ,1.8  ,0
1257  ,1.258e+09   ,-2.4  ,1.6  ,0
1258  ,1.516e+09   ,-2.4  ,1.4  ,0
1259  ,1.735e+09   ,-2.4  ,1.2  ,0
1260  ,1.943e+09   ,-2.4  ,1  ,0
1261  ,2.118e+09   ,-2.4  ,0.8  ,0
1262  ,2.209e+09   ,-2.4  ,0.6  ,0
1263  ,2.184e+09   ,-2.4  ,0.4  ,0
1264  ,2.092e+09   ,-2.4  ,0.2  ,0
1265  ,2.002e+09   ,-2.4  ,5.8879E-16  ,0
1266  ,1.690e+09   ,-2.4  ,-0.2  ,0
1267  ,1.493e+09   ,-2.4  ,-0.4  ,0
1268  ,1.550e+09   ,-2.4  ,-0.6  ,0
1269  ,1.458e+09   ,-2.4  ,-0.8  ,0
1270  ,1.338e+09   ,-2.4  ,-1  ,0
1271  ,1.093e+09   ,-2.4  ,-1.2  ,0
1272  ,8.559e+08   ,-2.4  ,-1.4  ,0
1273  ,7.877e+08   ,-2.4  ,-1.6  ,0
1274  ,7.541e+08   ,-2.4  ,-1.8  ,0
1275  ,8.272e+08   ,-2.4  ,-2  ,0
1276  ,7.581e+08   ,-2.4  ,-2.2  ,0
1277  ,5.625e+08   ,2.2  ,2.4  ,0
1278  ,9.230e+08   ,2  ,2.4  ,0
1279  ,1.104e+09   ,1.8  ,2.4  ,0
1280  ,1.013e+09   ,1.6  ,2.4  ,0
1281  ,1.101e+09   ,1.4  ,2.4  ,0
1282  ,1.391e+09   ,1.2  ,2.4  ,0
1283  ,1.636e+09   ,1  ,2.4  ,0
1284  ,1.788e+09   ,0.8  ,2.4  ,0
1285  ,1.856e+09   ,0.6  ,2.4  ,0
1286  ,1.781e+09   ,0.4  ,2.4  ,0
1287  ,1.795e+09   ,0.2  ,2.4  ,0
1288  ,1.679e+09   ,5.8879E-16  ,2.4  ,0
1289  ,1.813e+09   ,-0.2  ,2.4  ,0
1290  ,1.537e+09   ,-0.4  ,2.4  ,0
1291  ,1.431e+09   ,-0.6  ,2.4  ,0
1292  ,1.402e+09   ,-0.8  ,2.4  ,0
1293  ,1.466e+09   ,-1  ,2.4  ,0
1294  ,1.499e+09   ,-1.2  ,2.4  ,0
1295  ,1.418e+09   ,-1.4  ,2.4  ,0
1296  ,1.347e+09   ,-1.6  ,2.4  ,0
1297  ,1.201e+09   ,-1.8  ,2.4  ,0
1298  ,8.880e+08   ,-2  ,2.4  ,0
1299  ,4.636e+08   ,-2.2  ,2.4  ,0
1460  ,1.233e+10   ,2.3243  ,2.3243  ,4.9577
1461  ,1.119e+10   ,2.4577  ,2.3243  ,4.8243
1462  ,7.562e+09   ,2.3243  ,2.4577  ,4.8243
1463  ,1.967e+09   ,-2.3  ,-2.1759  ,4.8
1464  ,1.789e+09   ,-2.3  ,-1.7631  ,4.8
1465  ,1.483e+09   ,-2.3  ,-1.1827  ,4.8
1466  ,2.478e+09   ,-2.3  ,-0.34986  ,4.8
1467  ,2.671e+09   ,-2.3  ,0.80545  ,4.8
1468  ,2.907e+09   ,-0.81337  ,2.3  ,4.8
1469  ,5.139e+09   ,0.67326  ,2.3  ,4.8
1470  ,2.414e+09   ,2.3  ,-2.1824  ,4.8
1471  ,1.933e+09   ,2.3  ,-1.7784  ,4.8
1472  ,1.891e+09   ,2.3  ,-1.2138  ,4.8
1473  ,2.810e+09   ,2.3  ,-0.40752  ,4.8
1474  ,4.299e+09   ,2.3  ,0.70532  ,4.8
1516  ,2.966e+09   ,2.3  ,2.3  ,1.6866
1517  ,5.171e+09   ,2.3  ,2.3  ,3.1733
1518  ,2.042e+09   ,2.3  ,-2.1759  ,0.2
1519  ,1.802e+09   ,2.3  ,-1.7631  ,0.2
1520  ,1.494e+09   ,2.3  ,-1.1827  ,0.2
1521  ,2.419e+09   ,2.3  ,-0.34986  ,0.2
1522  ,2.750e+09   ,2.3  ,0.80545  ,0.2
1564  ,2.504e+09   ,-0.76667  ,2.3  ,0.2
1565  ,2.940e+09   ,0.76667  ,2.3  ,0.2
1566  ,2.421e+09   ,-2.3  ,2.3  ,1.7333
1567  ,3.019e+09   ,-2.3  ,2.3  ,3.2667
1574  ,6.205e+08   ,-2.3  ,-2.1759  ,0.2
1575  ,3.291e+08   ,-2.3  ,-1.7631  ,0.2
1576  ,6.503e+08   ,-2.3  ,-1.1827  ,0.2
1577  ,9.137e+08   ,-2.3  ,-0.34986  ,0.2
1578  ,9.960e+08   ,-2.3  ,0.80545  ,0.2
1777  ,3.124e+09   ,-0.52764  ,2.5  ,4.9
1801  ,7.156e+08   ,-2.3  ,1.5527  ,0.2
1825  ,1.840e+09   ,-1.5333  ,2.3  ,0.2
1841  ,2.836e+09   ,0.063638  ,2.5  ,4.9
1876  ,1.456e+09   ,-0.5  ,2.4  ,0
1894  ,2.605e+09   ,2.3  ,1.5527  ,0.2
1907  ,7.463e+08   ,2.1  ,2.5  ,0.1
1928  ,9.882e+08   ,1.9  ,2.4  ,0
1974  ,1.006e+09   ,2.4  ,1.1  ,0
1981  ,9.677e+08   ,2.4  ,2.5  ,0.59273
1987  ,1.165e+09   ,-2.5  ,2.4  ,4
2004  ,6.660e+08   ,-2.4  ,2.5  ,4.6
2009  ,9.023e+08   ,2.4  ,1.3  ,0
2020  ,9.369e+08   ,2.5  ,1.1  ,0.1
2035  ,9.108e+08   ,-2.3  ,-0.76628  ,0.2
2070  ,6.972e+09   ,1.6404  ,2.4  ,5
2081  ,2.737e+09   ,2.4  ,2.5  ,1.9724
2095  ,1.425e+09   ,2.4  ,2.5  ,0.78982
2138  ,1.805e+09   ,-2.4  ,-0.1  ,0
2146  ,2.743e+09   ,-0.92182  ,2.4  ,5
2174  ,2.243e+09   ,2.4  ,2.5  ,1.184
2190  ,1.744e+09   ,2.5  ,2.4  ,0.98691
2203  ,2.835e+09   ,2.5  ,-0.13345  ,4.9
2232  ,4.906e+09   ,2.3  ,0.1489  ,4.8
2242  ,3.229e+09   ,2.4  ,2.5  ,2.9578
2293  ,2.283e+09   ,-2.5  ,0.5  ,0.1
2311  ,5.589e+09   ,2.3  ,2.3  ,2.4299
2313  ,1.564e+09   ,2.5  ,2.4  ,0.78982
2329  ,2.554e+09   ,2.4  ,2.5  ,2.1695
2355  ,7.665e+08   ,-2.4  ,2.5  ,4.4
2380  ,7.184e+08   ,-2.5  ,-1.5  ,0.1
2383  ,3.113e+09   ,0.45782  ,2.5  ,4.9
2408  ,2.606e+09   ,2.3  ,-1.4961  ,4.8
2445  ,2.042e+09   ,2.5  ,-1.5131  ,4.9
2484  ,5.784e+08   ,-2.5  ,-2.4  ,1.6
2495  ,7.846e+08   ,-2.4  ,1.7  ,5
2508  ,1.065e+09   ,2.4  ,0.3  ,0
2514  ,3.269e+09   ,2.3  ,0.2278  ,0.2
2570  ,8.410e+08   ,-2.4  ,1.5  ,5
2580  ,6.747e+09   ,1.6404  ,2.5  ,4.9
2603  ,2.960e+09   ,-1.1189  ,2.5  ,4.9
2695  ,2.224e+09   ,2.3  ,2.3  ,0.94331
2705  ,2.989e+09   ,2.4  ,2.5  ,1.3811
2714  ,1.859e+09   ,2.5  ,0.45782  ,4.9
2734  ,1.042e+09   ,2.4  ,-0.9  ,0
2775  ,1.002e+09   ,2.5  ,-0.1  ,0.1
2779  ,9.485e+08   ,2.4  ,-0.1  ,0
2801  ,9.042e+09   ,1.4166  ,2.3  ,4.8
2814  ,5.110e+09   ,1.4433  ,2.5  ,4.9
2863  ,1.377e+09   ,-2.4  ,2.5  ,0.6
2884  ,1.487e+09   ,-2.4  ,2.5  ,0.8
2886  ,1.653e+09   ,-2.4  ,2.5  ,1.2
2967  ,8.125e+08   ,2.4  ,1.7  ,0
2973  ,8.769e+08   ,2.5  ,1.5  ,0.1
2987  ,1.145e+09   ,-0.3  ,2.5  ,0.1
3008  ,1.904e+09   ,-2.3  ,2.3  ,0.96667
3012  ,1.693e+09   ,-2.5  ,2.4  ,2.6
3021  ,1.666e+09   ,-2.5  ,2.4  ,2.8
3025  ,1.628e+09   ,-2.5  ,2.4  ,2.4
3030  ,1.682e+09   ,-2.4  ,2.5  ,2.4
3033  ,1.638e+09   ,-2.4  ,2.5  ,2.2
3047  ,2.748e+09   ,2.4  ,2.5  ,2.3665
3052  ,3.038e+09   ,2.5  ,2.4  ,2.5636
3061  ,2.847e+09   ,2.4  ,2.5  ,2.5636
3081  ,9.287e+08   ,-2.4  ,1.3  ,5
3088  ,7.714e+08   ,-1.9073  ,2.4  ,5
3099  ,8.342e+08   ,-2.4  ,1.9  ,5
3107  ,1.008e+09   ,-2.4  ,2.5  ,3.8
3139  ,1.733e+09   ,-1.5131  ,2.4  ,5
3145  ,1.913e+09   ,-1.5131  ,2.5  ,4.9
3148  ,1.351e+09   ,-1.7102  ,2.5  ,4.9
3168  ,1.384e+09   ,-2.4  ,1.5  ,0
3188  ,1.508e+09   ,-2.5  ,-2.4  ,1
3202  ,2.878e+09   ,0.26073  ,2.5  ,4.9
3212  ,6.308e+09   ,2.5  ,1.6404  ,4.9
3247  ,1.072e+10   ,2.5  ,1.8375  ,4.9
3265  ,8.760e+09   ,2.3  ,1.4326  ,4.8
3271  ,1.480e+10   ,2.2299  ,2.2299  ,4.8
3284  ,4.572e+09   ,2.4  ,1.4433  ,5
3291  ,4.689e+09   ,2.5  ,1.4433  ,4.9
3296  ,2.042e+09   ,-2.3  ,-0.76628  ,4.8
3303  ,1.217e+09   ,-2.4  ,-0.9  ,5
3311  ,1.112e+09   ,-2.4  ,-0.7  ,5
3315  ,8.685e+08   ,1.9  ,2.5  ,0.1
3336  ,2.132e+09   ,-2.4  ,0.3  ,0
3340  ,2.006e+09   ,-2.5  ,0.1  ,0.1
3344  ,2.039e+09   ,-2.4  ,0.1  ,0
3356  ,1.610e+09   ,-0.3  ,2.4  ,0
3361  ,2.568e+09   ,-0.33054  ,2.5  ,4.9
3364  ,2.621e+09   ,-0.13345  ,2.5  ,4.9
3383  ,3.675e+09   ,2.4  ,2.5  ,3.5491
3402  ,1.707e+10   ,2.4  ,2.5  ,4.5345
3421  ,2.367e+09   ,-1.316  ,2.5  ,4.9
3439  ,5.004e+09   ,2.5  ,2.4  ,3.9433
3447  ,5.076e+09   ,2.4  ,2.5  ,3.9433
3451  ,4.087e+09   ,2.4  ,2.5  ,3.7462
3468  ,5.111e+09   ,1.4433  ,2.4  ,5
3480  ,3.421e+09   ,1.0491  ,2.4  ,5
3519  ,1.030e+09   ,1.5  ,2.4  ,0
3527  ,2.081e+09   ,2.3  ,-1.4729  ,0.2
3550  ,1.276e+09   ,-1.7  ,2.4  ,0
3554  ,1.531e+09   ,-1.7  ,2.5  ,0.1
3558  ,1.358e+09   ,-1.5  ,2.4  ,0
3562  ,1.598e+09   ,-1.5  ,2.5  ,0.1
3574  ,6.364e+08   ,-2.4  ,2.1  ,5
3581  ,1.124e+09   ,-2.5  ,1.7  ,0.1
3583  ,8.945e+08   ,-2.5  ,1.9  ,0.1
3584  ,8.037e+08   ,-1.9073  ,2.5  ,4.9
3591  ,1.142e+09   ,2.5  ,0.3  ,0.1
3595  ,1.047e+09   ,2.5  ,0.1  ,0.1
3603  ,1.903e+10   ,2.4577  ,2.391  ,4.7576
3663  ,7.579e+08   ,-1.933  ,-2.5  ,0.2
3669  ,1.716e+09   ,-2.1765  ,-2.5  ,0.2
3672  ,1.085e+09   ,-2.3  ,-2.3379  ,0.2
3682  ,8.412e+08   ,-1.9  ,-2.4  ,0
3700  ,1.134e+09   ,2.3  ,-2.5  ,2.7424
3712  ,1.537e+09   ,-2.1  ,-2.5  ,4.9
3715  ,9.409e+08   ,-1.9  ,-2.5  ,4.9
3740  ,1.787e+09   ,-1.3  ,-2.4  ,5
3746  ,7.393e+08   ,-1.2085  ,-2.5  ,4.8
3755  ,2.284e+09   ,-1.5  ,-2.4  ,5
3760  ,8.206e+08   ,-1.7  ,-2.5  ,4.9
3786  ,2.938e+09   ,2.4  ,2.5  ,1.5782
3813  ,2.864e+09   ,0.26073  ,2.4  ,5
3858  ,8.862e+08   ,-0.9  ,-2.4  ,5
3863  ,1.176e+09   ,-2.5  ,0.9  ,4.9
3875  ,2.763e+09   ,-1.9  ,-2.4  ,5
3885  ,2.292e+09   ,2.4  ,-0.72473  ,5
3910  ,8.700e+08   ,-2.4  ,-2.5  ,3.4
3959  ,7.374e+09   ,2.5  ,2.4  ,4.1404
3969  ,3.027e+09   ,2.5  ,1.0491  ,4.9
3992  ,1.624e+10   ,2.391  ,2.2576  ,4.9577
3993  ,1.864e+10   ,2.4577  ,2.2576  ,4.891
4016  ,3.040e+08   ,-2.3015  ,2.5  ,4.9
4018  ,4.095e+08   ,-2.4  ,2.5  ,4.8
4021  ,3.744e+09   ,1.2462  ,2.4  ,5
4042  ,1.042e+09   ,2.4  ,-1.1  ,0
4046  ,1.410e+09   ,-0.9  ,2.4  ,0
4055  ,1.438e+09   ,1.7  ,-2.5  ,4.9
4087  ,1.100e+09   ,1.7  ,2.4  ,0
4114  ,2.370e+09   ,2.5  ,-0.33054  ,4.9
4120  ,1.110e+09   ,2.4  ,-2.5  ,1.8
4125  ,1.416e+09   ,2.4  ,2.5  ,0.98691
4144  ,1.131e+10   ,2.4  ,2.5  ,4.3375
4161  ,1.162e+09   ,-2.4  ,0.3  ,5
4201  ,1.061e+09   ,1.933  ,-2.5  ,0.2
4225  ,1.096e+09   ,-2.3  ,-2.4  ,0
4230  ,7.525e+08   ,-2.3  ,-2.5  ,0.56701
4269  ,8.874e+08   ,-0.9  ,-2.5  ,4.9
4277  ,1.276e+09   ,-1.1  ,-2.4  ,5
4288  ,4.656e+09   ,-0.070055  ,2.3  ,4.8
4328  ,1.675e+09   ,-2.5  ,-2.4  ,4.2
4336  ,1.028e+09   ,-2.5  ,-2.4  ,4.4
4342  ,8.759e+08   ,-2.5  ,-2.4  ,4.6
4348  ,1.531e+09   ,-2.4  ,-2.4707  ,4.9707
4352  ,1.702e+09   ,-2.3  ,-2.5  ,4.9
4354  ,3.218e+09   ,-2.1765  ,-2.5  ,4.8
4355  ,2.100e+09   ,-2.3  ,-2.3379  ,4.8
4362  ,8.864e+08   ,2.5  ,2.4  ,0.59273
4364  ,5.412e+08   ,2.5  ,-2.4  ,2.4
4366  ,7.754e+08   ,2.5  ,-2.4  ,2.2
4372  ,1.012e+09   ,2.4  ,-2.5  ,2.2
4385  ,7.670e+08   ,-2.5  ,-1.9  ,0.1
4399  ,5.596e+08   ,-2.5  ,2.1  ,0.1
4407  ,3.522e+08   ,-0.7  ,-2.4  ,0
4436  ,1.754e+09   ,-2.5  ,-0.1  ,0.1
4462  ,2.409e+09   ,-2.3  ,2.3  ,4.0333
4491  ,2.117e+09   ,2.5  ,-0.52764  ,4.9
4494  ,1.492e+09   ,2.5  ,-2.4  ,1.4
4503  ,1.056e+09   ,2.4  ,-2.5  ,1.4
4508  ,9.196e+08   ,2.4  ,-2.5  ,1.2
4515  ,1.027e+09   ,2.5  ,-2.4  ,1.8
4517  ,1.155e+09   ,2.4  ,-2.5  ,1.6
4522  ,2.392e+09   ,0.7  ,-2.4  ,0
4538  ,2.549e+09   ,-1.1189  ,2.4  ,5
4546  ,6.666e+09   ,2.4  ,2.5  ,4.1404
4559  ,1.726e+09   ,1.7  ,-2.4  ,0
4590  ,1.736e+09   ,0.5  ,-2.4  ,0
4631  ,1.240e+09   ,2.4  ,-2.5  ,2.6
4634  ,1.691e+09   ,2.5  ,-2.4  ,2.8
4657  ,2.920e+08   ,-2.5  ,-2.4  ,2
4660  ,3.919e+08   ,-2.5  ,-2.4  ,1.8
4664  ,2.405e+08   ,-0.3  ,-2.4  ,0
4675  ,1.529e+09   ,-2.4  ,-2.5  ,4.8
4681  ,1.451e+09   ,-2.5  ,-0.3  ,0.1
4684  ,7.946e+08   ,1.7  ,-2.4  ,5
4703  ,1.241e+09   ,-2.4  ,0.7  ,5
4707  ,1.063e+09   ,-2.5  ,0.3  ,4.9
4714  ,2.135e+09   ,2.4  ,-0.33054  ,5
4723  ,2.781e+09   ,-1.5567  ,2.3  ,4.8
4739  ,3.516e+08   ,-2.1044  ,2.5  ,4.9
4763  ,9.833e+08   ,-1.9  ,2.4  ,0
4780  ,3.757e+08   ,-2.3  ,-1.9695  ,0.2
4782  ,8.108e+08   ,-2.4707  ,-2.4  ,0.029289
4784  ,7.464e+08   ,-2.4  ,-1.9  ,0
4791  ,7.970e+08   ,-2.4  ,-2.5  ,1.8
4796  ,2.943e+09   ,2.4707  ,-2.4707  ,4.9
4799  ,3.478e+09   ,2.5  ,-2.4  ,4.8
4806  ,2.022e+09   ,2.3  ,-2.5  ,4.9
4809  ,9.375e+09   ,2.3  ,2.3  ,3.9166
4833  ,1.063e+09   ,-2.4  ,2.5  ,0.4
4841  ,1.745e+09   ,-2.4  ,2.5  ,2.6
4846  ,6.976e+08   ,-2.5  ,2.1  ,4.9
4848  ,4.903e+08   ,-2.5  ,2.3  ,4.9
4849  ,4.618e+08   ,-2.5  ,2.4  ,4.8
4893  ,9.074e+08   ,-2.4  ,2.5  ,4.2
4897  ,1.891e+10   ,2.3333  ,2.1998  ,5
4900  ,1.730e+10   ,2.391  ,2.4577  ,4.7576
4908  ,1.895e+10   ,2.2576  ,2.391  ,4.9577
4911  ,1.745e+10   ,2.2576  ,2.4577  ,4.891
4926  ,1.314e+09   ,-2.5  ,2.4  ,1
4932  ,1.609e+09   ,-2.4  ,2.5  ,1.6
4937  ,1.719e+09   ,-1.1  ,2.5  ,0.1
4939  ,1.494e+10   ,2.3  ,2.2299  ,4.7299
4944  ,2.494e+09   ,2.5  ,-1.9073  ,4.9
4987  ,2.392e+09   ,-2.3  ,1.5527  ,4.8
5010  ,4.429e+10   ,2.4973  ,2.1331  ,4.923
5013  ,1.500e+10   ,2.5  ,2.0345  ,4.9
5017  ,1.710e+10   ,2.4  ,2.0345  ,5
5035  ,2.774e+09   ,1.3  ,-2.4  ,0
5038  ,1.330e+09   ,1.2085  ,-2.5  ,0.2
5092  ,6.941e+08   ,-2.4  ,-2.5  ,1.2
5123  ,2.822e+09   ,2.5  ,-2.4  ,0.6
5151  ,1.475e+09   ,-2.5  ,-0.5  ,0.1
5160  ,1.553e+09   ,-2.5  ,-0.7  ,0.1
5164  ,1.196e+09   ,-2.4  ,0.9  ,5
5168  ,1.124e+09   ,-2.4  ,0.5  ,5
5176  ,1.031e+09   ,2.5  ,-0.7  ,0.1
5179  ,7.844e+08   ,2.4  ,-0.5  ,0
5189  ,9.452e+08   ,2.4  ,-2.5  ,2.4
5194  ,2.195e+09   ,2.3  ,-2.5  ,2.2576
5198  ,1.626e+09   ,-2.3  ,-2.5  ,0.32348
5205  ,6.032e+08   ,-2.4  ,-2.5  ,0.2
5207  ,9.338e+08   ,-2.1  ,-2.5  ,0.1
5246  ,1.709e+09   ,-2.5  ,2.4  ,3.2
5257  ,8.469e+08   ,-2.5  ,1.5  ,4.9
5263  ,1.250e+09   ,-2.3  ,0.2278  ,0.2
5272  ,2.158e+09   ,-2.5  ,0.3  ,0.1
5275  ,1.004e+09   ,-2.5  ,0.5  ,4.9
5281  ,8.521e+09   ,1.8375  ,2.5  ,4.9
5297  ,1.686e+09   ,-0.9  ,2.5  ,0.1
5306  ,1.380e+09   ,-0.7  ,2.4  ,0
5309  ,1.393e+09   ,-0.5  ,2.5  ,0.1
5324  ,2.913e+09   ,2.4  ,2.5  ,2.7607
5332  ,2.449e+09   ,2.5  ,-2.4  ,0.8
5334  ,6.173e+08   ,2.4  ,-2.5  ,1
5360  ,2.220e+09   ,2.4  ,-1.7102  ,5
5362  ,2.174e+09   ,2.4  ,-1.5131  ,5
5368  ,8.999e+09   ,2.4  ,1.8375  ,5
5371  ,3.907e+10   ,2.4325  ,2.4888  ,4.6656
5372  ,2.627e+10   ,2.3333  ,2.5  ,4.6998
5376  ,3.381e+10   ,2.4707  ,2.4707  ,4.6331
5377  ,2.010e+10   ,2.5  ,2.4  ,4.5345
5379  ,7.036e+08   ,-1.5  ,-2.5  ,4.9
5406  ,2.658e+09   ,-2.5  ,-2.4  ,3.4
5420  ,8.655e+08   ,-2.3  ,-2.5  ,3.2226
5423  ,2.313e+09   ,1.5  ,-2.4  ,0
5502  ,8.296e+08   ,-2.5  ,-2.3  ,0.1
5504  ,1.029e+09   ,-2.5  ,-2.4  ,0.2
5506  ,9.203e+08   ,-2.4  ,-2.3  ,0
5511  ,7.763e+08   ,-2.5  ,-2.1  ,0.1
5513  ,2.171e+09   ,-2.4  ,0.5  ,0
5517  ,7.547e+08   ,-0.9  ,-2.5  ,0.1
5532  ,2.718e+08   ,-2.4707  ,2.4707  ,4.9
5534  ,9.814e+08   ,2.4  ,-0.7  ,0
5551  ,3.136e+09   ,2.5  ,-2.4  ,3.8
5566  ,2.158e+09   ,2.5  ,2.4  ,1.3811
5603  ,8.414e+08   ,2.4  ,-0.3  ,0
5617  ,1.038e+09   ,-2.1  ,2.5  ,0.1
5637  ,2.044e+09   ,-2.3  ,-1.9695  ,4.8
5641  ,1.315e+09   ,2.3  ,-2.5  ,3.4636
5645  ,8.404e+08   ,-2.4  ,-2.5  ,2
5649  ,8.755e+08   ,-2.4  ,-2.5  ,2.2
5659  ,1.140e+09   ,-2.3  ,-2.5  ,1.7774
5662  ,4.620e+09   ,2.1765  ,-2.5  ,4.8
5666  ,1.943e+09   ,2.4  ,-2.5  ,4.8
5669  ,2.779e+09   ,2.3  ,-2.3412  ,4.8
5695  ,2.148e+09   ,-2.4  ,0.7  ,0
5701  ,1.346e+09   ,-2.5  ,2.4  ,1.6
5715  ,1.605e+09   ,-2.4  ,2.5  ,1.8
5726  ,1.605e+09   ,-0.7  ,2.5  ,0.1
5727  ,1.512e+09   ,-1.1  ,2.4  ,0
5730  ,1.472e+09   ,2.3  ,-2.5  ,1.7774
5746  ,2.893e+09   ,2.5  ,2.4  ,1.7753
5755  ,7.969e+08   ,2.5  ,-2.4  ,4.4
5763  ,1.057e+09   ,2.4  ,-2.5  ,4.4
5773  ,3.514e+09   ,1.0491  ,2.5  ,4.9
5791  ,2.791e+09   ,-0.72473  ,2.4  ,5
5795  ,9.535e+09   ,1.8375  ,2.4  ,5
5803  ,7.447e+08   ,-0.3  ,-2.4  ,5
5810  ,5.903e+09   ,2.4  ,1.6404  ,5
5836  ,8.664e+08   ,-2.5  ,1.3  ,4.9
5860  ,1.201e+09   ,2.5  ,-2.4  ,1.6
5866  ,7.026e+08   ,1.5  ,-2.5  ,0.1
5884  ,9.939e+08   ,-2.4  ,-0.3  ,5
5888  ,8.025e+08   ,-2.5  ,-0.5  ,4.9
5901  ,1.860e+09   ,2.3  ,-2.5  ,2.5
5908  ,1.833e+09   ,2.5  ,-2.4  ,1.2
5909  ,9.833e+08   ,2.5  ,-2.4  ,2
5934  ,1.184e+09   ,1.9  ,-2.5  ,4.9
5938  ,2.697e+09   ,1.933  ,-2.5  ,4.8
5948  ,1.426e+09   ,-2.4  ,-2.5  ,4.6
5950  ,1.274e+09   ,-2.4707  ,-2.4707  ,4.9
5951  ,1.326e+09   ,-2.5  ,-2.4  ,4.8
5952  ,1.255e+09   ,-2.5  ,-2.3  ,4.9
5986  ,1.003e+09   ,2.3  ,-2.5  ,3.7085
5990  ,2.752e+09   ,-0.92182  ,2.5  ,4.9
6019  ,6.177e+08   ,2.5  ,1.9  ,0.1
6025  ,9.127e+08   ,2.4  ,-1.3  ,0
6035  ,7.994e+08   ,-2.5  ,1.9  ,4.9
6044  ,2.353e+09   ,0.1  ,2.5  ,0.1
6054  ,1.005e+09   ,2.4  ,0.1  ,0
6070  ,3.083e+08   ,-2.4  ,2.3  ,0
6071  ,2.845e+08   ,-2.3  ,2.4  ,0
6076  ,5.446e+08   ,-2.4  ,2.1  ,0
6083  ,1.171e+09   ,2.1  ,-2.4  ,0
6084  ,4.053e+08   ,2.4  ,2.3  ,0
6087  ,4.307e+08   ,2.3  ,2.4  ,0
6092  ,8.241e+08   ,-2.4  ,-2.5  ,0.4
6096  ,5.400e+08   ,-2.3  ,-2.5  ,0.1
6099  ,1.006e+09   ,0.7  ,-2.5  ,0.1
6149  ,1.413e+09   ,-2.4  ,-0.9  ,0
6159  ,7.110e+08   ,-2.5  ,-2.4  ,2.6
6183  ,4.030e+09   ,1.2462  ,2.5  ,4.9
6224  ,2.131e+09   ,2.5  ,-2.4  ,4
6228  ,1.554e+09   ,2.4  ,-2.5  ,3.8
6237  ,1.319e+09   ,2.5  ,0.7  ,0.1
6241  ,2.419e+10   ,2.5  ,2.3333  ,4.6998
6245  ,2.365e+09   ,2.5  ,2.4  ,1.5782
6259  ,2.528e+09   ,2.5  ,-2.1044  ,4.9
6265  ,2.501e+09   ,2.3  ,-1.9804  ,4.8
6267  ,2.649e+09   ,2.5  ,-2.3015  ,4.9
6268  ,2.416e+09   ,2.4707  ,-2.4  ,4.9707
6270  ,2.541e+09   ,2.4  ,-2.1044  ,5
6317  ,2.899e+09   ,-2.3  ,0.2278  ,4.8
6349  ,2.940e+09   ,-0.52764  ,2.4  ,5
6391  ,2.899e+09   ,2.4  ,2.5  ,1.7753
6440  ,1.294e+09   ,-2.5  ,2.4  ,3.8
6471  ,2.079e+09   ,2.5  ,-0.92182  ,4.9
6489  ,3.515e+09   ,2.5  ,1.2462  ,4.9
6523  ,8.874e+08   ,-1.1  ,-2.4  ,0
6528  ,7.714e+08   ,-1.1  ,-2.5  ,0.1
6535  ,5.544e+08   ,-0.9  ,-2.4  ,0
6538  ,2.103e+09   ,1.5  ,-2.4  ,5
6541  ,1.666e+09   ,1.5  ,-2.5  ,4.9
6551  ,2.081e+09   ,2.5  ,-0.72473  ,4.9
6564  ,5.011e+10   ,2.1331  ,2.4973  ,4.923
6565  ,1.683e+10   ,2.0345  ,2.5  ,4.9
6572  ,7.008e+08   ,2.4  ,-1.7  ,0
6581  ,3.270e+09   ,0  ,2.3  ,0.2
6592  ,1.971e+09   ,2.3  ,-1.9695  ,0.2
6594  ,1.766e+09   ,0.3  ,2.4  ,0
6601  ,2.093e+09   ,0.5  ,2.5  ,0.1
6605  ,9.691e+08   ,-2.4  ,-1.3  ,0
6606  ,1.187e+09   ,-2.4  ,-1.1  ,0
6615  ,1.572e+09   ,-2.4  ,-0.3  ,0
6634  ,1.457e+09   ,2.1  ,-2.5  ,4.9
6635  ,2.940e+09   ,2.4  ,-2.4707  ,4.9707
6636  ,3.313e+09   ,2.3  ,-2.4  ,5
6647  ,9.505e+08   ,0.5  ,-2.5  ,0.1
6704  ,1.167e+08   ,-2.4707  ,2.4707  ,0.1
6708  ,2.994e+08   ,-2.5  ,2.4  ,0.2
6712  ,1.241e+09   ,-2.4  ,2.5  ,3.6
6715  ,1.638e+09   ,-2.4  ,2.5  ,3.4
6728  ,1.181e+09   ,-2.5  ,0.7  ,4.9
6753  ,5.237e+08   ,-2.1044  ,2.4  ,5
6788  ,1.209e+10   ,2.5  ,2.4  ,4.3375
6791  ,2.894e+09   ,-1.933  ,-2.5  ,4.8
6795  ,2.668e+10   ,2.1998  ,2.5  ,4.8333
6837  ,6.445e+08   ,-2.3  ,-2.5  ,0.8063
6869  ,2.258e+09   ,2.5  ,-1.7102  ,4.9
6873  ,2.635e+09   ,2.4  ,-1.9073  ,5
6880  ,2.210e+09   ,2.4  ,-0.92182  ,5
6885  ,2.311e+09   ,2.4  ,-0.52764  ,5
6893  ,3.307e+09   ,2.4  ,1.2462  ,5
6914  ,2.168e+09   ,0.7  ,2.5  ,0.1
6920  ,1.753e+09   ,0.9  ,2.4  ,0
6923  ,1.801e+09   ,0.7  ,2.4  ,0
6936  ,1.230e+09   ,2.4  ,-2.5  ,3.4
6939  ,8.110e+08   ,2.3  ,-2.5  ,3.2226
6961  ,9.078e+08   ,-0.1  ,-2.5  ,4.9
6967  ,9.323e+08   ,-2.5  ,-1.5  ,4.9
6975  ,1.018e+09   ,-2.4  ,1.1  ,5
6978  ,5.414e+08   ,-2.4  ,2.5  ,0.2
6987  ,2.084e+09   ,2.4  ,-1.316  ,5
6994  ,9.155e+08   ,2.4  ,-1.5  ,0
7004  ,1.378e+09   ,2.4  ,-2.5  ,3.6
7011  ,2.264e+09   ,2.4  ,0.65491  ,5
7016  ,2.063e+09   ,2.4  ,0.45782  ,5
7019  ,2.789e+09   ,2.5  ,2.4  ,2.1695
7021  ,2.829e+09   ,2.5  ,2.4  ,1.9724
7052  ,1.628e+09   ,-1.3  ,2.5  ,0.1
7054  ,7.752e+08   ,-2.4  ,-2.5  ,0.8
7057  ,9.487e+08   ,0.3  ,-2.5  ,0.1
7065  ,8.048e+08   ,0.24243  ,-2.5  ,0.2
7075  ,3.809e+10   ,2.4888  ,2.4325  ,4.6656
7113  ,9.851e+08   ,-2.4  ,-2.5  ,2.6
7121  ,9.622e+08   ,-2.4  ,-2.5  ,2.8
7126  ,1.091e+09   ,-2.5  ,-2.4  ,2.8
7128  ,9.820e+08   ,-2.4707  ,-2.4707  ,0.1
7129  ,9.801e+08   ,-2.4  ,-2.4707  ,0.029289
7141  ,2.721e+09   ,-1.7  ,-2.4  ,5
7145  ,1.473e+09   ,1.1  ,2.4  ,0
7163  ,1.062e+09   ,-1.7102  ,2.4  ,5
7172  ,3.065e+09   ,2.5  ,-2.4  ,3.2
7174  ,1.462e+09   ,-2.5  ,2.4  ,3.6
7183  ,1.435e+09   ,-1.4531  ,-2.5  ,4.8
7204  ,4.935e+09   ,2.3  ,-0.81068  ,4.8
7220  ,2.255e+09   ,2.5  ,0.063638  ,4.9
7227  ,1.186e+09   ,2.5  ,-1.9  ,0.1
7256  ,6.736e+08   ,-0.1  ,-2.4  ,5
7280  ,2.684e+09   ,-0.33054  ,2.4  ,5
7299  ,2.134e+09   ,2.5  ,-1.1189  ,4.9
7316  ,1.227e+09   ,-2.5  ,-2.4  ,0.8
7323  ,6.016e+08   ,-2.4  ,-2.5  ,1
7396  ,3.573e+09   ,1.1  ,-2.4  ,5
7400  ,2.156e+09   ,-2.5  ,0.7  ,0.1
7409  ,3.102e+09   ,1.3  ,-2.4  ,5
7420  ,6.021e+08   ,2.5  ,2.1  ,0.1
7429  ,8.552e+08   ,2.4  ,1.9  ,0
7436  ,8.321e+08   ,2.5  ,-1.7  ,0.1
7438  ,1.480e+09   ,2.4  ,-2.5  ,2.8
7445  ,3.465e+10   ,2.4325  ,2.1656  ,4.9888
7464  ,7.744e+08   ,2.5  ,-1.5  ,0.1
7480  ,1.819e+09   ,2.5  ,-2.4  ,0.2
7482  ,8.258e+08   ,1.9  ,-2.5  ,0.1
7483  ,7.106e+08   ,1.7  ,-2.5  ,0.1
7486  ,9.693e+08   ,1.9  ,-2.4  ,5
7488  ,1.533e+09   ,1.6937  ,-2.5  ,4.8
7492  ,3.275e+09   ,2.1  ,-2.4  ,5
7495  ,9.639e+08   ,0.1  ,-2.5  ,0.1
7504  ,1.129e+09   ,0.3  ,-2.4  ,0
7507  ,8.518e+08   ,0.9  ,-2.5  ,0.1
7533  ,1.977e+09   ,-2.5  ,0.9  ,0.1
7536  ,8.813e+08   ,-2.4  ,-2.5  ,3.2
7540  ,1.036e+09   ,-2.4  ,-2.5  ,3
7545  ,1.738e+09   ,-2.5  ,-2.4  ,3
7582  ,9.996e+08   ,1.3  ,2.5  ,0.1
7588  ,2.938e+09   ,2.5  ,2.4  ,2.3665
7598  ,1.051e+09   ,-2.5  ,2.4  ,4.2
7607  ,2.450e+09   ,1.5333  ,2.3  ,0.2
7627  ,9.786e+08   ,-2.5  ,1.1  ,4.9
7651  ,9.960e+08   ,2.4  ,-1.9  ,0
7656  ,4.747e+08   ,2.5  ,2.4  ,0.39564
7660  ,1.503e+10   ,2.2299  ,2.3  ,4.7299
7668  ,5.579e+08   ,1.4531  ,-2.5  ,4.8
7676  ,1.140e+09   ,0.1  ,-2.5  ,4.9
7683  ,6.143e+08   ,0.1  ,-2.4  ,5
7686  ,1.098e+09   ,-2.4  ,-1.1  ,5
7702  ,1.162e+09   ,-2.3  ,-2.5  ,4.433
7710  ,1.287e+09   ,-2.3  ,-2.5  ,4.6765
7752  ,3.595e+09   ,0.9  ,-2.4  ,5
7763  ,1.295e+09   ,0.24243  ,-2.5  ,4.8
7767  ,2.388e+09   ,-2.5  ,-2.4  ,3.2
7768  ,8.198e+08   ,-2.4  ,-2.1  ,0
7776  ,2.006e+09   ,-2.4  ,0.9  ,0
7786  ,2.011e+09   ,-0.4838  ,-2.5  ,4.8
7800  ,3.381e+09   ,2.5  ,-2.4  ,4.6
7805  ,9.174e+08   ,-2.5  ,-1.3  ,4.9
7811  ,1.025e+09   ,-2.5  ,-1.1  ,4.9
7820  ,1.428e+09   ,2.5  ,-2.1  ,0.1
7824  ,1.254e+09   ,2.4  ,-2.1  ,0
7828  ,1.273e+09   ,2.4  ,-2.5  ,4.2
7831  ,1.493e+09   ,2.4  ,-2.5  ,4
7838  ,7.445e+08   ,2.5  ,-2.4  ,4.2
7839  ,2.988e+09   ,2.5  ,2.4  ,2.7607
7840  ,3.258e+09   ,2.5  ,2.4  ,2.9578
7863  ,8.097e+08   ,-2.4  ,-1.5  ,0
7890  ,1.078e+09   ,2.4  ,0.9  ,0
7897  ,1.498e+09   ,-2.4  ,-0.7  ,0
7912  ,1.587e+09   ,-1.5  ,-2.4  ,0
7917  ,7.392e+08   ,-1.3  ,-2.5  ,0.1
7931  ,1.801e+09   ,0.5  ,2.4  ,0
7934  ,2.995e+09   ,1.1  ,-2.4  ,0
7937  ,4.995e+08   ,2.4  ,-2.5  ,0.8
7941  ,8.601e+08   ,-2.4  ,-2.5  ,0.6
7969  ,2.843e+08   ,-2.5  ,2.3  ,0.1
7971  ,8.849e+08   ,-2.4  ,1.9  ,0
7972  ,1.386e+09   ,-1.9  ,2.5  ,0.1
7978  ,1.817e+09   ,-2.4  ,1.1  ,0
7996  ,1.151e+09   ,-2.4  ,-0.5  ,5
8000  ,7.129e+08   ,-2.5  ,-2.4  ,0.6
8003  ,8.609e+08   ,-2.5  ,-2.4  ,0.4
8025  ,1.711e+09   ,0.9  ,2.5  ,0.1
8035  ,2.170e+09   ,0.3  ,2.5  ,0.1
8039  ,3.364e+09   ,2.3  ,-2.5  ,0.32348
8041  ,2.273e+09   ,2.3  ,-2.3379  ,0.2
8043  ,1.508e+09   ,2.1765  ,-2.5  ,0.2
8045  ,7.593e+08   ,-0.96359  ,-2.5  ,0.2
8054  ,1.247e+09   ,1.3  ,2.4  ,0
8058  ,1.246e+09   ,1.1  ,2.5  ,0.1
8062  ,1.459e+09   ,-2.5  ,2.4  ,1.4
8067  ,1.218e+09   ,-2.5  ,2.4  ,0.8
8087  ,1.377e+09   ,-2.5  ,1.5  ,0.1
8132  ,2.926e+09   ,-0.13345  ,2.4  ,5
8183  ,1.120e+09   ,2.5  ,-0.9  ,0.1
8184  ,1.170e+09   ,1.6937  ,-2.5  ,0.2
8214  ,9.634e+08   ,-2.4707  ,-2.4  ,4.9707
8217  ,2.856e+09   ,-2.1  ,-2.4  ,5
8219  ,9.110e+08   ,-2.4  ,-2.5  ,4.4
8227  ,3.267e+09   ,2.5  ,2.4  ,3.1549
8242  ,1.382e+09   ,0.7  ,-2.5  ,4.9
8248  ,3.641e+09   ,2.5  ,-2.4  ,3.6
8254  ,1.008e+09   ,2.5  ,-0.3  ,0.1
8256  ,1.081e+09   ,2.5  ,-0.5  ,0.1
8258  ,1.060e+09   ,-0.3  ,-2.5  ,4.9
8263  ,1.252e+09   ,-0.5  ,-2.5  ,4.9
8268  ,1.304e+09   ,-2.3  ,-2.5  ,3.7085
8277  ,9.650e+08   ,-0.1  ,-2.5  ,0.1
8285  ,1.446e+09   ,1.1  ,-2.5  ,4.9
8307  ,1.704e+09   ,0.1  ,2.4  ,0
8308  ,9.487e+08   ,-0.1  ,2.5  ,0.1
8309  ,1.667e+09   ,-0.1  ,2.4  ,0
8313  ,1.340e+09   ,2.5  ,-2.3  ,0.1
8318  ,2.452e+09   ,2.5  ,-2.4  ,3
8338  ,3.504e+09   ,2.5  ,2.4  ,3.352
8339  ,3.419e+09   ,2.4  ,2.5  ,3.1549
8344  ,1.678e+09   ,-2.5  ,2.4  ,3.4
8357  ,3.394e+10   ,2.4888  ,2.1656  ,4.9325
8358  ,2.288e+10   ,2.5  ,2.1998  ,4.8333
8383  ,1.318e+09   ,-1.7  ,-2.4  ,0
8396  ,8.636e+08   ,1.1  ,-2.5  ,0.1
8399  ,4.303e+10   ,2.4526  ,2.1331  ,4.9851
8405  ,2.152e+09   ,2.5  ,-2.4  ,1
8412  ,2.196e+09   ,2.3  ,-2.5  ,0.8063
8417  ,1.341e+09   ,-2.3  ,-2.5  ,2.5
8434  ,1.447e+09   ,0.9636  ,-2.5  ,4.8
8438  ,8.639e+08   ,-0.3  ,-2.5  ,0.1
8452  ,9.019e+08   ,-2.4  ,-0.1  ,5
8468  ,4.200e+09   ,2.5  ,2.4  ,3.7462
8471  ,1.011e+09   ,-1.3  ,-2.5  ,4.9
8493  ,1.098e+09   ,-1.1  ,-2.5  ,4.9
8509  ,6.803e+08   ,-2.5  ,-1.7  ,0.1
8517  ,1.810e+09   ,-2.4  ,2.5  ,3
8531  ,1.138e+09   ,-2.4  ,1.7  ,0
8556  ,3.814e+09   ,2.5  ,2.4  ,3.5491
8573  ,2.155e+09   ,-1.316  ,2.4  ,5
8576  ,1.599e+09   ,-2.4  ,1.3  ,0
8611  ,7.346e+08   ,2.3  ,-2.5  ,1.2915
8618  ,8.852e+08   ,-2.4  ,2.5  ,4
8646  ,1.788e+09   ,-2.5  ,1.1  ,0.1
8656  ,1.085e+09   ,2.5  ,-1.3  ,0.1
8657  ,7.877e+08   ,2.4  ,2.1  ,0
8673  ,1.398e+09   ,-1.3  ,2.4  ,0
8692  ,1.123e+09   ,0.72263  ,-2.5  ,4.8
8696  ,1.461e+09   ,2.3  ,-2.5  ,1.0469
8706  ,2.324e+09   ,2.5  ,0.65491  ,4.9
8721  ,7.648e+08   ,-2.4  ,-2.5  ,1.6
8725  ,3.422e+09   ,0.65491  ,2.4  ,5
8739  ,3.534e+10   ,2.1656  ,2.4325  ,4.9888
8741  ,2.445e+10   ,2.1998  ,2.3333  ,5
8746  ,7.972e+08   ,-2.1  ,-2.4  ,0
8748  ,1.347e+09   ,-2.5  ,-2.4  ,1.2
8752  ,4.725e+10   ,2.1331  ,2.4526  ,4.9851
8759  ,5.492e+08   ,-2.3  ,-2.5  ,1.0469
8787  ,4.651e+08   ,-0.1  ,-2.4  ,0
8793  ,1.560e+09   ,-2.3  ,-2.5  ,2.2576
8795  ,9.916e+08   ,-2.4  ,-2.5  ,2.4
8798  ,1.312e+09   ,-2.3  ,-2.5  ,4.1937
8808  ,1.330e+09   ,-2.3  ,-2.5  ,3.9531
8814  ,1.385e+09   ,-2.4  ,-1.5  ,5
8849  ,6.346e+08   ,0.4838  ,-2.5  ,4.8
8851  ,6.863e+08   ,-2.4  ,-2.5  ,4.2
8868  ,1.464e+09   ,2.4  ,-2.5  ,3
8874  ,3.454e+09   ,0.852  ,2.4  ,5
8883  ,8.655e+08   ,-0.5  ,-2.4  ,5
8886  ,1.518e+09   ,-0.72262  ,-2.5  ,4.8
8893  ,9.077e+08   ,-0.7  ,-2.5  ,4.9
8897  ,2.826e+09   ,-2.5  ,-2.4  ,3.6
8899  ,1.213e+09   ,-2.3  ,-2.5  ,3.4636
8900  ,5.390e+08   ,-2.3  ,-1.4729  ,0.2
8906  ,9.261e+08   ,-2.5  ,-1.3  ,0.1
8910  ,3.331e+09   ,0.852  ,2.5  ,4.9
8925  ,1.570e+09   ,-2.4  ,2.5  ,1.4
8941  ,2.491e+08   ,2.4707  ,2.4  ,0.029289
8942  ,4.000e+08   ,2.5  ,2.3  ,0.1
8945  ,1.074e+09   ,-2.5  ,0.1  ,4.9
8950  ,2.514e+08   ,2.4707  ,2.4707  ,0.1
8951  ,2.238e+08   ,2.4  ,2.4707  ,0.029289
8959  ,1.814e+09   ,2.4  ,0.26073  ,5
8965  ,3.051e+09   ,0.45782  ,2.4  ,5
8978  ,2.296e+09   ,2.4  ,0.852  ,5
8983  ,1.071e+09   ,2.5  ,-1.1  ,0.1
8991  ,1.022e+09   ,-2.5  ,2.4  ,0.6
9008  ,2.129e+09   ,2.5  ,0.852  ,4.9
9011  ,1.529e+09   ,-2.4  ,-0.5  ,0
9025  ,6.068e+08   ,-1.5  ,-2.5  ,0.1
9038  ,1.201e+09   ,2.4  ,-2.5  ,2
9041  ,1.182e+09   ,2.5  ,0.9  ,0.1
9050  ,1.200e+09   ,2.5  ,0.5  ,0.1
9054  ,2.849e+09   ,0.9  ,-2.4  ,0
9060  ,1.355e+09   ,2.4  ,-2.5  ,0.4
9062  ,2.825e+09   ,2.3  ,-2.5  ,0.56701
9064  ,2.740e+09   ,2.5  ,-2.4  ,0.4
9069  ,1.003e+09   ,2.4  ,-2.5  ,0.6
9071  ,1.260e+09   ,1.4531  ,-2.5  ,0.2
9082  ,1.923e+08   ,-2.3  ,-2.5  ,1.2915
9086  ,7.813e+08   ,-2.4  ,-2.5  ,1.4
9091  ,1.002e+09   ,-2.5  ,-2.4  ,1.4
9094  ,1.468e+09   ,1.3  ,-2.5  ,4.9
9097  ,8.034e+08   ,-0.7  ,-2.5  ,0.1
9137  ,8.824e+08   ,-2.5  ,-0.7  ,4.9
9143  ,8.160e+08   ,-2.5  ,-0.1  ,4.9
9146  ,6.283e+08   ,-2.1  ,2.4  ,0
9148  ,7.813e+08   ,-2.5  ,1.7  ,4.9
9173  ,1.690e+09   ,-2.5  ,2.4  ,3
9192  ,7.531e+08   ,-0.7  ,-2.4  ,5
9195  ,7.882e+08   ,0.72263  ,-2.5  ,0.2
9209  ,3.452e+09   ,2.5  ,-2.4  ,3.4
9215  ,1.255e+09   ,0.9636  ,-2.5  ,0.2
9217  ,1.387e+09   ,2.4  ,-2.5  ,3.2
9218  ,7.670e+08   ,-0.96359  ,-2.5  ,4.8
9229  ,1.823e+09   ,-2.4  ,2.5  ,2.8
9248  ,2.310e+09   ,2.3  ,-2.5  ,4.433
9255  ,9.331e+08   ,2.5  ,1.3  ,0.1
9257  ,8.236e+08   ,2.4  ,1.5  ,0
9262  ,2.590e+09   ,0.5  ,-2.4  ,5
9264  ,1.893e+09   ,2.4  ,-0.13345  ,5
9272  ,2.706e+09   ,0.063638  ,2.4  ,5
9277  ,1.418e+09   ,-2.5  ,2.4  ,1.2
9279  ,2.031e+09   ,2.5  ,0.26073  ,4.9
9282  ,1.134e+09   ,1.2085  ,-2.5  ,4.8
9286  ,1.243e+09   ,0.9  ,-2.5  ,4.9
9292  ,3.376e+08   ,-2.4  ,2.4707  ,4.9707
9293  ,3.435e+08   ,-2.3015  ,2.4  ,5
9296  ,1.429e+09   ,-2.4  ,-2.1  ,5
9303  ,1.331e+09   ,-2.4  ,-1.9  ,5
9311  ,4.585e+08   ,-2.4  ,2.3  ,5
9313  ,9.382e+08   ,-2.4  ,0.1  ,5
9319  ,1.600e+08   ,-0.5  ,-2.4  ,0
9328  ,7.093e+08   ,-2.3  ,-2.5  ,1.5364
9334  ,5.611e+08   ,-2.3  ,2.5  ,0.1
9338  ,3.972e+08   ,-2.5  ,-2.4  ,2.4
9339  ,1.558e+09   ,-2.5  ,1.3  ,0.1
9341  ,8.439e+08   ,-2.3  ,-2.5  ,2.7424
9344  ,1.857e+08   ,-2.5  ,-2.4  ,2.2
9358  ,4.331e+09   ,-2.3  ,2.3  ,2.5
9364  ,1.428e+09   ,-2.5  ,-2.1  ,4.9
9367  ,1.415e+09   ,-2.4  ,-2.3  ,5
9374  ,1.191e+09   ,-2.4  ,-1.3  ,5
9378  ,1.442e+09   ,-2.5  ,2.4  ,1.8
9384  ,2.010e+09   ,2.3  ,-2.5  ,2.0162
9385  ,9.032e+08   ,-2.5  ,2.4  ,4.4
9389  ,1.531e+09   ,-2.5  ,2.4  ,2
9395  ,2.420e+09   ,2.4  ,-2.3015  ,5
9396  ,7.520e+08   ,-2.4  ,-1.7  ,0
9407  ,1.853e+09   ,-2.3  ,-1.4729  ,4.8
9411  ,7.953e+08   ,-2.5  ,-1.7  ,4.9
9423  ,8.106e+08   ,-2.4  ,-2.5  ,3.6
9432  ,3.287e+09   ,0.7  ,-2.4  ,5
9438  ,9.712e+08   ,-2.5  ,-0.9  ,4.9
9443  ,8.508e+08   ,-2.5  ,-0.3  ,4.9
9445  ,2.722e+08   ,-2.4707  ,2.4  ,4.9707
9448  ,1.975e+09   ,2.4  ,-1.1189  ,5
9453  ,1.226e+09   ,2.4  ,0.7  ,0
9455  ,7.409e+08   ,2.5  ,-2.4  ,2.6
9457  ,2.295e+08   ,2.3  ,-2.5  ,2.9838
9494  ,1.545e+09   ,-2.4  ,2.5  ,1
9500  ,1.541e+09   ,0.3  ,-2.5  ,4.9
9504  ,1.589e+09   ,0.3  ,-2.4  ,5
9506  ,1.422e+09   ,2.1  ,-2.5  ,0.1
9518  ,1.016e+09   ,-1.9  ,-2.5  ,0.1
9528  ,1.634e+09   ,2.3  ,-2.5  ,0.1
9531  ,1.538e+09   ,2.4707  ,-2.4707  ,0.1
9533  ,1.061e+09   ,2.4707  ,-2.4  ,0.029289
9534  ,1.399e+09   ,2.4  ,-2.4707  ,0.029289
9541  ,1.686e+09   ,0.5  ,-2.5  ,4.9
9544  ,8.012e+08   ,-0.5  ,-2.5  ,0.1
9559  ,1.057e+09   ,-2.5  ,-1.9  ,4.9
9562  ,7.033e+08   ,-2.5  ,2.4  ,4.6
9565  ,1.647e+09   ,-2.4  ,2.5  ,2
9571  ,2.722e+09   ,-2.5  ,-2.4  ,3.8
9574  ,8.083e+08   ,-2.4  ,-2.5  ,3.8
9577  ,8.230e+08   ,1.3  ,-2.5  ,0.1
9582  ,1.515e+09   ,-2.5  ,-0.9  ,0.1
9596  ,7.012e+08   ,2.1  ,2.4  ,0
9598  ,1.952e+09   ,-2.4  ,2.5  ,3.2
9602  ,9.164e+08   ,1.5  ,2.5  ,0.1
9610  ,4.704e+08   ,2.4  ,2.5  ,0.39564
9612  ,3.080e+09   ,-0.72473  ,2.5  ,4.9
9614  ,9.299e+08   ,1.7  ,2.5  ,0.1
9635  ,8.143e+08   ,2.5  ,1.7  ,0.1
9646  ,4.361e+08   ,2.3  ,2.5  ,0.1
9651  ,3.648e+10   ,2.1656  ,2.4888  ,4.9325
9653  ,1.986e+09   ,2.5  ,-1.316  ,4.9
9656  ,9.787e+08   ,-2.4  ,-1.7  ,5
9659  ,4.596e+09   ,2.3  ,-2.5  ,4.6765
9661  ,4.031e+08   ,2.3  ,-2.5  ,3.9531
9664  ,1.741e+09   ,-2.3  ,-2.4  ,5
9666  ,1.083e+09   ,1.9  ,-2.4  ,0
9677  ,1.200e+09   ,2.4  ,0.5  ,0
9678  ,1.283e+09   ,-2.5  ,-1.1  ,0.1
9680  ,1.964e+09   ,2.5  ,2.4  ,1.184
9681  ,2.127e+08   ,2.5  ,2.4  ,0.19855
9696  ,1.425e+09   ,-2.3  ,-2.5  ,2.0162
9698  ,1.367e+09   ,2.4  ,-2.3  ,0
9699  ,1.469e+09   ,-0.24243  ,-2.5  ,0.2
9701  ,7.607e+08   ,0.1  ,-2.4  ,0
9704  ,1.483e+09   ,-0.4838  ,-2.5  ,0.2
9718  ,1.174e+09   ,-0.72262  ,-2.5  ,0.2
9726  ,2.411e+09   ,2.3  ,-0.76628  ,0.2
9727  ,6.761e+08   ,-2.5  ,2.4  ,0.4
9730  ,1.855e+09   ,1.9433E-06  ,-2.5  ,4.8
9731  ,2.156e+09   ,-0.24243  ,-2.5  ,4.8
9732  ,1.574e+09   ,-2.5  ,2.4  ,2.2
9738  ,2.300e+09   ,-2.5  ,-2.4  ,4
9743  ,2.290e+09   ,-1.6937  ,-2.5  ,4.8
9744  ,5.951e+08   ,-2.4  ,-2.5  ,4
9750  ,7.636e+08   ,-1.7  ,-2.5  ,0.1
9752  ,5.688e+08   ,-1.6937  ,-2.5  ,0.2
9754  ,1.339e+09   ,-1.3  ,-2.4  ,0
9759  ,2.017e+08   ,-2.4707  ,2.4  ,0.029289
9760  ,1.484e+08   ,-2.4  ,2.4707  ,0.029289
9768  ,1.268e+09   ,2.3  ,-2.5  ,4.1937
9770  ,1.210e+09   ,1.9433E-06  ,-2.5  ,0.2
9771  ,1.705e+08   ,0.4838  ,-2.5  ,0.2
9772  ,1.827e+09   ,2.4  ,-2.5  ,0.2
9773  ,1.720e+09   ,2.4  ,-2.5  ,4.6
9776  ,1.791e+09   ,2.4  ,0.063638  ,5
9780  ,3.217e+09   ,0.65491  ,2.5  ,4.9
9781  ,2.295e+08   ,2.4  ,2.5  ,0.19855
9782  ,2.597e+08   ,-2.3  ,-2.5  ,2.9838
9786  ,1.982e+08   ,-1.2085  ,-2.5  ,0.2
9787  ,5.542e+08   ,-1.4531  ,-2.5  ,0.2
9790  ,1.432e+09   ,2.3  ,-2.4  ,0
9793  ,1.920e+10   ,2.0345  ,2.4  ,5
9797  ,7.169e+08   ,2.3  ,-2.5  ,1.5364
9798  ,2.836e+09   ,2.4  ,1.0491  ,5
9809  ,3.422e+09   ,2.4  ,2.5  ,3.352
