Date:  12:53, Monday, July 10, 2023
Model name: Hollow_DropBox
Study name: DropTest_300fts(-Default-)
Plot type:  Stress1
Plot step: 13   time : 68.2049 Microseconds
Result Type: von Mises 


Node  ,Value (N/m^2)  ,X (in)  ,Y (in)  ,Z (in)
1  ,3.014e+10   ,2.5  ,2.1331  ,4.9
2  ,2.422e+10   ,2.4577  ,2.1908  ,4.9577
3  ,5.358e+10   ,2.4894  ,2.1331  ,4.9447
4  ,3.222e+10   ,2.1331  ,2.5  ,4.9
5  ,5.631e+10   ,2.1331  ,2.4894  ,4.9447
6  ,2.304e+10   ,2.1908  ,2.4577  ,4.9577
7  ,3.221e+08   ,-2.4  ,2.4  ,5
8  ,1.079e+09   ,-2.4  ,-2.4  ,5
9  ,2.343e+09   ,2.4  ,-2.4  ,5
10  ,2.763e+10   ,2.4  ,2.1331  ,5
11  ,3.094e+10   ,2.1331  ,2.4  ,5
12  ,2.512e+09   ,2.5  ,-2.4  ,4.9
13  ,9.811e+08   ,2.5  ,-2.4  ,0.1
14  ,3.116e+08   ,2.5  ,2.4  ,0.1
15  ,3.113e+10   ,2.5  ,2.4  ,4.6331
16  ,2.872e+08   ,2.4  ,2.5  ,0.1
17  ,1.542e+08   ,-2.4  ,2.5  ,0.1
18  ,2.490e+08   ,-2.4  ,2.5  ,4.9
19  ,3.274e+10   ,2.4  ,2.5  ,4.6331
20  ,2.140e+08   ,-2.5  ,2.4  ,0.1
21  ,3.073e+08   ,-2.5  ,-2.4  ,0.1
22  ,7.176e+08   ,-2.5  ,-2.4  ,4.9
23  ,3.569e+08   ,-2.5  ,2.4  ,4.9
24  ,1.716e+08   ,-2.3  ,-2.5  ,0.2
25  ,9.081e+08   ,-2.3  ,-2.5  ,4.8
26  ,2.477e+09   ,2.3  ,-2.5  ,4.8
27  ,7.328e+08   ,2.3  ,-2.5  ,0.2
28  ,1.010e+09   ,-2.4  ,-2.5  ,4.9
29  ,2.508e+09   ,2.4  ,-2.5  ,4.9
30  ,3.475e+08   ,-2.4  ,-2.5  ,0.1
31  ,9.122e+08   ,2.4  ,-2.5  ,0.1
32  ,7.234e+08   ,2.4  ,-2.4  ,0
33  ,2.942e+08   ,2.4  ,2.4  ,0
34  ,2.927e+08   ,-2.4  ,-2.4  ,0
35  ,2.177e+08   ,-2.4  ,2.4  ,0
36  ,2.826e+10   ,2.4577  ,2.4577  ,4.6908
37  ,9.360e+08   ,-2.3  ,2.3  ,4.8
38  ,1.612e+10   ,2.1599  ,2.3  ,4.8
39  ,1.576e+10   ,2.3  ,2.1599  ,4.8
40  ,1.627e+10   ,2.3  ,2.3  ,4.6599
41  ,9.908e+08   ,2.3  ,2.3  ,0.2
42  ,8.480e+08   ,-2.3  ,2.3  ,0.2
43  ,4.698e+08   ,-2.4  ,2.2  ,5
44  ,5.484e+08   ,-2.4  ,2  ,5
45  ,5.179e+08   ,-2.4  ,1.8  ,5
46  ,4.505e+08   ,-2.4  ,1.6  ,5
47  ,4.003e+08   ,-2.4  ,1.4  ,5
48  ,5.919e+08   ,-2.4  ,1.2  ,5
49  ,8.421e+08   ,-2.4  ,1  ,5
50  ,1.399e+09   ,-2.4  ,0.8  ,5
51  ,1.193e+09   ,-2.4  ,0.6  ,5
52  ,1.043e+09   ,-2.4  ,0.4  ,5
53  ,9.891e+08   ,-2.4  ,0.2  ,5
54  ,7.356e+08   ,-2.4  ,5.8879E-16  ,5
55  ,7.484e+08   ,-2.4  ,-0.2  ,5
56  ,7.659e+08   ,-2.4  ,-0.4  ,5
57  ,9.439e+08   ,-2.4  ,-0.6  ,5
58  ,9.351e+08   ,-2.4  ,-0.8  ,5
59  ,9.625e+08   ,-2.4  ,-1  ,5
60  ,8.528e+08   ,-2.4  ,-1.2  ,5
61  ,1.102e+09   ,-2.4  ,-1.4  ,5
62  ,9.201e+08   ,-2.4  ,-1.6  ,5
63  ,7.176e+08   ,-2.4  ,-1.8  ,5
64  ,8.981e+08   ,-2.4  ,-2  ,5
65  ,7.665e+08   ,-2.4  ,-2.2  ,5
66  ,1.517e+09   ,-2.2  ,-2.4  ,5
67  ,2.033e+09   ,-2  ,-2.4  ,5
68  ,2.251e+09   ,-1.8  ,-2.4  ,5
69  ,2.001e+09   ,-1.6  ,-2.4  ,5
70  ,1.625e+09   ,-1.4  ,-2.4  ,5
71  ,1.491e+09   ,-1.2  ,-2.4  ,5
72  ,1.032e+09   ,-1  ,-2.4  ,5
73  ,7.149e+08   ,-0.8  ,-2.4  ,5
74  ,6.663e+08   ,-0.6  ,-2.4  ,5
75  ,6.380e+08   ,-0.4  ,-2.4  ,5
76  ,5.376e+08   ,-0.2  ,-2.4  ,5
77  ,3.255e+08   ,-5.8879E-16  ,-2.4  ,5
78  ,4.633e+08   ,0.2  ,-2.4  ,5
79  ,1.103e+09   ,0.4  ,-2.4  ,5
80  ,1.736e+09   ,0.6  ,-2.4  ,5
81  ,2.395e+09   ,0.8  ,-2.4  ,5
82  ,2.989e+09   ,1  ,-2.4  ,5
83  ,2.922e+09   ,1.2  ,-2.4  ,5
84  ,2.785e+09   ,1.4  ,-2.4  ,5
85  ,1.872e+09   ,1.6  ,-2.4  ,5
86  ,8.078e+08   ,1.8  ,-2.4  ,5
87  ,1.166e+09   ,2  ,-2.4  ,5
88  ,3.810e+09   ,2.2  ,-2.4  ,5
89  ,2.001e+09   ,2.4  ,-2.2029  ,5
90  ,2.107e+09   ,2.4  ,-2.0058  ,5
91  ,1.628e+09   ,2.4  ,-1.8087  ,5
92  ,1.534e+09   ,2.4  ,-1.6116  ,5
93  ,1.765e+09   ,2.4  ,-1.4145  ,5
94  ,1.602e+09   ,2.4  ,-1.2175  ,5
95  ,1.735e+09   ,2.4  ,-1.0204  ,5
96  ,1.857e+09   ,2.4  ,-0.82327  ,5
97  ,1.639e+09   ,2.4  ,-0.62618  ,5
98  ,1.555e+09   ,2.4  ,-0.42909  ,5
99  ,1.483e+09   ,2.4  ,-0.232  ,5
100  ,1.535e+09   ,2.4  ,-0.034907  ,5
101  ,1.727e+09   ,2.4  ,0.16218  ,5
102  ,2.008e+09   ,2.4  ,0.35927  ,5
103  ,2.686e+09   ,2.4  ,0.55637  ,5
104  ,2.973e+09   ,2.4  ,0.75346  ,5
105  ,2.646e+09   ,2.4  ,0.95055  ,5
106  ,2.699e+09   ,2.4  ,1.1476  ,5
107  ,3.855e+09   ,2.4  ,1.3447  ,5
108  ,5.304e+09   ,2.4  ,1.5418  ,5
109  ,7.348e+09   ,2.4  ,1.7389  ,5
110  ,1.386e+10   ,2.4  ,1.936  ,5
111  ,1.976e+10   ,2.2665  ,2.2665  ,5
112  ,1.446e+10   ,1.936  ,2.4  ,5
113  ,7.665e+09   ,1.7389  ,2.4  ,5
114  ,5.863e+09   ,1.5418  ,2.4  ,5
115  ,4.249e+09   ,1.3447  ,2.4  ,5
116  ,3.677e+09   ,1.1476  ,2.4  ,5
117  ,3.415e+09   ,0.95055  ,2.4  ,5
118  ,3.856e+09   ,0.75346  ,2.4  ,5
119  ,3.362e+09   ,0.55637  ,2.4  ,5
120  ,3.013e+09   ,0.35927  ,2.4  ,5
121  ,2.781e+09   ,0.16218  ,2.4  ,5
122  ,2.621e+09   ,-0.034907  ,2.4  ,5
123  ,2.817e+09   ,-0.232  ,2.4  ,5
124  ,2.195e+09   ,-0.42909  ,2.4  ,5
125  ,2.000e+09   ,-0.62618  ,2.4  ,5
126  ,2.363e+09   ,-0.82327  ,2.4  ,5
127  ,2.321e+09   ,-1.0204  ,2.4  ,5
128  ,2.167e+09   ,-1.2175  ,2.4  ,5
129  ,1.829e+09   ,-1.4145  ,2.4  ,5
130  ,1.249e+09   ,-1.6116  ,2.4  ,5
131  ,8.991e+08   ,-1.8087  ,2.4  ,5
132  ,5.386e+08   ,-2.0058  ,2.4  ,5
133  ,2.934e+08   ,-2.2029  ,2.4  ,5
294  ,1.700e+09   ,2.5  ,-2.2029  ,4.9
295  ,2.047e+09   ,2.5  ,-2.0058  ,4.9
296  ,1.652e+09   ,2.5  ,-1.8087  ,4.9
297  ,1.740e+09   ,2.5  ,-1.6116  ,4.9
298  ,1.500e+09   ,2.5  ,-1.4145  ,4.9
299  ,1.649e+09   ,2.5  ,-1.2175  ,4.9
300  ,1.702e+09   ,2.5  ,-1.0204  ,4.9
301  ,1.356e+09   ,2.5  ,-0.82327  ,4.9
302  ,1.572e+09   ,2.5  ,-0.62618  ,4.9
303  ,1.404e+09   ,2.5  ,-0.42909  ,4.9
304  ,1.841e+09   ,2.5  ,-0.232  ,4.9
305  ,2.167e+09   ,2.5  ,-0.034907  ,4.9
306  ,2.165e+09   ,2.5  ,0.16218  ,4.9
307  ,2.048e+09   ,2.5  ,0.35927  ,4.9
308  ,2.538e+09   ,2.5  ,0.55637  ,4.9
309  ,2.794e+09   ,2.5  ,0.75346  ,4.9
310  ,2.942e+09   ,2.5  ,0.95055  ,4.9
311  ,3.409e+09   ,2.5  ,1.1476  ,4.9
312  ,3.996e+09   ,2.5  ,1.3447  ,4.9
313  ,5.343e+09   ,2.5  ,1.5418  ,4.9
314  ,9.329e+09   ,2.5  ,1.7389  ,4.9
315  ,1.512e+10   ,2.5  ,1.936  ,4.9
316  ,3.838e+09   ,2.5  ,-2.4  ,4.7
317  ,1.052e+09   ,2.5  ,-2.4  ,4.5
318  ,7.887e+08   ,2.5  ,-2.4  ,4.3
319  ,1.968e+09   ,2.5  ,-2.4  ,4.1
320  ,2.553e+09   ,2.5  ,-2.4  ,3.9
321  ,3.123e+09   ,2.5  ,-2.4  ,3.7
322  ,3.081e+09   ,2.5  ,-2.4  ,3.5
323  ,2.341e+09   ,2.5  ,-2.4  ,3.3
324  ,1.649e+09   ,2.5  ,-2.4  ,3.1
325  ,1.074e+09   ,2.5  ,-2.4  ,2.9
326  ,5.308e+08   ,2.5  ,-2.4  ,2.7
327  ,2.354e+08   ,2.5  ,-2.4  ,2.5
328  ,3.177e+08   ,2.5  ,-2.4  ,2.3
329  ,5.251e+08   ,2.5  ,-2.4  ,2.1
330  ,6.345e+08   ,2.5  ,-2.4  ,1.9
331  ,8.010e+08   ,2.5  ,-2.4  ,1.7
332  ,1.091e+09   ,2.5  ,-2.4  ,1.5
333  ,1.417e+09   ,2.5  ,-2.4  ,1.3
334  ,1.488e+09   ,2.5  ,-2.4  ,1.1
335  ,1.865e+09   ,2.5  ,-2.4  ,0.9
336  ,2.281e+09   ,2.5  ,-2.4  ,0.7
337  ,2.047e+09   ,2.5  ,-2.4  ,0.5
338  ,1.847e+09   ,2.5  ,-2.4  ,0.3
339  ,8.167e+08   ,2.5  ,-2.2  ,0.1
340  ,9.498e+08   ,2.5  ,-2  ,0.1
341  ,7.143e+08   ,2.5  ,-1.8  ,0.1
342  ,7.536e+08   ,2.5  ,-1.6  ,0.1
343  ,6.442e+08   ,2.5  ,-1.4  ,0.1
344  ,7.119e+08   ,2.5  ,-1.2  ,0.1
345  ,8.132e+08   ,2.5  ,-1  ,0.1
346  ,7.773e+08   ,2.5  ,-0.8  ,0.1
347  ,8.769e+08   ,2.5  ,-0.6  ,0.1
348  ,7.769e+08   ,2.5  ,-0.4  ,0.1
349  ,7.739e+08   ,2.5  ,-0.2  ,0.1
350  ,7.887e+08   ,2.5  ,-1.7664E-15  ,0.1
351  ,8.268e+08   ,2.5  ,0.2  ,0.1
352  ,9.872e+08   ,2.5  ,0.4  ,0.1
353  ,1.185e+09   ,2.5  ,0.6  ,0.1
354  ,1.510e+09   ,2.5  ,0.8  ,0.1
355  ,8.313e+08   ,2.5  ,1  ,0.1
356  ,5.715e+08   ,2.5  ,1.2  ,0.1
357  ,5.183e+08   ,2.5  ,1.4  ,0.1
358  ,4.986e+08   ,2.5  ,1.6  ,0.1
359  ,4.151e+08   ,2.5  ,1.8  ,0.1
360  ,3.884e+08   ,2.5  ,2  ,0.1
361  ,4.210e+08   ,2.5  ,2.2  ,0.1
362  ,1.612e+10   ,2.5  ,2.4  ,4.436
363  ,9.774e+09   ,2.5  ,2.4  ,4.2389
364  ,5.753e+09   ,2.5  ,2.4  ,4.0418
365  ,4.621e+09   ,2.5  ,2.4  ,3.8447
366  ,3.447e+09   ,2.5  ,2.4  ,3.6476
367  ,3.492e+09   ,2.5  ,2.4  ,3.4505
368  ,3.582e+09   ,2.5  ,2.4  ,3.2535
369  ,3.424e+09   ,2.5  ,2.4  ,3.0564
370  ,2.922e+09   ,2.5  ,2.4  ,2.8593
371  ,2.819e+09   ,2.5  ,2.4  ,2.6622
372  ,3.005e+09   ,2.5  ,2.4  ,2.4651
373  ,2.581e+09   ,2.5  ,2.4  ,2.268
374  ,2.579e+09   ,2.5  ,2.4  ,2.0709
375  ,2.298e+09   ,2.5  ,2.4  ,1.8738
376  ,2.213e+09   ,2.5  ,2.4  ,1.6767
377  ,1.657e+09   ,2.5  ,2.4  ,1.4796
378  ,1.791e+09   ,2.5  ,2.4  ,1.2825
379  ,1.610e+09   ,2.5  ,2.4  ,1.0855
380  ,1.480e+09   ,2.5  ,2.4  ,0.88836
381  ,1.170e+09   ,2.5  ,2.4  ,0.69127
382  ,6.266e+08   ,2.5  ,2.4  ,0.49418
383  ,3.499e+08   ,2.5  ,2.4  ,0.29709
384  ,1.949e+10   ,2.5  ,2.2665  ,4.7665
544  ,3.535e+08   ,2.2  ,2.5  ,0.1
545  ,5.471e+08   ,2  ,2.5  ,0.1
546  ,6.284e+08   ,1.8  ,2.5  ,0.1
547  ,6.993e+08   ,1.6  ,2.5  ,0.1
548  ,6.967e+08   ,1.4  ,2.5  ,0.1
549  ,8.611e+08   ,1.2  ,2.5  ,0.1
550  ,1.154e+09   ,1  ,2.5  ,0.1
551  ,1.726e+09   ,0.8  ,2.5  ,0.1
552  ,1.869e+09   ,0.6  ,2.5  ,0.1
553  ,1.869e+09   ,0.4  ,2.5  ,0.1
554  ,1.984e+09   ,0.2  ,2.5  ,0.1
555  ,1.720e+09   ,5.8879E-16  ,2.5  ,0.1
556  ,9.481e+08   ,-0.2  ,2.5  ,0.1
557  ,1.189e+09   ,-0.4  ,2.5  ,0.1
558  ,1.431e+09   ,-0.6  ,2.5  ,0.1
559  ,1.658e+09   ,-0.8  ,2.5  ,0.1
560  ,1.465e+09   ,-1  ,2.5  ,0.1
561  ,1.364e+09   ,-1.2  ,2.5  ,0.1
562  ,1.258e+09   ,-1.4  ,2.5  ,0.1
563  ,1.168e+09   ,-1.6  ,2.5  ,0.1
564  ,9.936e+08   ,-1.8  ,2.5  ,0.1
565  ,7.416e+08   ,-2  ,2.5  ,0.1
566  ,4.081e+08   ,-2.2  ,2.5  ,0.1
567  ,3.455e+08   ,-2.4  ,2.5  ,4.7
568  ,4.351e+08   ,-2.4  ,2.5  ,4.5
569  ,4.969e+08   ,-2.4  ,2.5  ,4.3
570  ,6.029e+08   ,-2.4  ,2.5  ,4.1
571  ,7.098e+08   ,-2.4  ,2.5  ,3.9
572  ,8.664e+08   ,-2.4  ,2.5  ,3.7
573  ,1.116e+09   ,-2.4  ,2.5  ,3.5
574  ,1.695e+09   ,-2.4  ,2.5  ,3.3
575  ,1.629e+09   ,-2.4  ,2.5  ,3.1
576  ,1.622e+09   ,-2.4  ,2.5  ,2.9
577  ,1.508e+09   ,-2.4  ,2.5  ,2.7
578  ,1.567e+09   ,-2.4  ,2.5  ,2.5
579  ,1.507e+09   ,-2.4  ,2.5  ,2.3
580  ,1.549e+09   ,-2.4  ,2.5  ,2.1
581  ,1.495e+09   ,-2.4  ,2.5  ,1.9
582  ,1.478e+09   ,-2.4  ,2.5  ,1.7
583  ,1.399e+09   ,-2.4  ,2.5  ,1.5
584  ,1.333e+09   ,-2.4  ,2.5  ,1.3
585  ,1.244e+09   ,-2.4  ,2.5  ,1.1
586  ,1.159e+09   ,-2.4  ,2.5  ,0.9
587  ,1.017e+09   ,-2.4  ,2.5  ,0.7
588  ,8.008e+08   ,-2.4  ,2.5  ,0.5
589  ,4.490e+08   ,-2.4  ,2.5  ,0.3
590  ,1.582e+10   ,1.936  ,2.5  ,4.9
591  ,7.126e+09   ,1.7389  ,2.5  ,4.9
592  ,5.369e+09   ,1.5418  ,2.5  ,4.9
593  ,4.372e+09   ,1.3447  ,2.5  ,4.9
594  ,3.413e+09   ,1.1476  ,2.5  ,4.9
595  ,3.657e+09   ,0.95055  ,2.5  ,4.9
596  ,4.059e+09   ,0.75346  ,2.5  ,4.9
597  ,3.300e+09   ,0.55637  ,2.5  ,4.9
598  ,3.157e+09   ,0.35927  ,2.5  ,4.9
599  ,2.791e+09   ,0.16218  ,2.5  ,4.9
600  ,2.440e+09   ,-0.034907  ,2.5  ,4.9
601  ,2.172e+09   ,-0.232  ,2.5  ,4.9
602  ,2.720e+09   ,-0.42909  ,2.5  ,4.9
603  ,2.641e+09   ,-0.62618  ,2.5  ,4.9
604  ,2.415e+09   ,-0.82327  ,2.5  ,4.9
605  ,2.537e+09   ,-1.0204  ,2.5  ,4.9
606  ,2.384e+09   ,-1.2175  ,2.5  ,4.9
607  ,1.847e+09   ,-1.4145  ,2.5  ,4.9
608  ,1.392e+09   ,-1.6116  ,2.5  ,4.9
609  ,9.420e+08   ,-1.8087  ,2.5  ,4.9
610  ,5.937e+08   ,-2.0058  ,2.5  ,4.9
611  ,3.604e+08   ,-2.2029  ,2.5  ,4.9
612  ,2.061e+10   ,2.2665  ,2.5  ,4.7665
613  ,1.391e+10   ,2.4  ,2.5  ,4.436
614  ,8.446e+09   ,2.4  ,2.5  ,4.2389
615  ,5.604e+09   ,2.4  ,2.5  ,4.0418
616  ,4.163e+09   ,2.4  ,2.5  ,3.8447
617  ,3.740e+09   ,2.4  ,2.5  ,3.6476
618  ,3.493e+09   ,2.4  ,2.5  ,3.4505
619  ,3.668e+09   ,2.4  ,2.5  ,3.2535
620  ,3.468e+09   ,2.4  ,2.5  ,3.0564
621  ,2.933e+09   ,2.4  ,2.5  ,2.8593
622  ,2.813e+09   ,2.4  ,2.5  ,2.6622
623  ,2.611e+09   ,2.4  ,2.5  ,2.4651
624  ,2.469e+09   ,2.4  ,2.5  ,2.268
625  ,2.222e+09   ,2.4  ,2.5  ,2.0709
626  ,2.206e+09   ,2.4  ,2.5  ,1.8738
627  ,2.209e+09   ,2.4  ,2.5  ,1.6767
628  ,2.516e+09   ,2.4  ,2.5  ,1.4796
629  ,2.480e+09   ,2.4  ,2.5  ,1.2825
630  ,1.748e+09   ,2.4  ,2.5  ,1.0855
631  ,1.288e+09   ,2.4  ,2.5  ,0.88836
632  ,8.869e+08   ,2.4  ,2.5  ,0.69127
633  ,6.805e+08   ,2.4  ,2.5  ,0.49418
634  ,3.400e+08   ,2.4  ,2.5  ,0.29709
796  ,3.999e+08   ,-2.5  ,2.2  ,0.1
797  ,7.947e+08   ,-2.5  ,2  ,0.1
798  ,1.029e+09   ,-2.5  ,1.8  ,0.1
799  ,1.217e+09   ,-2.5  ,1.6  ,0.1
800  ,1.342e+09   ,-2.5  ,1.4  ,0.1
801  ,1.477e+09   ,-2.5  ,1.2  ,0.1
802  ,1.707e+09   ,-2.5  ,1  ,0.1
803  ,1.948e+09   ,-2.5  ,0.8  ,0.1
804  ,1.882e+09   ,-2.5  ,0.6  ,0.1
805  ,1.785e+09   ,-2.5  ,0.4  ,0.1
806  ,1.585e+09   ,-2.5  ,0.2  ,0.1
807  ,1.521e+09   ,-2.5  ,5.8879E-16  ,0.1
808  ,1.366e+09   ,-2.5  ,-0.2  ,0.1
809  ,1.251e+09   ,-2.5  ,-0.4  ,0.1
810  ,1.153e+09   ,-2.5  ,-0.6  ,0.1
811  ,1.015e+09   ,-2.5  ,-0.8  ,0.1
812  ,7.886e+08   ,-2.5  ,-1  ,0.1
813  ,5.510e+08   ,-2.5  ,-1.2  ,0.1
814  ,6.661e+08   ,-2.5  ,-1.4  ,0.1
815  ,7.521e+08   ,-2.5  ,-1.6  ,0.1
816  ,8.302e+08   ,-2.5  ,-1.8  ,0.1
817  ,7.912e+08   ,-2.5  ,-2  ,0.1
818  ,5.367e+08   ,-2.5  ,-2.2  ,0.1
819  ,8.308e+08   ,-2.5  ,-2.4  ,4.7
820  ,6.106e+08   ,-2.5  ,-2.4  ,4.5
821  ,1.304e+09   ,-2.5  ,-2.4  ,4.3
822  ,2.272e+09   ,-2.5  ,-2.4  ,4.1
823  ,2.465e+09   ,-2.5  ,-2.4  ,3.9
824  ,2.352e+09   ,-2.5  ,-2.4  ,3.7
825  ,2.367e+09   ,-2.5  ,-2.4  ,3.5
826  ,1.855e+09   ,-2.5  ,-2.4  ,3.3
827  ,1.463e+09   ,-2.5  ,-2.4  ,3.1
828  ,1.007e+09   ,-2.5  ,-2.4  ,2.9
829  ,7.313e+08   ,-2.5  ,-2.4  ,2.7
830  ,4.844e+08   ,-2.5  ,-2.4  ,2.5
831  ,3.694e+08   ,-2.5  ,-2.4  ,2.3
832  ,3.603e+08   ,-2.5  ,-2.4  ,2.1
833  ,5.635e+08   ,-2.5  ,-2.4  ,1.9
834  ,7.697e+08   ,-2.5  ,-2.4  ,1.7
835  ,1.016e+09   ,-2.5  ,-2.4  ,1.5
836  ,9.993e+08   ,-2.5  ,-2.4  ,1.3
837  ,8.340e+08   ,-2.5  ,-2.4  ,1.1
838  ,4.486e+08   ,-2.5  ,-2.4  ,0.9
839  ,4.753e+07   ,-2.5  ,-2.4  ,0.7
840  ,2.684e+08   ,-2.5  ,-2.4  ,0.5
841  ,5.366e+08   ,-2.5  ,-2.4  ,0.3
842  ,5.085e+08   ,-2.5  ,2.2  ,4.9
843  ,5.870e+08   ,-2.5  ,2  ,4.9
844  ,5.451e+08   ,-2.5  ,1.8  ,4.9
845  ,5.165e+08   ,-2.5  ,1.6  ,4.9
846  ,5.122e+08   ,-2.5  ,1.4  ,4.9
847  ,5.909e+08   ,-2.5  ,1.2  ,4.9
848  ,8.355e+08   ,-2.5  ,1  ,4.9
849  ,1.294e+09   ,-2.5  ,0.8  ,4.9
850  ,8.856e+08   ,-2.5  ,0.6  ,4.9
851  ,7.743e+08   ,-2.5  ,0.4  ,4.9
852  ,8.029e+08   ,-2.5  ,0.2  ,4.9
853  ,8.567e+08   ,-2.5  ,5.8879E-16  ,4.9
854  ,7.239e+08   ,-2.5  ,-0.2  ,4.9
855  ,7.771e+08   ,-2.5  ,-0.4  ,4.9
856  ,8.638e+08   ,-2.5  ,-0.6  ,4.9
857  ,9.130e+08   ,-2.5  ,-0.8  ,4.9
858  ,8.849e+08   ,-2.5  ,-1  ,4.9
859  ,6.916e+08   ,-2.5  ,-1.2  ,4.9
860  ,6.459e+08   ,-2.5  ,-1.4  ,4.9
861  ,5.717e+08   ,-2.5  ,-1.6  ,4.9
862  ,6.164e+08   ,-2.5  ,-1.8  ,4.9
863  ,7.689e+08   ,-2.5  ,-2  ,4.9
864  ,7.724e+08   ,-2.5  ,-2.2  ,4.9
865  ,4.721e+08   ,-2.5  ,2.4  ,4.7
866  ,5.175e+08   ,-2.5  ,2.4  ,4.5
867  ,6.433e+08   ,-2.5  ,2.4  ,4.3
868  ,6.957e+08   ,-2.5  ,2.4  ,4.1
869  ,9.522e+08   ,-2.5  ,2.4  ,3.9
870  ,1.087e+09   ,-2.5  ,2.4  ,3.7
871  ,1.343e+09   ,-2.5  ,2.4  ,3.5
872  ,1.646e+09   ,-2.5  ,2.4  ,3.3
873  ,1.570e+09   ,-2.5  ,2.4  ,3.1
874  ,1.455e+09   ,-2.5  ,2.4  ,2.9
875  ,1.386e+09   ,-2.5  ,2.4  ,2.7
876  ,1.436e+09   ,-2.5  ,2.4  ,2.5
877  ,1.407e+09   ,-2.5  ,2.4  ,2.3
878  ,1.377e+09   ,-2.5  ,2.4  ,2.1
879  ,1.332e+09   ,-2.5  ,2.4  ,1.9
880  ,1.343e+09   ,-2.5  ,2.4  ,1.7
881  ,1.091e+09   ,-2.5  ,2.4  ,1.5
882  ,1.162e+09   ,-2.5  ,2.4  ,1.3
883  ,1.059e+09   ,-2.5  ,2.4  ,1.1
884  ,1.007e+09   ,-2.5  ,2.4  ,0.9
885  ,8.303e+08   ,-2.5  ,2.4  ,0.7
886  ,5.743e+08   ,-2.5  ,2.4  ,0.5
887  ,2.332e+08   ,-2.5  ,2.4  ,0.3
1044  ,4.112e+08   ,-2.3  ,-2.5  ,0.44697
1045  ,4.363e+08   ,-2.3  ,-2.5  ,0.68705
1046  ,3.453e+08   ,-2.3  ,-2.5  ,0.92554
1047  ,2.347e+08   ,-2.3  ,-2.5  ,1.1682
1048  ,5.707e+07   ,-2.3  ,-2.5  ,1.4148
1049  ,3.662e+08   ,-2.3  ,-2.5  ,1.6581
1050  ,8.941e+08   ,-2.3  ,-2.5  ,1.8967
1051  ,1.405e+09   ,-2.3  ,-2.5  ,2.1357
1052  ,1.544e+09   ,-2.3  ,-2.5  ,2.3794
1053  ,1.430e+09   ,-2.3  ,-2.5  ,2.6206
1054  ,1.097e+09   ,-2.3  ,-2.5  ,2.8643
1055  ,4.748e+08   ,-2.3  ,-2.5  ,3.1033
1056  ,2.304e+08   ,-2.3  ,-2.5  ,3.342
1057  ,6.561e+08   ,-2.3  ,-2.5  ,3.5852
1058  ,9.752e+08   ,-2.3  ,-2.5  ,3.8318
1059  ,1.159e+09   ,-2.3  ,-2.5  ,4.0745
1060  ,7.253e+08   ,-2.3  ,-2.5  ,4.3129
1061  ,4.286e+08   ,-2.3  ,-2.5  ,4.553
1062  ,1.806e+09   ,-2.053  ,-2.5  ,4.8
1063  ,1.757e+09   ,-1.8129  ,-2.5  ,4.8
1064  ,1.227e+09   ,-1.5745  ,-2.5  ,4.8
1065  ,5.329e+08   ,-1.3318  ,-2.5  ,4.8
1066  ,3.653e+08   ,-1.0852  ,-2.5  ,4.8
1067  ,1.007e+09   ,-0.84195  ,-2.5  ,4.8
1068  ,1.200e+09   ,-0.60329  ,-2.5  ,4.8
1069  ,1.570e+09   ,-0.3643  ,-2.5  ,4.8
1070  ,1.704e+09   ,-0.12055  ,-2.5  ,4.8
1071  ,1.427e+09   ,0.12056  ,-2.5  ,4.8
1072  ,7.977e+08   ,0.3643  ,-2.5  ,4.8
1073  ,5.599e+08   ,0.6033  ,-2.5  ,4.8
1074  ,3.320e+08   ,0.84195  ,-2.5  ,4.8
1075  ,7.148e+08   ,1.0852  ,-2.5  ,4.8
1076  ,6.580e+08   ,1.3318  ,-2.5  ,4.8
1077  ,3.447e+08   ,1.5745  ,-2.5  ,4.8
1078  ,9.508e+08   ,1.8129  ,-2.5  ,4.8
1079  ,3.031e+09   ,2.053  ,-2.5  ,4.8
1080  ,3.067e+09   ,2.3  ,-2.5  ,4.553
1081  ,9.195e+08   ,2.3  ,-2.5  ,4.3129
1082  ,4.136e+08   ,2.3  ,-2.5  ,4.0745
1083  ,6.502e+08   ,2.3  ,-2.5  ,3.8318
1084  ,8.135e+08   ,2.3  ,-2.5  ,3.5852
1085  ,3.098e+08   ,2.3  ,-2.5  ,3.3419
1086  ,4.591e+08   ,2.3  ,-2.5  ,3.1033
1087  ,8.479e+08   ,2.3  ,-2.5  ,2.8643
1088  ,1.477e+09   ,2.3  ,-2.5  ,2.6206
1089  ,1.739e+09   ,2.3  ,-2.5  ,2.3794
1090  ,1.513e+09   ,2.3  ,-2.5  ,2.1357
1091  ,1.250e+09   ,2.3  ,-2.5  ,1.8967
1092  ,1.054e+09   ,2.3  ,-2.5  ,1.658
1093  ,4.310e+08   ,2.3  ,-2.5  ,1.4148
1094  ,3.744e+08   ,2.3  ,-2.5  ,1.1682
1095  ,1.164e+09   ,2.3  ,-2.5  ,0.92554
1096  ,1.752e+09   ,2.3  ,-2.5  ,0.68705
1097  ,1.760e+09   ,2.3  ,-2.5  ,0.44697
1098  ,3.065e+08   ,-2.053  ,-2.5  ,0.2
1099  ,4.871e+08   ,-1.8129  ,-2.5  ,0.2
1100  ,3.920e+08   ,-1.5745  ,-2.5  ,0.2
1101  ,3.306e+08   ,-1.3318  ,-2.5  ,0.2
1102  ,2.111e+08   ,-1.0852  ,-2.5  ,0.2
1103  ,3.277e+08   ,-0.84195  ,-2.5  ,0.2
1104  ,9.470e+08   ,-0.60329  ,-2.5  ,0.2
1105  ,1.536e+09   ,-0.3643  ,-2.5  ,0.2
1106  ,1.636e+09   ,-0.12055  ,-2.5  ,0.2
1107  ,1.389e+09   ,0.12056  ,-2.5  ,0.2
1108  ,1.090e+09   ,0.3643  ,-2.5  ,0.2
1109  ,5.502e+08   ,0.6033  ,-2.5  ,0.2
1110  ,2.317e+08   ,0.84195  ,-2.5  ,0.2
1111  ,7.298e+08   ,1.0852  ,-2.5  ,0.2
1112  ,9.663e+08   ,1.3318  ,-2.5  ,0.2
1113  ,1.041e+09   ,1.5745  ,-2.5  ,0.2
1114  ,7.377e+08   ,1.8129  ,-2.5  ,0.2
1115  ,6.131e+08   ,2.053  ,-2.5  ,0.2
1116  ,8.957e+08   ,-2.2  ,-2.5  ,4.9
1117  ,8.307e+08   ,-2  ,-2.5  ,4.9
1118  ,9.487e+08   ,-1.8  ,-2.5  ,4.9
1119  ,5.577e+08   ,-1.6  ,-2.5  ,4.9
1120  ,5.527e+08   ,-1.4  ,-2.5  ,4.9
1121  ,7.989e+08   ,-1.2  ,-2.5  ,4.9
1122  ,8.985e+08   ,-1  ,-2.5  ,4.9
1123  ,8.284e+08   ,-0.8  ,-2.5  ,4.9
1124  ,8.393e+08   ,-0.6  ,-2.5  ,4.9
1125  ,9.988e+08   ,-0.4  ,-2.5  ,4.9
1126  ,7.934e+08   ,-0.2  ,-2.5  ,4.9
1127  ,7.268e+08   ,-1.7664E-15  ,-2.5  ,4.9
1128  ,8.152e+08   ,0.2  ,-2.5  ,4.9
1129  ,1.030e+09   ,0.4  ,-2.5  ,4.9
1130  ,1.196e+09   ,0.6  ,-2.5  ,4.9
1131  ,1.400e+09   ,0.8  ,-2.5  ,4.9
1132  ,1.405e+09   ,1  ,-2.5  ,4.9
1133  ,1.534e+09   ,1.2  ,-2.5  ,4.9
1134  ,1.136e+09   ,1.4  ,-2.5  ,4.9
1135  ,1.226e+09   ,1.6  ,-2.5  ,4.9
1136  ,1.354e+09   ,1.8  ,-2.5  ,4.9
1137  ,1.311e+09   ,2  ,-2.5  ,4.9
1138  ,1.388e+09   ,2.2  ,-2.5  ,4.9
1139  ,9.974e+08   ,-2.4  ,-2.5  ,4.7
1140  ,8.576e+08   ,-2.4  ,-2.5  ,4.5
1141  ,8.392e+08   ,-2.4  ,-2.5  ,4.3
1142  ,6.107e+08   ,-2.4  ,-2.5  ,4.1
1143  ,8.269e+08   ,-2.4  ,-2.5  ,3.9
1144  ,1.068e+09   ,-2.4  ,-2.5  ,3.7
1145  ,8.808e+08   ,-2.4  ,-2.5  ,3.5
1146  ,1.073e+09   ,-2.4  ,-2.5  ,3.3
1147  ,1.018e+09   ,-2.4  ,-2.5  ,3.1
1148  ,1.134e+09   ,-2.4  ,-2.5  ,2.9
1149  ,1.087e+09   ,-2.4  ,-2.5  ,2.7
1150  ,1.086e+09   ,-2.4  ,-2.5  ,2.5
1151  ,9.425e+08   ,-2.4  ,-2.5  ,2.3
1152  ,8.905e+08   ,-2.4  ,-2.5  ,2.1
1153  ,7.490e+08   ,-2.4  ,-2.5  ,1.9
1154  ,6.532e+08   ,-2.4  ,-2.5  ,1.7
1155  ,5.406e+08   ,-2.4  ,-2.5  ,1.5
1156  ,5.682e+08   ,-2.4  ,-2.5  ,1.3
1157  ,5.008e+08   ,-2.4  ,-2.5  ,1.1
1158  ,4.341e+08   ,-2.4  ,-2.5  ,0.9
1159  ,1.724e+08   ,-2.4  ,-2.5  ,0.7
1160  ,1.409e+08   ,-2.4  ,-2.5  ,0.5
1161  ,3.433e+08   ,-2.4  ,-2.5  ,0.3
1162  ,2.081e+08   ,-2.2  ,-2.5  ,0.1
1163  ,1.863e+08   ,-2  ,-2.5  ,0.1
1164  ,2.005e+08   ,-1.8  ,-2.5  ,0.1
1165  ,3.781e+08   ,-1.6  ,-2.5  ,0.1
1166  ,5.452e+08   ,-1.4  ,-2.5  ,0.1
1167  ,5.854e+08   ,-1.2  ,-2.5  ,0.1
1168  ,5.824e+08   ,-1  ,-2.5  ,0.1
1169  ,6.944e+08   ,-0.8  ,-2.5  ,0.1
1170  ,8.214e+08   ,-0.6  ,-2.5  ,0.1
1171  ,8.898e+08   ,-0.4  ,-2.5  ,0.1
1172  ,9.962e+08   ,-0.2  ,-2.5  ,0.1
1173  ,1.187e+09   ,-1.7664E-15  ,-2.5  ,0.1
1174  ,1.187e+09   ,0.2  ,-2.5  ,0.1
1175  ,1.132e+09   ,0.4  ,-2.5  ,0.1
1176  ,1.120e+09   ,0.6  ,-2.5  ,0.1
1177  ,9.522e+08   ,0.8  ,-2.5  ,0.1
1178  ,9.561e+08   ,1  ,-2.5  ,0.1
1179  ,9.177e+08   ,1.2  ,-2.5  ,0.1
1180  ,7.884e+08   ,1.4  ,-2.5  ,0.1
1181  ,7.731e+08   ,1.6  ,-2.5  ,0.1
1182  ,9.075e+08   ,1.8  ,-2.5  ,0.1
1183  ,8.839e+08   ,2  ,-2.5  ,0.1
1184  ,8.635e+08   ,2.2  ,-2.5  ,0.1
1185  ,1.205e+09   ,2.4  ,-2.5  ,4.7
1186  ,1.317e+09   ,2.4  ,-2.5  ,4.5
1187  ,1.313e+09   ,2.4  ,-2.5  ,4.3
1188  ,1.249e+09   ,2.4  ,-2.5  ,4.1
1189  ,1.368e+09   ,2.4  ,-2.5  ,3.9
1190  ,1.367e+09   ,2.4  ,-2.5  ,3.7
1191  ,1.211e+09   ,2.4  ,-2.5  ,3.5
1192  ,1.362e+09   ,2.4  ,-2.5  ,3.3
1193  ,1.200e+09   ,2.4  ,-2.5  ,3.1
1194  ,1.055e+09   ,2.4  ,-2.5  ,2.9
1195  ,9.440e+08   ,2.4  ,-2.5  ,2.7
1196  ,8.289e+08   ,2.4  ,-2.5  ,2.5
1197  ,7.689e+08   ,2.4  ,-2.5  ,2.3
1198  ,9.554e+08   ,2.4  ,-2.5  ,2.1
1199  ,8.646e+08   ,2.4  ,-2.5  ,1.9
1200  ,8.601e+08   ,2.4  ,-2.5  ,1.7
1201  ,9.438e+08   ,2.4  ,-2.5  ,1.5
1202  ,8.859e+08   ,2.4  ,-2.5  ,1.3
1203  ,5.962e+08   ,2.4  ,-2.5  ,1.1
1204  ,4.890e+08   ,2.4  ,-2.5  ,0.9
1205  ,5.143e+08   ,2.4  ,-2.5  ,0.7
1206  ,9.990e+08   ,2.4  ,-2.5  ,0.5
1207  ,9.611e+08   ,2.4  ,-2.5  ,0.3
1208  ,7.710e+08   ,2.4  ,-2.2  ,0
1209  ,8.635e+08   ,2.4  ,-2  ,0
1210  ,7.088e+08   ,2.4  ,-1.8  ,0
1211  ,6.563e+08   ,2.4  ,-1.6  ,0
1212  ,6.804e+08   ,2.4  ,-1.4  ,0
1213  ,6.039e+08   ,2.4  ,-1.2  ,0
1214  ,7.822e+08   ,2.4  ,-1  ,0
1215  ,9.075e+08   ,2.4  ,-0.8  ,0
1216  ,8.244e+08   ,2.4  ,-0.6  ,0
1217  ,8.232e+08   ,2.4  ,-0.4  ,0
1218  ,7.722e+08   ,2.4  ,-0.2  ,0
1219  ,7.461e+08   ,2.4  ,-1.7664E-15  ,0
1220  ,8.414e+08   ,2.4  ,0.2  ,0
1221  ,6.946e+08   ,2.4  ,0.4  ,0
1222  ,9.349e+08   ,2.4  ,0.6  ,0
1223  ,1.292e+09   ,2.4  ,0.8  ,0
1224  ,8.903e+08   ,2.4  ,1  ,0
1225  ,6.610e+08   ,2.4  ,1.2  ,0
1226  ,5.944e+08   ,2.4  ,1.4  ,0
1227  ,4.874e+08   ,2.4  ,1.6  ,0
1228  ,5.915e+08   ,2.4  ,1.8  ,0
1229  ,5.514e+08   ,2.4  ,2  ,0
1230  ,4.226e+08   ,2.4  ,2.2  ,0
1231  ,4.366e+08   ,-2.2  ,-2.4  ,0
1232  ,3.243e+08   ,-2  ,-2.4  ,0
1233  ,1.282e+08   ,-1.8  ,-2.4  ,0
1234  ,3.619e+08   ,-1.6  ,-2.4  ,0
1235  ,8.140e+08   ,-1.4  ,-2.4  ,0
1236  ,1.098e+09   ,-1.2  ,-2.4  ,0
1237  ,1.064e+09   ,-1  ,-2.4  ,0
1238  ,8.449e+08   ,-0.8  ,-2.4  ,0
1239  ,5.658e+08   ,-0.6  ,-2.4  ,0
1240  ,3.091e+08   ,-0.4  ,-2.4  ,0
1241  ,3.288e+08   ,-0.2  ,-2.4  ,0
1242  ,6.758e+08   ,5.8879E-16  ,-2.4  ,0
1243  ,9.090e+08   ,0.2  ,-2.4  ,0
1244  ,1.104e+09   ,0.4  ,-2.4  ,0
1245  ,1.408e+09   ,0.6  ,-2.4  ,0
1246  ,1.998e+09   ,0.8  ,-2.4  ,0
1247  ,2.341e+09   ,1  ,-2.4  ,0
1248  ,2.530e+09   ,1.2  ,-2.4  ,0
1249  ,2.445e+09   ,1.4  ,-2.4  ,0
1250  ,2.177e+09   ,1.6  ,-2.4  ,0
1251  ,1.406e+09   ,1.8  ,-2.4  ,0
1252  ,8.633e+08   ,2  ,-2.4  ,0
1253  ,9.754e+08   ,2.2  ,-2.4  ,0
1254  ,2.658e+08   ,-2.4  ,2.2  ,0
1255  ,6.935e+08   ,-2.4  ,2  ,0
1256  ,1.045e+09   ,-2.4  ,1.8  ,0
1257  ,1.194e+09   ,-2.4  ,1.6  ,0
1258  ,1.342e+09   ,-2.4  ,1.4  ,0
1259  ,1.510e+09   ,-2.4  ,1.2  ,0
1260  ,1.730e+09   ,-2.4  ,1  ,0
1261  ,1.960e+09   ,-2.4  ,0.8  ,0
1262  ,1.894e+09   ,-2.4  ,0.6  ,0
1263  ,1.712e+09   ,-2.4  ,0.4  ,0
1264  ,1.581e+09   ,-2.4  ,0.2  ,0
1265  ,1.501e+09   ,-2.4  ,5.8879E-16  ,0
1266  ,1.427e+09   ,-2.4  ,-0.2  ,0
1267  ,1.407e+09   ,-2.4  ,-0.4  ,0
1268  ,1.182e+09   ,-2.4  ,-0.6  ,0
1269  ,9.757e+08   ,-2.4  ,-0.8  ,0
1270  ,7.300e+08   ,-2.4  ,-1  ,0
1271  ,5.251e+08   ,-2.4  ,-1.2  ,0
1272  ,5.952e+08   ,-2.4  ,-1.4  ,0
1273  ,8.048e+08   ,-2.4  ,-1.6  ,0
1274  ,8.742e+08   ,-2.4  ,-1.8  ,0
1275  ,7.961e+08   ,-2.4  ,-2  ,0
1276  ,4.685e+08   ,-2.4  ,-2.2  ,0
1277  ,4.858e+08   ,2.2  ,2.4  ,0
1278  ,6.403e+08   ,2  ,2.4  ,0
1279  ,7.525e+08   ,1.8  ,2.4  ,0
1280  ,7.078e+08   ,1.6  ,2.4  ,0
1281  ,7.912e+08   ,1.4  ,2.4  ,0
1282  ,1.030e+09   ,1.2  ,2.4  ,0
1283  ,1.309e+09   ,1  ,2.4  ,0
1284  ,1.673e+09   ,0.8  ,2.4  ,0
1285  ,1.585e+09   ,0.6  ,2.4  ,0
1286  ,1.442e+09   ,0.4  ,2.4  ,0
1287  ,1.439e+09   ,0.2  ,2.4  ,0
1288  ,1.429e+09   ,5.8879E-16  ,2.4  ,0
1289  ,1.617e+09   ,-0.2  ,2.4  ,0
1290  ,1.460e+09   ,-0.4  ,2.4  ,0
1291  ,1.458e+09   ,-0.6  ,2.4  ,0
1292  ,1.409e+09   ,-0.8  ,2.4  ,0
1293  ,1.139e+09   ,-1  ,2.4  ,0
1294  ,1.125e+09   ,-1.2  ,2.4  ,0
1295  ,1.002e+09   ,-1.4  ,2.4  ,0
1296  ,9.549e+08   ,-1.6  ,2.4  ,0
1297  ,8.119e+08   ,-1.8  ,2.4  ,0
1298  ,5.873e+08   ,-2  ,2.4  ,0
1299  ,1.856e+08   ,-2.2  ,2.4  ,0
1460  ,1.142e+10   ,2.3243  ,2.3243  ,4.9577
1461  ,1.027e+10   ,2.4577  ,2.3243  ,4.8243
1462  ,7.355e+09   ,2.3243  ,2.4577  ,4.8243
1463  ,1.192e+09   ,-2.3  ,-2.1759  ,4.8
1464  ,1.433e+09   ,-2.3  ,-1.7631  ,4.8
1465  ,1.694e+09   ,-2.3  ,-1.1827  ,4.8
1466  ,2.070e+09   ,-2.3  ,-0.34986  ,4.8
1467  ,2.471e+09   ,-2.3  ,0.80545  ,4.8
1468  ,2.537e+09   ,-0.81337  ,2.3  ,4.8
1469  ,5.197e+09   ,0.67326  ,2.3  ,4.8
1470  ,1.722e+09   ,2.3  ,-2.1824  ,4.8
1471  ,1.465e+09   ,2.3  ,-1.7784  ,4.8
1472  ,1.681e+09   ,2.3  ,-1.2138  ,4.8
1473  ,2.394e+09   ,2.3  ,-0.40752  ,4.8
1474  ,4.514e+09   ,2.3  ,0.70532  ,4.8
1516  ,2.543e+09   ,2.3  ,2.3  ,1.6866
1517  ,5.180e+09   ,2.3  ,2.3  ,3.1733
1518  ,1.143e+09   ,2.3  ,-2.1759  ,0.2
1519  ,1.474e+09   ,2.3  ,-1.7631  ,0.2
1520  ,1.642e+09   ,2.3  ,-1.1827  ,0.2
1521  ,2.058e+09   ,2.3  ,-0.34986  ,0.2
1522  ,2.552e+09   ,2.3  ,0.80545  ,0.2
1564  ,2.112e+09   ,-0.76667  ,2.3  ,0.2
1565  ,2.554e+09   ,0.76667  ,2.3  ,0.2
1566  ,1.999e+09   ,-2.3  ,2.3  ,1.7333
1567  ,2.658e+09   ,-2.3  ,2.3  ,3.2667
1574  ,3.056e+08   ,-2.3  ,-2.1759  ,0.2
1575  ,3.294e+08   ,-2.3  ,-1.7631  ,0.2
1576  ,6.818e+08   ,-2.3  ,-1.1827  ,0.2
1577  ,9.157e+08   ,-2.3  ,-0.34986  ,0.2
1578  ,8.926e+08   ,-2.3  ,0.80545  ,0.2
1777  ,2.715e+09   ,-0.52764  ,2.5  ,4.9
1801  ,8.187e+08   ,-2.3  ,1.5527  ,0.2
1825  ,1.869e+09   ,-1.5333  ,2.3  ,0.2
1841  ,2.690e+09   ,0.063638  ,2.5  ,4.9
1876  ,1.423e+09   ,-0.5  ,2.4  ,0
1894  ,2.401e+09   ,2.3  ,1.5527  ,0.2
1907  ,4.463e+08   ,2.1  ,2.5  ,0.1
1928  ,6.727e+08   ,1.9  ,2.4  ,0
1974  ,7.930e+08   ,2.4  ,1.1  ,0
1981  ,8.234e+08   ,2.4  ,2.5  ,0.59273
1987  ,8.829e+08   ,-2.5  ,2.4  ,4
2004  ,3.904e+08   ,-2.4  ,2.5  ,4.6
2009  ,5.961e+08   ,2.4  ,1.3  ,0
2020  ,6.776e+08   ,2.5  ,1.1  ,0.1
2035  ,7.949e+08   ,-2.3  ,-0.76628  ,0.2
2070  ,6.558e+09   ,1.6404  ,2.4  ,5
2081  ,2.204e+09   ,2.4  ,2.5  ,1.9724
2095  ,1.190e+09   ,2.4  ,2.5  ,0.78982
2138  ,1.456e+09   ,-2.4  ,-0.1  ,0
2146  ,2.302e+09   ,-0.92182  ,2.4  ,5
2174  ,1.962e+09   ,2.4  ,2.5  ,1.184
2190  ,1.532e+09   ,2.5  ,2.4  ,0.98691
2203  ,2.142e+09   ,2.5  ,-0.13345  ,4.9
2232  ,4.416e+09   ,2.3  ,0.1489  ,4.8
2242  ,3.310e+09   ,2.4  ,2.5  ,2.9578
2293  ,1.847e+09   ,-2.5  ,0.5  ,0.1
2311  ,5.746e+09   ,2.3  ,2.3  ,2.4299
2313  ,1.409e+09   ,2.5  ,2.4  ,0.78982
2329  ,2.339e+09   ,2.4  ,2.5  ,2.1695
2355  ,4.620e+08   ,-2.4  ,2.5  ,4.4
2380  ,6.852e+08   ,-2.5  ,-1.5  ,0.1
2383  ,3.093e+09   ,0.45782  ,2.5  ,4.9
2408  ,2.199e+09   ,2.3  ,-1.4961  ,4.8
2445  ,1.540e+09   ,2.5  ,-1.5131  ,4.9
2484  ,8.733e+08   ,-2.5  ,-2.4  ,1.6
2495  ,4.664e+08   ,-2.4  ,1.7  ,5
2508  ,7.828e+08   ,2.4  ,0.3  ,0
2514  ,2.722e+09   ,2.3  ,0.2278  ,0.2
2570  ,4.129e+08   ,-2.4  ,1.5  ,5
2580  ,6.609e+09   ,1.6404  ,2.5  ,4.9
2603  ,2.584e+09   ,-1.1189  ,2.5  ,4.9
2695  ,1.575e+09   ,2.3  ,2.3  ,0.94331
2705  ,2.592e+09   ,2.4  ,2.5  ,1.3811
2714  ,2.287e+09   ,2.5  ,0.45782  ,4.9
2734  ,8.101e+08   ,2.4  ,-0.9  ,0
2775  ,7.391e+08   ,2.5  ,-0.1  ,0.1
2779  ,7.279e+08   ,2.4  ,-0.1  ,0
2801  ,9.238e+09   ,1.4166  ,2.3  ,4.8
2814  ,5.047e+09   ,1.4433  ,2.5  ,4.9
2863  ,9.276e+08   ,-2.4  ,2.5  ,0.6
2884  ,1.062e+09   ,-2.4  ,2.5  ,0.8
2886  ,1.279e+09   ,-2.4  ,2.5  ,1.2
2967  ,4.908e+08   ,2.4  ,1.7  ,0
2973  ,4.891e+08   ,2.5  ,1.5  ,0.1
2987  ,1.049e+09   ,-0.3  ,2.5  ,0.1
3008  ,1.891e+09   ,-2.3  ,2.3  ,0.96667
3012  ,1.400e+09   ,-2.5  ,2.4  ,2.6
3021  ,1.367e+09   ,-2.5  ,2.4  ,2.8
3025  ,1.413e+09   ,-2.5  ,2.4  ,2.4
3030  ,1.528e+09   ,-2.4  ,2.5  ,2.4
3033  ,1.493e+09   ,-2.4  ,2.5  ,2.2
3047  ,2.551e+09   ,2.4  ,2.5  ,2.3665
3052  ,2.867e+09   ,2.5  ,2.4  ,2.5636
3061  ,2.676e+09   ,2.4  ,2.5  ,2.5636
3081  ,4.759e+08   ,-2.4  ,1.3  ,5
3088  ,6.961e+08   ,-1.9073  ,2.4  ,5
3099  ,5.317e+08   ,-2.4  ,1.9  ,5
3107  ,7.745e+08   ,-2.4  ,2.5  ,3.8
3139  ,1.536e+09   ,-1.5131  ,2.4  ,5
3145  ,1.631e+09   ,-1.5131  ,2.5  ,4.9
3148  ,1.171e+09   ,-1.7102  ,2.5  ,4.9
3168  ,1.265e+09   ,-2.4  ,1.5  ,0
3188  ,6.051e+08   ,-2.5  ,-2.4  ,1
3202  ,2.725e+09   ,0.26073  ,2.5  ,4.9
3212  ,6.268e+09   ,2.5  ,1.6404  ,4.9
3247  ,1.138e+10   ,2.5  ,1.8375  ,4.9
3265  ,9.094e+09   ,2.3  ,1.4326  ,4.8
3271  ,1.509e+10   ,2.2299  ,2.2299  ,4.8
3284  ,4.671e+09   ,2.4  ,1.4433  ,5
3291  ,4.493e+09   ,2.5  ,1.4433  ,4.9
3296  ,2.245e+09   ,-2.3  ,-0.76628  ,4.8
3303  ,9.654e+08   ,-2.4  ,-0.9  ,5
3311  ,8.854e+08   ,-2.4  ,-0.7  ,5
3315  ,5.783e+08   ,1.9  ,2.5  ,0.1
3336  ,1.639e+09   ,-2.4  ,0.3  ,0
3340  ,1.530e+09   ,-2.5  ,0.1  ,0.1
3344  ,1.527e+09   ,-2.4  ,0.1  ,0
3356  ,1.498e+09   ,-0.3  ,2.4  ,0
3361  ,2.267e+09   ,-0.33054  ,2.5  ,4.9
3364  ,2.243e+09   ,-0.13345  ,2.5  ,4.9
3383  ,3.594e+09   ,2.4  ,2.5  ,3.5491
3402  ,1.693e+10   ,2.4  ,2.5  ,4.5345
3421  ,2.063e+09   ,-1.316  ,2.5  ,4.9
3439  ,4.862e+09   ,2.5  ,2.4  ,3.9433
3447  ,4.990e+09   ,2.4  ,2.5  ,3.9433
3451  ,3.746e+09   ,2.4  ,2.5  ,3.7462
3468  ,4.901e+09   ,1.4433  ,2.4  ,5
3480  ,3.560e+09   ,1.0491  ,2.4  ,5
3519  ,7.330e+08   ,1.5  ,2.4  ,0
3527  ,1.957e+09   ,2.3  ,-1.4729  ,0.2
3550  ,8.881e+08   ,-1.7  ,2.4  ,0
3554  ,1.067e+09   ,-1.7  ,2.5  ,0.1
3558  ,9.543e+08   ,-1.5  ,2.4  ,0
3562  ,1.194e+09   ,-1.5  ,2.5  ,0.1
3574  ,4.794e+08   ,-2.4  ,2.1  ,5
3581  ,1.109e+09   ,-2.5  ,1.7  ,0.1
3583  ,9.251e+08   ,-2.5  ,1.9  ,0.1
3584  ,7.363e+08   ,-1.9073  ,2.5  ,4.9
3591  ,8.422e+08   ,2.5  ,0.3  ,0.1
3595  ,8.024e+08   ,2.5  ,0.1  ,0.1
3603  ,1.830e+10   ,2.4577  ,2.391  ,4.7576
3663  ,4.478e+08   ,-1.933  ,-2.5  ,0.2
3669  ,1.934e+08   ,-2.1765  ,-2.5  ,0.2
3672  ,1.529e+08   ,-2.3  ,-2.3379  ,0.2
3682  ,2.234e+08   ,-1.9  ,-2.4  ,0
3700  ,1.157e+09   ,2.3  ,-2.5  ,2.7424
3712  ,1.001e+09   ,-2.1  ,-2.5  ,4.9
3715  ,9.969e+08   ,-1.9  ,-2.5  ,4.9
3740  ,1.496e+09   ,-1.3  ,-2.4  ,5
3746  ,3.197e+08   ,-1.2085  ,-2.5  ,4.8
3755  ,1.771e+09   ,-1.5  ,-2.4  ,5
3760  ,7.969e+08   ,-1.7  ,-2.5  ,4.9
3786  ,2.281e+09   ,2.4  ,2.5  ,1.5782
3813  ,2.915e+09   ,0.26073  ,2.4  ,5
3858  ,8.332e+08   ,-0.9  ,-2.4  ,5
3863  ,1.074e+09   ,-2.5  ,0.9  ,4.9
3875  ,2.043e+09   ,-1.9  ,-2.4  ,5
3885  ,1.675e+09   ,2.4  ,-0.72473  ,5
3910  ,9.626e+08   ,-2.4  ,-2.5  ,3.4
3959  ,7.152e+09   ,2.5  ,2.4  ,4.1404
3969  ,3.185e+09   ,2.5  ,1.0491  ,4.9
3992  ,1.572e+10   ,2.391  ,2.2576  ,4.9577
3993  ,1.805e+10   ,2.4577  ,2.2576  ,4.891
4016  ,2.599e+08   ,-2.3015  ,2.5  ,4.9
4018  ,3.000e+08   ,-2.4  ,2.5  ,4.8
4021  ,3.856e+09   ,1.2462  ,2.4  ,5
4042  ,6.817e+08   ,2.4  ,-1.1  ,0
4046  ,1.227e+09   ,-0.9  ,2.4  ,0
4055  ,1.283e+09   ,1.7  ,-2.5  ,4.9
4087  ,7.425e+08   ,1.7  ,2.4  ,0
4114  ,1.602e+09   ,2.5  ,-0.33054  ,4.9
4120  ,8.559e+08   ,2.4  ,-2.5  ,1.8
4125  ,1.212e+09   ,2.4  ,2.5  ,0.98691
4144  ,1.119e+10   ,2.4  ,2.5  ,4.3375
4161  ,1.044e+09   ,-2.4  ,0.3  ,5
4201  ,5.961e+08   ,1.933  ,-2.5  ,0.2
4225  ,3.169e+08   ,-2.3  ,-2.4  ,0
4230  ,4.435e+08   ,-2.3  ,-2.5  ,0.56701
4269  ,8.534e+08   ,-0.9  ,-2.5  ,4.9
4277  ,1.211e+09   ,-1.1  ,-2.4  ,5
4288  ,4.852e+09   ,-0.070055  ,2.3  ,4.8
4328  ,1.737e+09   ,-2.5  ,-2.4  ,4.2
4336  ,9.246e+08   ,-2.5  ,-2.4  ,4.4
4342  ,4.829e+08   ,-2.5  ,-2.4  ,4.6
4348  ,9.565e+08   ,-2.4  ,-2.4707  ,4.9707
4352  ,9.178e+08   ,-2.3  ,-2.5  ,4.9
4354  ,1.774e+09   ,-2.1765  ,-2.5  ,4.8
4355  ,1.190e+09   ,-2.3  ,-2.3379  ,4.8
4362  ,8.088e+08   ,2.5  ,2.4  ,0.59273
4364  ,2.599e+08   ,2.5  ,-2.4  ,2.4
4366  ,4.074e+08   ,2.5  ,-2.4  ,2.2
4372  ,8.969e+08   ,2.4  ,-2.5  ,2.2
4385  ,8.364e+08   ,-2.5  ,-1.9  ,0.1
4399  ,5.737e+08   ,-2.5  ,2.1  ,0.1
4407  ,7.370e+08   ,-0.7  ,-2.4  ,0
4436  ,1.444e+09   ,-2.5  ,-0.1  ,0.1
4462  ,2.044e+09   ,-2.3  ,2.3  ,4.0333
4491  ,1.382e+09   ,2.5  ,-0.52764  ,4.9
4494  ,1.245e+09   ,2.5  ,-2.4  ,1.4
4503  ,9.484e+08   ,2.4  ,-2.5  ,1.4
4508  ,7.257e+08   ,2.4  ,-2.5  ,1.2
4515  ,6.722e+08   ,2.5  ,-2.4  ,1.8
4517  ,9.317e+08   ,2.4  ,-2.5  ,1.6
4522  ,1.621e+09   ,0.7  ,-2.4  ,0
4538  ,2.183e+09   ,-1.1189  ,2.4  ,5
4546  ,6.362e+09   ,2.4  ,2.5  ,4.1404
4559  ,1.789e+09   ,1.7  ,-2.4  ,0
4590  ,1.222e+09   ,0.5  ,-2.4  ,0
4631  ,9.152e+08   ,2.4  ,-2.5  ,2.6
4634  ,8.341e+08   ,2.5  ,-2.4  ,2.8
4657  ,4.953e+08   ,-2.5  ,-2.4  ,2
4660  ,6.731e+08   ,-2.5  ,-2.4  ,1.8
4664  ,2.611e+08   ,-0.3  ,-2.4  ,0
4675  ,7.640e+08   ,-2.4  ,-2.5  ,4.8
4681  ,1.300e+09   ,-2.5  ,-0.3  ,0.1
4684  ,1.289e+09   ,1.7  ,-2.4  ,5
4703  ,1.265e+09   ,-2.4  ,0.7  ,5
4707  ,7.952e+08   ,-2.5  ,0.3  ,4.9
4714  ,1.453e+09   ,2.4  ,-0.33054  ,5
4723  ,2.242e+09   ,-1.5567  ,2.3  ,4.8
4739  ,4.007e+08   ,-2.1044  ,2.5  ,4.9
4763  ,6.241e+08   ,-1.9  ,2.4  ,0
4780  ,4.206e+08   ,-2.3  ,-1.9695  ,0.2
4782  ,2.569e+08   ,-2.4707  ,-2.4  ,0.029289
4784  ,8.400e+08   ,-2.4  ,-1.9  ,0
4791  ,7.093e+08   ,-2.4  ,-2.5  ,1.8
4796  ,2.326e+09   ,2.4707  ,-2.4707  ,4.9
4799  ,2.708e+09   ,2.5  ,-2.4  ,4.8
4806  ,1.453e+09   ,2.3  ,-2.5  ,4.9
4809  ,9.597e+09   ,2.3  ,2.3  ,3.9166
4833  ,6.228e+08   ,-2.4  ,2.5  ,0.4
4841  ,1.516e+09   ,-2.4  ,2.5  ,2.6
4846  ,5.194e+08   ,-2.5  ,2.1  ,4.9
4848  ,4.203e+08   ,-2.5  ,2.3  ,4.9
4849  ,3.977e+08   ,-2.5  ,2.4  ,4.8
4893  ,5.889e+08   ,-2.4  ,2.5  ,4.2
4897  ,2.029e+10   ,2.3333  ,2.1998  ,5
4900  ,1.710e+10   ,2.391  ,2.4577  ,4.7576
4908  ,1.842e+10   ,2.2576  ,2.391  ,4.9577
4911  ,1.744e+10   ,2.2576  ,2.4577  ,4.891
4926  ,1.036e+09   ,-2.5  ,2.4  ,1
4932  ,1.461e+09   ,-2.4  ,2.5  ,1.6
4937  ,1.379e+09   ,-1.1  ,2.5  ,0.1
4939  ,1.512e+10   ,2.3  ,2.2299  ,4.7299
4944  ,1.778e+09   ,2.5  ,-1.9073  ,4.9
4987  ,2.201e+09   ,-2.3  ,1.5527  ,4.8
5010  ,4.779e+10   ,2.4973  ,2.1331  ,4.923
5013  ,1.591e+10   ,2.5  ,2.0345  ,4.9
5017  ,1.833e+10   ,2.4  ,2.0345  ,5
5035  ,2.412e+09   ,1.3  ,-2.4  ,0
5038  ,8.571e+08   ,1.2085  ,-2.5  ,0.2
5092  ,4.901e+08   ,-2.4  ,-2.5  ,1.2
5123  ,2.144e+09   ,2.5  ,-2.4  ,0.6
5151  ,1.206e+09   ,-2.5  ,-0.5  ,0.1
5160  ,1.087e+09   ,-2.5  ,-0.7  ,0.1
5164  ,1.116e+09   ,-2.4  ,0.9  ,5
5168  ,1.043e+09   ,-2.4  ,0.5  ,5
5176  ,7.968e+08   ,2.5  ,-0.7  ,0.1
5179  ,7.904e+08   ,2.4  ,-0.5  ,0
5189  ,7.579e+08   ,2.4  ,-2.5  ,2.4
5194  ,1.676e+09   ,2.3  ,-2.5  ,2.2576
5198  ,3.161e+08   ,-2.3  ,-2.5  ,0.32348
5205  ,3.594e+08   ,-2.4  ,-2.5  ,0.2
5207  ,1.844e+08   ,-2.1  ,-2.5  ,0.1
5246  ,1.608e+09   ,-2.5  ,2.4  ,3.2
5257  ,5.034e+08   ,-2.5  ,1.5  ,4.9
5263  ,9.868e+08   ,-2.3  ,0.2278  ,0.2
5272  ,1.652e+09   ,-2.5  ,0.3  ,0.1
5275  ,7.881e+08   ,-2.5  ,0.5  ,4.9
5281  ,8.100e+09   ,1.8375  ,2.5  ,4.9
5297  ,1.558e+09   ,-0.9  ,2.5  ,0.1
5306  ,1.416e+09   ,-0.7  ,2.4  ,0
5309  ,1.276e+09   ,-0.5  ,2.5  ,0.1
5324  ,2.801e+09   ,2.4  ,2.5  ,2.7607
5332  ,2.011e+09   ,2.5  ,-2.4  ,0.8
5334  ,5.162e+08   ,2.4  ,-2.5  ,1
5360  ,1.560e+09   ,2.4  ,-1.7102  ,5
5362  ,1.626e+09   ,2.4  ,-1.5131  ,5
5368  ,9.136e+09   ,2.4  ,1.8375  ,5
5371  ,3.900e+10   ,2.4325  ,2.4888  ,4.6656
5372  ,2.611e+10   ,2.3333  ,2.5  ,4.6998
5376  ,3.426e+10   ,2.4707  ,2.4707  ,4.6331
5377  ,2.048e+10   ,2.5  ,2.4  ,4.5345
5379  ,5.106e+08   ,-1.5  ,-2.5  ,4.9
5406  ,2.038e+09   ,-2.5  ,-2.4  ,3.4
5420  ,1.806e+08   ,-2.3  ,-2.5  ,3.2226
5423  ,2.288e+09   ,1.5  ,-2.4  ,0
5502  ,3.817e+08   ,-2.5  ,-2.3  ,0.1
5504  ,3.925e+08   ,-2.5  ,-2.4  ,0.2
5506  ,3.233e+08   ,-2.4  ,-2.3  ,0
5511  ,6.426e+08   ,-2.5  ,-2.1  ,0.1
5513  ,1.778e+09   ,-2.4  ,0.5  ,0
5517  ,6.505e+08   ,-0.9  ,-2.5  ,0.1
5532  ,2.307e+08   ,-2.4707  ,2.4707  ,4.9
5534  ,8.502e+08   ,2.4  ,-0.7  ,0
5551  ,2.838e+09   ,2.5  ,-2.4  ,3.8
5566  ,1.861e+09   ,2.5  ,2.4  ,1.3811
5603  ,7.828e+08   ,2.4  ,-0.3  ,0
5617  ,5.965e+08   ,-2.1  ,2.5  ,0.1
5637  ,1.380e+09   ,-2.3  ,-1.9695  ,4.8
5641  ,5.648e+08   ,2.3  ,-2.5  ,3.4636
5645  ,8.221e+08   ,-2.4  ,-2.5  ,2
5649  ,9.161e+08   ,-2.4  ,-2.5  ,2.2
5659  ,6.165e+08   ,-2.3  ,-2.5  ,1.7774
5662  ,3.882e+09   ,2.1765  ,-2.5  ,4.8
5666  ,1.513e+09   ,2.4  ,-2.5  ,4.8
5669  ,2.243e+09   ,2.3  ,-2.3412  ,4.8
5695  ,1.926e+09   ,-2.4  ,0.7  ,0
5701  ,1.189e+09   ,-2.5  ,2.4  ,1.6
5715  ,1.445e+09   ,-2.4  ,2.5  ,1.8
5726  ,1.518e+09   ,-0.7  ,2.5  ,0.1
5727  ,1.171e+09   ,-1.1  ,2.4  ,0
5730  ,1.173e+09   ,2.3  ,-2.5  ,1.7774
5746  ,2.253e+09   ,2.5  ,2.4  ,1.7753
5755  ,6.145e+08   ,2.5  ,-2.4  ,4.4
5763  ,1.216e+09   ,2.4  ,-2.5  ,4.4
5773  ,3.497e+09   ,1.0491  ,2.5  ,4.9
5791  ,2.187e+09   ,-0.72473  ,2.4  ,5
5795  ,9.453e+09   ,1.8375  ,2.4  ,5
5803  ,5.656e+08   ,-0.3  ,-2.4  ,5
5810  ,6.011e+09   ,2.4  ,1.6404  ,5
5836  ,5.125e+08   ,-2.5  ,1.3  ,4.9
5860  ,9.460e+08   ,2.5  ,-2.4  ,1.6
5866  ,7.450e+08   ,1.5  ,-2.5  ,0.1
5884  ,7.349e+08   ,-2.4  ,-0.3  ,5
5888  ,7.985e+08   ,-2.5  ,-0.5  ,4.9
5901  ,1.646e+09   ,2.3  ,-2.5  ,2.5
5908  ,1.445e+09   ,2.5  ,-2.4  ,1.2
5909  ,6.114e+08   ,2.5  ,-2.4  ,2
5934  ,1.266e+09   ,1.9  ,-2.5  ,4.9
5938  ,1.699e+09   ,1.933  ,-2.5  ,4.8
5948  ,8.546e+08   ,-2.4  ,-2.5  ,4.6
5950  ,7.987e+08   ,-2.4707  ,-2.4707  ,4.9
5951  ,7.841e+08   ,-2.5  ,-2.4  ,4.8
5952  ,7.138e+08   ,-2.5  ,-2.3  ,4.9
5986  ,7.744e+08   ,2.3  ,-2.5  ,3.7085
5990  ,2.313e+09   ,-0.92182  ,2.5  ,4.9
6019  ,4.089e+08   ,2.5  ,1.9  ,0.1
6025  ,5.796e+08   ,2.4  ,-1.3  ,0
6035  ,5.608e+08   ,-2.5  ,1.9  ,4.9
6044  ,2.102e+09   ,0.1  ,2.5  ,0.1
6054  ,7.800e+08   ,2.4  ,0.1  ,0
6070  ,1.844e+08   ,-2.4  ,2.3  ,0
6071  ,1.445e+08   ,-2.3  ,2.4  ,0
6076  ,4.840e+08   ,-2.4  ,2.1  ,0
6083  ,6.831e+08   ,2.1  ,-2.4  ,0
6084  ,3.228e+08   ,2.4  ,2.3  ,0
6087  ,3.809e+08   ,2.3  ,2.4  ,0
6092  ,1.916e+08   ,-2.4  ,-2.5  ,0.4
6096  ,2.760e+08   ,-2.3  ,-2.5  ,0.1
6099  ,1.037e+09   ,0.7  ,-2.5  ,0.1
6149  ,8.607e+08   ,-2.4  ,-0.9  ,0
6159  ,6.446e+08   ,-2.5  ,-2.4  ,2.6
6183  ,3.734e+09   ,1.2462  ,2.5  ,4.9
6224  ,2.281e+09   ,2.5  ,-2.4  ,4
6228  ,1.302e+09   ,2.4  ,-2.5  ,3.8
6237  ,1.326e+09   ,2.5  ,0.7  ,0.1
6241  ,2.543e+10   ,2.5  ,2.3333  ,4.6998
6245  ,1.878e+09   ,2.5  ,2.4  ,1.5782
6259  ,1.874e+09   ,2.5  ,-2.1044  ,4.9
6265  ,1.774e+09   ,2.3  ,-1.9804  ,4.8
6267  ,2.080e+09   ,2.5  ,-2.3015  ,4.9
6268  ,1.863e+09   ,2.4707  ,-2.4  ,4.9707
6270  ,1.920e+09   ,2.4  ,-2.1044  ,5
6317  ,2.380e+09   ,-2.3  ,0.2278  ,4.8
6349  ,2.382e+09   ,-0.52764  ,2.4  ,5
6391  ,2.158e+09   ,2.4  ,2.5  ,1.7753
6440  ,1.016e+09   ,-2.5  ,2.4  ,3.8
6471  ,1.534e+09   ,2.5  ,-0.92182  ,4.9
6489  ,3.643e+09   ,2.5  ,1.2462  ,4.9
6523  ,1.084e+09   ,-1.1  ,-2.4  ,0
6528  ,5.343e+08   ,-1.1  ,-2.5  ,0.1
6535  ,9.690e+08   ,-0.9  ,-2.4  ,0
6538  ,2.289e+09   ,1.5  ,-2.4  ,5
6541  ,1.253e+09   ,1.5  ,-2.5  ,4.9
6551  ,1.498e+09   ,2.5  ,-0.72473  ,4.9
6564  ,5.037e+10   ,2.1331  ,2.4973  ,4.923
6565  ,1.701e+10   ,2.0345  ,2.5  ,4.9
6572  ,6.448e+08   ,2.4  ,-1.7  ,0
6581  ,2.796e+09   ,0  ,2.3  ,0.2
6592  ,1.345e+09   ,2.3  ,-1.9695  ,0.2
6594  ,1.422e+09   ,0.3  ,2.4  ,0
6601  ,1.804e+09   ,0.5  ,2.5  ,0.1
6605  ,5.421e+08   ,-2.4  ,-1.3  ,0
6606  ,5.843e+08   ,-2.4  ,-1.1  ,0
6615  ,1.427e+09   ,-2.4  ,-0.3  ,0
6634  ,1.706e+09   ,2.1  ,-2.5  ,4.9
6635  ,2.303e+09   ,2.4  ,-2.4707  ,4.9707
6636  ,2.693e+09   ,2.3  ,-2.4  ,5
6647  ,1.082e+09   ,0.5  ,-2.5  ,0.1
6704  ,1.600e+08   ,-2.4707  ,2.4707  ,0.1
6708  ,1.730e+08   ,-2.5  ,2.4  ,0.2
6712  ,1.001e+09   ,-2.4  ,2.5  ,3.6
6715  ,1.362e+09   ,-2.4  ,2.5  ,3.4
6728  ,1.057e+09   ,-2.5  ,0.7  ,4.9
6753  ,4.201e+08   ,-2.1044  ,2.4  ,5
6788  ,1.199e+10   ,2.5  ,2.4  ,4.3375
6791  ,1.859e+09   ,-1.933  ,-2.5  ,4.8
6795  ,2.665e+10   ,2.1998  ,2.5  ,4.8333
6837  ,4.379e+08   ,-2.3  ,-2.5  ,0.8063
6869  ,1.665e+09   ,2.5  ,-1.7102  ,4.9
6873  ,1.884e+09   ,2.4  ,-1.9073  ,5
6880  ,1.727e+09   ,2.4  ,-0.92182  ,5
6885  ,1.530e+09   ,2.4  ,-0.52764  ,5
6893  ,3.239e+09   ,2.4  ,1.2462  ,5
6914  ,1.736e+09   ,0.7  ,2.5  ,0.1
6920  ,1.495e+09   ,0.9  ,2.4  ,0
6923  ,1.636e+09   ,0.7  ,2.4  ,0
6936  ,1.357e+09   ,2.4  ,-2.5  ,3.4
6939  ,2.906e+08   ,2.3  ,-2.5  ,3.2226
6961  ,7.618e+08   ,-0.1  ,-2.5  ,4.9
6967  ,7.316e+08   ,-2.5  ,-1.5  ,4.9
6975  ,6.561e+08   ,-2.4  ,1.1  ,5
6978  ,1.844e+08   ,-2.4  ,2.5  ,0.2
6987  ,1.647e+09   ,2.4  ,-1.316  ,5
6994  ,7.378e+08   ,2.4  ,-1.5  ,0
7004  ,1.220e+09   ,2.4  ,-2.5  ,3.6
7011  ,2.859e+09   ,2.4  ,0.65491  ,5
7016  ,2.374e+09   ,2.4  ,0.45782  ,5
7019  ,2.515e+09   ,2.5  ,2.4  ,2.1695
7021  ,2.367e+09   ,2.5  ,2.4  ,1.9724
7052  ,1.201e+09   ,-1.3  ,2.5  ,0.1
7054  ,3.188e+08   ,-2.4  ,-2.5  ,0.8
7057  ,1.190e+09   ,0.3  ,-2.5  ,0.1
7065  ,1.239e+09   ,0.24243  ,-2.5  ,0.2
7075  ,3.820e+10   ,2.4888  ,2.4325  ,4.6656
7113  ,1.088e+09   ,-2.4  ,-2.5  ,2.6
7121  ,1.110e+09   ,-2.4  ,-2.5  ,2.8
7126  ,8.747e+08   ,-2.5  ,-2.4  ,2.8
7128  ,2.932e+08   ,-2.4707  ,-2.4707  ,0.1
7129  ,2.756e+08   ,-2.4  ,-2.4707  ,0.029289
7141  ,2.124e+09   ,-1.7  ,-2.4  ,5
7145  ,1.133e+09   ,1.1  ,2.4  ,0
7163  ,9.742e+08   ,-1.7102  ,2.4  ,5
7172  ,1.929e+09   ,2.5  ,-2.4  ,3.2
7174  ,1.181e+09   ,-2.5  ,2.4  ,3.6
7183  ,8.768e+08   ,-1.4531  ,-2.5  ,4.8
7204  ,3.972e+09   ,2.3  ,-0.81068  ,4.8
7220  ,1.988e+09   ,2.5  ,0.063638  ,4.9
7227  ,7.854e+08   ,2.5  ,-1.9  ,0.1
7256  ,4.735e+08   ,-0.1  ,-2.4  ,5
7280  ,2.402e+09   ,-0.33054  ,2.4  ,5
7299  ,1.671e+09   ,2.5  ,-1.1189  ,4.9
7316  ,1.972e+08   ,-2.5  ,-2.4  ,0.8
7323  ,5.064e+08   ,-2.4  ,-2.5  ,1
7396  ,2.980e+09   ,1.1  ,-2.4  ,5
7400  ,1.924e+09   ,-2.5  ,0.7  ,0.1
7409  ,2.818e+09   ,1.3  ,-2.4  ,5
7420  ,4.213e+08   ,2.5  ,2.1  ,0.1
7429  ,5.511e+08   ,2.4  ,1.9  ,0
7436  ,7.042e+08   ,2.5  ,-1.7  ,0.1
7438  ,1.024e+09   ,2.4  ,-2.5  ,2.8
7445  ,3.533e+10   ,2.4325  ,2.1656  ,4.9888
7464  ,5.885e+08   ,2.5  ,-1.5  ,0.1
7480  ,1.104e+09   ,2.5  ,-2.4  ,0.2
7482  ,7.226e+08   ,1.9  ,-2.5  ,0.1
7483  ,7.770e+08   ,1.7  ,-2.5  ,0.1
7486  ,6.950e+08   ,1.9  ,-2.4  ,5
7488  ,5.557e+08   ,1.6937  ,-2.5  ,4.8
7492  ,2.644e+09   ,2.1  ,-2.4  ,5
7495  ,1.216e+09   ,0.1  ,-2.5  ,0.1
7504  ,1.003e+09   ,0.3  ,-2.4  ,0
7507  ,9.221e+08   ,0.9  ,-2.5  ,0.1
7533  ,1.807e+09   ,-2.5  ,0.9  ,0.1
7536  ,9.906e+08   ,-2.4  ,-2.5  ,3.2
7540  ,1.088e+09   ,-2.4  ,-2.5  ,3
7545  ,1.194e+09   ,-2.5  ,-2.4  ,3
7582  ,7.346e+08   ,1.3  ,2.5  ,0.1
7588  ,2.819e+09   ,2.5  ,2.4  ,2.3665
7598  ,6.887e+08   ,-2.5  ,2.4  ,4.2
7607  ,2.101e+09   ,1.5333  ,2.3  ,0.2
7627  ,6.765e+08   ,-2.5  ,1.1  ,4.9
7651  ,7.394e+08   ,2.4  ,-1.9  ,0
7656  ,4.704e+08   ,2.5  ,2.4  ,0.39564
7660  ,1.551e+10   ,2.2299  ,2.3  ,4.7299
7668  ,5.059e+08   ,1.4531  ,-2.5  ,4.8
7676  ,7.667e+08   ,0.1  ,-2.5  ,4.9
7683  ,2.021e+08   ,0.1  ,-2.4  ,5
7686  ,8.950e+08   ,-2.4  ,-1.1  ,5
7702  ,5.861e+08   ,-2.3  ,-2.5  ,4.433
7710  ,7.384e+08   ,-2.3  ,-2.5  ,4.6765
7752  ,2.612e+09   ,0.9  ,-2.4  ,5
7763  ,1.075e+09   ,0.24243  ,-2.5  ,4.8
7767  ,1.642e+09   ,-2.5  ,-2.4  ,3.2
7768  ,6.496e+08   ,-2.4  ,-2.1  ,0
7776  ,1.838e+09   ,-2.4  ,0.9  ,0
7786  ,1.359e+09   ,-0.4838  ,-2.5  ,4.8
7800  ,2.621e+09   ,2.5  ,-2.4  ,4.6
7805  ,6.175e+08   ,-2.5  ,-1.3  ,4.9
7811  ,7.783e+08   ,-2.5  ,-1.1  ,4.9
7820  ,8.349e+08   ,2.5  ,-2.1  ,0.1
7824  ,7.829e+08   ,2.4  ,-2.1  ,0
7828  ,1.320e+09   ,2.4  ,-2.5  ,4.2
7831  ,1.244e+09   ,2.4  ,-2.5  ,4
7838  ,1.253e+09   ,2.5  ,-2.4  ,4.2
7839  ,2.865e+09   ,2.5  ,2.4  ,2.7607
7840  ,3.148e+09   ,2.5  ,2.4  ,2.9578
7863  ,7.073e+08   ,-2.4  ,-1.5  ,0
7890  ,1.095e+09   ,2.4  ,0.9  ,0
7897  ,1.087e+09   ,-2.4  ,-0.7  ,0
7912  ,5.292e+08   ,-1.5  ,-2.4  ,0
7917  ,5.494e+08   ,-1.3  ,-2.5  ,0.1
7931  ,1.463e+09   ,0.5  ,2.4  ,0
7934  ,2.377e+09   ,1.1  ,-2.4  ,0
7937  ,4.124e+08   ,2.4  ,-2.5  ,0.8
7941  ,1.557e+08   ,-2.4  ,-2.5  ,0.6
7969  ,2.435e+08   ,-2.5  ,2.3  ,0.1
7971  ,8.835e+08   ,-2.4  ,1.9  ,0
7972  ,8.630e+08   ,-1.9  ,2.5  ,0.1
7978  ,1.597e+09   ,-2.4  ,1.1  ,0
7996  ,8.747e+08   ,-2.4  ,-0.5  ,5
8000  ,1.332e+08   ,-2.5  ,-2.4  ,0.6
8003  ,4.558e+08   ,-2.5  ,-2.4  ,0.4
8025  ,1.397e+09   ,0.9  ,2.5  ,0.1
8035  ,1.915e+09   ,0.3  ,2.5  ,0.1
8039  ,1.668e+09   ,2.3  ,-2.5  ,0.32348
8041  ,1.063e+09   ,2.3  ,-2.3379  ,0.2
8043  ,7.547e+08   ,2.1765  ,-2.5  ,0.2
8045  ,1.294e+08   ,-0.96359  ,-2.5  ,0.2
8054  ,9.100e+08   ,1.3  ,2.4  ,0
8058  ,9.747e+08   ,1.1  ,2.5  ,0.1
8062  ,1.146e+09   ,-2.5  ,2.4  ,1.4
8067  ,8.838e+08   ,-2.5  ,2.4  ,0.8
8087  ,1.259e+09   ,-2.5  ,1.5  ,0.1
8132  ,2.716e+09   ,-0.13345  ,2.4  ,5
8183  ,8.211e+08   ,2.5  ,-0.9  ,0.1
8184  ,9.614e+08   ,1.6937  ,-2.5  ,0.2
8214  ,6.165e+08   ,-2.4707  ,-2.4  ,4.9707
8217  ,1.705e+09   ,-2.1  ,-2.4  ,5
8219  ,7.998e+08   ,-2.4  ,-2.5  ,4.4
8227  ,3.523e+09   ,2.5  ,2.4  ,3.1549
8242  ,1.297e+09   ,0.7  ,-2.5  ,4.9
8248  ,3.031e+09   ,2.5  ,-2.4  ,3.6
8254  ,7.712e+08   ,2.5  ,-0.3  ,0.1
8256  ,8.265e+08   ,2.5  ,-0.5  ,0.1
8258  ,9.431e+08   ,-0.3  ,-2.5  ,4.9
8263  ,9.772e+08   ,-0.5  ,-2.5  ,4.9
8268  ,7.943e+08   ,-2.3  ,-2.5  ,3.7085
8277  ,1.136e+09   ,-0.1  ,-2.5  ,0.1
8285  ,1.313e+09   ,1.1  ,-2.5  ,4.9
8307  ,1.404e+09   ,0.1  ,2.4  ,0
8308  ,8.190e+08   ,-0.1  ,2.5  ,0.1
8309  ,1.442e+09   ,-0.1  ,2.4  ,0
8313  ,7.229e+08   ,2.5  ,-2.3  ,0.1
8318  ,1.355e+09   ,2.5  ,-2.4  ,3
8338  ,3.449e+09   ,2.5  ,2.4  ,3.352
8339  ,3.502e+09   ,2.4  ,2.5  ,3.1549
8344  ,1.494e+09   ,-2.5  ,2.4  ,3.4
8357  ,3.524e+10   ,2.4888  ,2.1656  ,4.9325
8358  ,2.509e+10   ,2.5  ,2.1998  ,4.8333
8383  ,1.081e+08   ,-1.7  ,-2.4  ,0
8396  ,8.499e+08   ,1.1  ,-2.5  ,0.1
8399  ,4.541e+10   ,2.4526  ,2.1331  ,4.9851
8405  ,1.678e+09   ,2.5  ,-2.4  ,1
8412  ,1.590e+09   ,2.3  ,-2.5  ,0.8063
8417  ,1.506e+09   ,-2.3  ,-2.5  ,2.5
8434  ,5.123e+08   ,0.9636  ,-2.5  ,4.8
8438  ,9.281e+08   ,-0.3  ,-2.5  ,0.1
8452  ,7.487e+08   ,-2.4  ,-0.1  ,5
8468  ,3.959e+09   ,2.5  ,2.4  ,3.7462
8471  ,6.370e+08   ,-1.3  ,-2.5  ,4.9
8493  ,9.070e+08   ,-1.1  ,-2.5  ,4.9
8509  ,7.972e+08   ,-2.5  ,-1.7  ,0.1
8517  ,1.634e+09   ,-2.4  ,2.5  ,3
8531  ,1.105e+09   ,-2.4  ,1.7  ,0
8556  ,3.669e+09   ,2.5  ,2.4  ,3.5491
8573  ,1.914e+09   ,-1.316  ,2.4  ,5
8576  ,1.402e+09   ,-2.4  ,1.3  ,0
8611  ,2.492e+08   ,2.3  ,-2.5  ,1.2915
8618  ,6.268e+08   ,-2.4  ,2.5  ,4
8646  ,1.580e+09   ,-2.5  ,1.1  ,0.1
8656  ,7.570e+08   ,2.5  ,-1.3  ,0.1
8657  ,4.741e+08   ,2.4  ,2.1  ,0
8673  ,1.019e+09   ,-1.3  ,2.4  ,0
8692  ,4.379e+08   ,0.72263  ,-2.5  ,4.8
8696  ,7.618e+08   ,2.3  ,-2.5  ,1.0469
8706  ,2.606e+09   ,2.5  ,0.65491  ,4.9
8721  ,6.181e+08   ,-2.4  ,-2.5  ,1.6
8725  ,3.735e+09   ,0.65491  ,2.4  ,5
8739  ,3.581e+10   ,2.1656  ,2.4325  ,4.9888
8741  ,2.540e+10   ,2.1998  ,2.3333  ,5
8746  ,3.721e+08   ,-2.1  ,-2.4  ,0
8748  ,9.323e+08   ,-2.5  ,-2.4  ,1.2
8752  ,4.781e+10   ,2.1331  ,2.4526  ,4.9851
8759  ,2.761e+08   ,-2.3  ,-2.5  ,1.0469
8787  ,4.768e+08   ,-0.1  ,-2.4  ,0
8793  ,1.522e+09   ,-2.3  ,-2.5  ,2.2576
8795  ,1.026e+09   ,-2.4  ,-2.5  ,2.4
8798  ,1.010e+09   ,-2.3  ,-2.5  ,4.1937
8808  ,1.105e+09   ,-2.3  ,-2.5  ,3.9531
8814  ,1.087e+09   ,-2.4  ,-1.5  ,5
8849  ,6.374e+08   ,0.4838  ,-2.5  ,4.8
8851  ,8.031e+08   ,-2.4  ,-2.5  ,4.2
8868  ,1.084e+09   ,2.4  ,-2.5  ,3
8874  ,3.602e+09   ,0.852  ,2.4  ,5
8883  ,6.788e+08   ,-0.5  ,-2.4  ,5
8886  ,1.117e+09   ,-0.72262  ,-2.5  ,4.8
8893  ,8.037e+08   ,-0.7  ,-2.5  ,4.9
8897  ,2.319e+09   ,-2.5  ,-2.4  ,3.6
8899  ,4.541e+08   ,-2.3  ,-2.5  ,3.4636
8900  ,4.592e+08   ,-2.3  ,-1.4729  ,0.2
8906  ,6.088e+08   ,-2.5  ,-1.3  ,0.1
8910  ,3.856e+09   ,0.852  ,2.5  ,4.9
8925  ,1.256e+09   ,-2.4  ,2.5  ,1.4
8941  ,2.304e+08   ,2.4707  ,2.4  ,0.029289
8942  ,3.671e+08   ,2.5  ,2.3  ,0.1
8945  ,7.556e+08   ,-2.5  ,0.1  ,4.9
8950  ,2.373e+08   ,2.4707  ,2.4707  ,0.1
8951  ,1.997e+08   ,2.4  ,2.4707  ,0.029289
8959  ,1.844e+09   ,2.4  ,0.26073  ,5
8965  ,3.226e+09   ,0.45782  ,2.4  ,5
8978  ,2.738e+09   ,2.4  ,0.852  ,5
8983  ,7.569e+08   ,2.5  ,-1.1  ,0.1
8991  ,6.663e+08   ,-2.5  ,2.4  ,0.6
9008  ,2.729e+09   ,2.5  ,0.852  ,4.9
9011  ,1.271e+09   ,-2.4  ,-0.5  ,0
9025  ,5.030e+08   ,-1.5  ,-2.5  ,0.1
9038  ,9.337e+08   ,2.4  ,-2.5  ,2
9041  ,1.200e+09   ,2.5  ,0.9  ,0.1
9050  ,1.030e+09   ,2.5  ,0.5  ,0.1
9054  ,2.084e+09   ,0.9  ,-2.4  ,0
9060  ,9.323e+08   ,2.4  ,-2.5  ,0.4
9062  ,1.855e+09   ,2.3  ,-2.5  ,0.56701
9064  ,1.896e+09   ,2.5  ,-2.4  ,0.4
9069  ,8.706e+08   ,2.4  ,-2.5  ,0.6
9071  ,1.031e+09   ,1.4531  ,-2.5  ,0.2
9082  ,1.576e+08   ,-2.3  ,-2.5  ,1.2915
9086  ,5.148e+08   ,-2.4  ,-2.5  ,1.4
9091  ,1.012e+09   ,-2.5  ,-2.4  ,1.4
9094  ,1.228e+09   ,1.3  ,-2.5  ,4.9
9097  ,7.781e+08   ,-0.7  ,-2.5  ,0.1
9137  ,8.795e+08   ,-2.5  ,-0.7  ,4.9
9143  ,7.604e+08   ,-2.5  ,-0.1  ,4.9
9146  ,3.653e+08   ,-2.1  ,2.4  ,0
9148  ,5.106e+08   ,-2.5  ,1.7  ,4.9
9173  ,1.460e+09   ,-2.5  ,2.4  ,3
9192  ,6.501e+08   ,-0.7  ,-2.4  ,5
9195  ,1.876e+08   ,0.72263  ,-2.5  ,0.2
9209  ,2.602e+09   ,2.5  ,-2.4  ,3.4
9215  ,4.927e+08   ,0.9636  ,-2.5  ,0.2
9217  ,1.246e+09   ,2.4  ,-2.5  ,3.2
9218  ,7.147e+08   ,-0.96359  ,-2.5  ,4.8
9229  ,1.511e+09   ,-2.4  ,2.5  ,2.8
9248  ,1.670e+09   ,2.3  ,-2.5  ,4.433
9255  ,5.329e+08   ,2.5  ,1.3  ,0.1
9257  ,5.007e+08   ,2.4  ,1.5  ,0
9262  ,1.375e+09   ,0.5  ,-2.4  ,5
9264  ,1.451e+09   ,2.4  ,-0.13345  ,5
9272  ,2.507e+09   ,0.063638  ,2.4  ,5
9277  ,1.087e+09   ,-2.5  ,2.4  ,1.2
9279  ,2.040e+09   ,2.5  ,0.26073  ,4.9
9282  ,6.984e+08   ,1.2085  ,-2.5  ,4.8
9286  ,1.384e+09   ,0.9  ,-2.5  ,4.9
9292  ,2.599e+08   ,-2.4  ,2.4707  ,4.9707
9293  ,2.790e+08   ,-2.3015  ,2.4  ,5
9296  ,7.583e+08   ,-2.4  ,-2.1  ,5
9303  ,8.458e+08   ,-2.4  ,-1.9  ,5
9311  ,3.860e+08   ,-2.4  ,2.3  ,5
9313  ,8.228e+08   ,-2.4  ,0.1  ,5
9319  ,4.479e+08   ,-0.5  ,-2.4  ,0
9328  ,1.612e+08   ,-2.3  ,-2.5  ,1.5364
9334  ,1.913e+08   ,-2.3  ,2.5  ,0.1
9338  ,4.001e+08   ,-2.5  ,-2.4  ,2.4
9339  ,1.382e+09   ,-2.5  ,1.3  ,0.1
9341  ,1.291e+09   ,-2.3  ,-2.5  ,2.7424
9344  ,3.287e+08   ,-2.5  ,-2.4  ,2.2
9358  ,3.734e+09   ,-2.3  ,2.3  ,2.5
9364  ,8.043e+08   ,-2.5  ,-2.1  ,4.9
9367  ,8.077e+08   ,-2.4  ,-2.3  ,5
9374  ,9.098e+08   ,-2.4  ,-1.3  ,5
9378  ,1.358e+09   ,-2.5  ,2.4  ,1.8
9384  ,1.352e+09   ,2.3  ,-2.5  ,2.0162
9385  ,5.491e+08   ,-2.5  ,2.4  ,4.4
9389  ,1.323e+09   ,-2.5  ,2.4  ,2
9395  ,1.965e+09   ,2.4  ,-2.3015  ,5
9396  ,8.435e+08   ,-2.4  ,-1.7  ,0
9407  ,1.725e+09   ,-2.3  ,-1.4729  ,4.8
9411  ,6.073e+08   ,-2.5  ,-1.7  ,4.9
9423  ,8.754e+08   ,-2.4  ,-2.5  ,3.6
9432  ,1.937e+09   ,0.7  ,-2.4  ,5
9438  ,8.736e+08   ,-2.5  ,-0.9  ,4.9
9443  ,7.424e+08   ,-2.5  ,-0.3  ,4.9
9445  ,2.400e+08   ,-2.4707  ,2.4  ,4.9707
9448  ,1.577e+09   ,2.4  ,-1.1189  ,5
9453  ,1.102e+09   ,2.4  ,0.7  ,0
9455  ,2.966e+08   ,2.5  ,-2.4  ,2.6
9457  ,6.129e+08   ,2.3  ,-2.5  ,2.9838
9494  ,1.194e+09   ,-2.4  ,2.5  ,1
9500  ,9.179e+08   ,0.3  ,-2.5  ,4.9
9504  ,8.246e+08   ,0.3  ,-2.4  ,5
9506  ,7.828e+08   ,2.1  ,-2.5  ,0.1
9518  ,1.971e+08   ,-1.9  ,-2.5  ,0.1
9528  ,6.746e+08   ,2.3  ,-2.5  ,0.1
9531  ,8.858e+08   ,2.4707  ,-2.4707  ,0.1
9533  ,5.964e+08   ,2.4707  ,-2.4  ,0.029289
9534  ,7.384e+08   ,2.4  ,-2.4707  ,0.029289
9541  ,1.077e+09   ,0.5  ,-2.5  ,4.9
9544  ,8.361e+08   ,-0.5  ,-2.5  ,0.1
9559  ,6.619e+08   ,-2.5  ,-1.9  ,4.9
9562  ,4.732e+08   ,-2.5  ,2.4  ,4.6
9565  ,1.481e+09   ,-2.4  ,2.5  ,2
9571  ,2.431e+09   ,-2.5  ,-2.4  ,3.8
9574  ,8.690e+08   ,-2.4  ,-2.5  ,3.8
9577  ,7.981e+08   ,1.3  ,-2.5  ,0.1
9582  ,9.043e+08   ,-2.5  ,-0.9  ,0.1
9596  ,5.248e+08   ,2.1  ,2.4  ,0
9598  ,1.635e+09   ,-2.4  ,2.5  ,3.2
9602  ,6.624e+08   ,1.5  ,2.5  ,0.1
9610  ,4.608e+08   ,2.4  ,2.5  ,0.39564
9612  ,2.527e+09   ,-0.72473  ,2.5  ,4.9
9614  ,6.527e+08   ,1.7  ,2.5  ,0.1
9635  ,4.974e+08   ,2.5  ,1.7  ,0.1
9646  ,3.143e+08   ,2.3  ,2.5  ,0.1
9651  ,3.652e+10   ,2.1656  ,2.4888  ,4.9325
9653  ,1.584e+09   ,2.5  ,-1.316  ,4.9
9656  ,7.703e+08   ,-2.4  ,-1.7  ,5
9659  ,3.898e+09   ,2.3  ,-2.5  ,4.6765
9661  ,4.791e+08   ,2.3  ,-2.5  ,3.9531
9664  ,1.042e+09   ,-2.3  ,-2.4  ,5
9666  ,1.055e+09   ,1.9  ,-2.4  ,0
9677  ,8.282e+08   ,2.4  ,0.5  ,0
9678  ,6.505e+08   ,-2.5  ,-1.1  ,0.1
9680  ,1.724e+09   ,2.5  ,2.4  ,1.184
9681  ,3.026e+08   ,2.5  ,2.4  ,0.19855
9696  ,1.165e+09   ,-2.3  ,-2.5  ,2.0162
9698  ,7.259e+08   ,2.4  ,-2.3  ,0
9699  ,1.639e+09   ,-0.24243  ,-2.5  ,0.2
9701  ,8.308e+08   ,0.1  ,-2.4  ,0
9704  ,1.255e+09   ,-0.4838  ,-2.5  ,0.2
9718  ,6.270e+08   ,-0.72262  ,-2.5  ,0.2
9726  ,2.462e+09   ,2.3  ,-0.76628  ,0.2
9727  ,3.821e+08   ,-2.5  ,2.4  ,0.4
9730  ,1.591e+09   ,1.9433E-06  ,-2.5  ,4.8
9731  ,1.696e+09   ,-0.24243  ,-2.5  ,4.8
9732  ,1.339e+09   ,-2.5  ,2.4  ,2.2
9738  ,2.347e+09   ,-2.5  ,-2.4  ,4
9743  ,1.603e+09   ,-1.6937  ,-2.5  ,4.8
9744  ,6.869e+08   ,-2.4  ,-2.5  ,4
9750  ,2.619e+08   ,-1.7  ,-2.5  ,0.1
9752  ,4.861e+08   ,-1.6937  ,-2.5  ,0.2
9754  ,9.406e+08   ,-1.3  ,-2.4  ,0
9759  ,1.654e+08   ,-2.4707  ,2.4  ,0.029289
9760  ,1.450e+08   ,-2.4  ,2.4707  ,0.029289
9768  ,6.729e+08   ,2.3  ,-2.5  ,4.1937
9770  ,1.552e+09   ,1.9433E-06  ,-2.5  ,0.2
9771  ,8.391e+08   ,0.4838  ,-2.5  ,0.2
9772  ,9.658e+08   ,2.4  ,-2.5  ,0.2
9773  ,1.626e+09   ,2.4  ,-2.5  ,4.6
9776  ,1.639e+09   ,2.4  ,0.063638  ,5
9780  ,3.672e+09   ,0.65491  ,2.5  ,4.9
9781  ,2.508e+08   ,2.4  ,2.5  ,0.19855
9782  ,7.923e+08   ,-2.3  ,-2.5  ,2.9838
9786  ,3.019e+08   ,-1.2085  ,-2.5  ,0.2
9787  ,3.200e+08   ,-1.4531  ,-2.5  ,0.2
9790  ,7.825e+08   ,2.3  ,-2.4  ,0
9793  ,1.916e+10   ,2.0345  ,2.4  ,5
9797  ,7.688e+08   ,2.3  ,-2.5  ,1.5364
9798  ,3.037e+09   ,2.4  ,1.0491  ,5
9809  ,3.480e+09   ,2.4  ,2.5  ,3.352
