Date:  12:50, Monday, July 10, 2023
Model name: Hollow_DropBox
Study name: DropTest_300fts(-Default-)
Plot type:  Stress1
Plot step: 6   time : 31.4708 Microseconds
Result Type: von Mises 


Node  ,Value (N/m^2)  ,X (in)  ,Y (in)  ,Z (in)
1  ,1.676e+10   ,2.5  ,2.1331  ,4.9
2  ,2.502e+10   ,2.4577  ,2.1908  ,4.9577
3  ,3.675e+10   ,2.4894  ,2.1331  ,4.9447
4  ,1.656e+10   ,2.1331  ,2.5  ,4.9
5  ,3.648e+10   ,2.1331  ,2.4894  ,4.9447
6  ,2.269e+10   ,2.1908  ,2.4577  ,4.9577
7  ,1.907e+08   ,-2.4  ,2.4  ,5
8  ,1.248e+08   ,-2.4  ,-2.4  ,5
9  ,1.138e+08   ,2.4  ,-2.4  ,5
10  ,1.438e+10   ,2.4  ,2.1331  ,5
11  ,1.626e+10   ,2.1331  ,2.4  ,5
12  ,1.286e+08   ,2.5  ,-2.4  ,4.9
13  ,1.091e+08   ,2.5  ,-2.4  ,0.1
14  ,1.815e+08   ,2.5  ,2.4  ,0.1
15  ,1.726e+10   ,2.5  ,2.4  ,4.6331
16  ,1.853e+08   ,2.4  ,2.5  ,0.1
17  ,1.096e+08   ,-2.4  ,2.5  ,0.1
18  ,1.588e+08   ,-2.4  ,2.5  ,4.9
19  ,1.712e+10   ,2.4  ,2.5  ,4.6331
20  ,1.272e+08   ,-2.5  ,2.4  ,0.1
21  ,1.507e+06   ,-2.5  ,-2.4  ,0.1
22  ,9.025e+07   ,-2.5  ,-2.4  ,4.9
23  ,1.107e+08   ,-2.5  ,2.4  ,4.9
24  ,2.120e+06   ,-2.3  ,-2.5  ,0.2
25  ,2.051e+08   ,-2.3  ,-2.5  ,4.8
26  ,2.289e+08   ,2.3  ,-2.5  ,4.8
27  ,1.835e+08   ,2.3  ,-2.5  ,0.2
28  ,1.561e+08   ,-2.4  ,-2.5  ,4.9
29  ,1.251e+08   ,2.4  ,-2.5  ,4.9
30  ,2.249e+06   ,-2.4  ,-2.5  ,0.1
31  ,1.244e+08   ,2.4  ,-2.5  ,0.1
32  ,7.532e+07   ,2.4  ,-2.4  ,0
33  ,1.702e+08   ,2.4  ,2.4  ,0
34  ,1.397e+06   ,-2.4  ,-2.4  ,0
35  ,1.287e+08   ,-2.4  ,2.4  ,0
36  ,3.013e+10   ,2.4577  ,2.4577  ,4.6908
37  ,2.114e+08   ,-2.3  ,2.3  ,4.8
38  ,1.188e+10   ,2.1599  ,2.3  ,4.8
39  ,1.175e+10   ,2.3  ,2.1599  ,4.8
40  ,1.202e+10   ,2.3  ,2.3  ,4.6599
41  ,2.100e+08   ,2.3  ,2.3  ,0.2
42  ,2.306e+08   ,-2.3  ,2.3  ,0.2
43  ,2.136e+08   ,-2.4  ,2.2  ,5
44  ,3.147e+08   ,-2.4  ,2  ,5
45  ,2.544e+08   ,-2.4  ,1.8  ,5
46  ,2.501e+08   ,-2.4  ,1.6  ,5
47  ,2.440e+08   ,-2.4  ,1.4  ,5
48  ,2.869e+08   ,-2.4  ,1.2  ,5
49  ,2.989e+08   ,-2.4  ,1  ,5
50  ,4.307e+08   ,-2.4  ,0.8  ,5
51  ,3.649e+08   ,-2.4  ,0.6  ,5
52  ,2.981e+08   ,-2.4  ,0.4  ,5
53  ,2.858e+08   ,-2.4  ,0.2  ,5
54  ,2.129e+08   ,-2.4  ,5.8879E-16  ,5
55  ,2.141e+08   ,-2.4  ,-0.2  ,5
56  ,2.798e+08   ,-2.4  ,-0.4  ,5
57  ,3.654e+08   ,-2.4  ,-0.6  ,5
58  ,4.000e+08   ,-2.4  ,-0.8  ,5
59  ,4.009e+08   ,-2.4  ,-1  ,5
60  ,3.077e+08   ,-2.4  ,-1.2  ,5
61  ,2.415e+08   ,-2.4  ,-1.4  ,5
62  ,2.002e+08   ,-2.4  ,-1.6  ,5
63  ,2.345e+08   ,-2.4  ,-1.8  ,5
64  ,2.547e+08   ,-2.4  ,-2  ,5
65  ,2.153e+08   ,-2.4  ,-2.2  ,5
66  ,1.217e+08   ,-2.2  ,-2.4  ,5
67  ,2.448e+08   ,-2  ,-2.4  ,5
68  ,3.395e+08   ,-1.8  ,-2.4  ,5
69  ,3.590e+08   ,-1.6  ,-2.4  ,5
70  ,3.963e+08   ,-1.4  ,-2.4  ,5
71  ,4.108e+08   ,-1.2  ,-2.4  ,5
72  ,3.864e+08   ,-1  ,-2.4  ,5
73  ,3.730e+08   ,-0.8  ,-2.4  ,5
74  ,3.258e+08   ,-0.6  ,-2.4  ,5
75  ,2.619e+08   ,-0.4  ,-2.4  ,5
76  ,1.665e+08   ,-0.2  ,-2.4  ,5
77  ,1.907e+08   ,-5.8879E-16  ,-2.4  ,5
78  ,2.833e+08   ,0.2  ,-2.4  ,5
79  ,3.504e+08   ,0.4  ,-2.4  ,5
80  ,3.926e+08   ,0.6  ,-2.4  ,5
81  ,4.095e+08   ,0.8  ,-2.4  ,5
82  ,3.420e+08   ,1  ,-2.4  ,5
83  ,2.744e+08   ,1.2  ,-2.4  ,5
84  ,2.220e+08   ,1.4  ,-2.4  ,5
85  ,3.538e+08   ,1.6  ,-2.4  ,5
86  ,4.048e+08   ,1.8  ,-2.4  ,5
87  ,2.845e+08   ,2  ,-2.4  ,5
88  ,7.191e+07   ,2.2  ,-2.4  ,5
89  ,1.541e+08   ,2.4  ,-2.2029  ,5
90  ,1.952e+08   ,2.4  ,-2.0058  ,5
91  ,1.563e+08   ,2.4  ,-1.8087  ,5
92  ,2.969e+08   ,2.4  ,-1.6116  ,5
93  ,4.435e+08   ,2.4  ,-1.4145  ,5
94  ,6.216e+08   ,2.4  ,-1.2175  ,5
95  ,2.863e+08   ,2.4  ,-1.0204  ,5
96  ,3.347e+08   ,2.4  ,-0.82327  ,5
97  ,5.557e+08   ,2.4  ,-0.62618  ,5
98  ,9.351e+08   ,2.4  ,-0.42909  ,5
99  ,7.685e+08   ,2.4  ,-0.232  ,5
100  ,7.347e+08   ,2.4  ,-0.034907  ,5
101  ,9.452e+08   ,2.4  ,0.16218  ,5
102  ,1.294e+09   ,2.4  ,0.35927  ,5
103  ,2.013e+09   ,2.4  ,0.55637  ,5
104  ,2.590e+09   ,2.4  ,0.75346  ,5
105  ,2.171e+09   ,2.4  ,0.95055  ,5
106  ,2.026e+09   ,2.4  ,1.1476  ,5
107  ,2.848e+09   ,2.4  ,1.3447  ,5
108  ,4.037e+09   ,2.4  ,1.5418  ,5
109  ,5.330e+09   ,2.4  ,1.7389  ,5
110  ,9.543e+09   ,2.4  ,1.936  ,5
111  ,1.275e+10   ,2.2665  ,2.2665  ,5
112  ,9.606e+09   ,1.936  ,2.4  ,5
113  ,4.894e+09   ,1.7389  ,2.4  ,5
114  ,3.718e+09   ,1.5418  ,2.4  ,5
115  ,2.584e+09   ,1.3447  ,2.4  ,5
116  ,1.907e+09   ,1.1476  ,2.4  ,5
117  ,1.857e+09   ,0.95055  ,2.4  ,5
118  ,2.731e+09   ,0.75346  ,2.4  ,5
119  ,2.274e+09   ,0.55637  ,2.4  ,5
120  ,1.682e+09   ,0.35927  ,2.4  ,5
121  ,1.334e+09   ,0.16218  ,2.4  ,5
122  ,1.105e+09   ,-0.034907  ,2.4  ,5
123  ,1.055e+09   ,-0.232  ,2.4  ,5
124  ,5.428e+08   ,-0.42909  ,2.4  ,5
125  ,3.743e+08   ,-0.62618  ,2.4  ,5
126  ,2.031e+08   ,-0.82327  ,2.4  ,5
127  ,1.206e+08   ,-1.0204  ,2.4  ,5
128  ,1.396e+08   ,-1.2175  ,2.4  ,5
129  ,1.342e+08   ,-1.4145  ,2.4  ,5
130  ,3.024e+08   ,-1.6116  ,2.4  ,5
131  ,3.448e+08   ,-1.8087  ,2.4  ,5
132  ,3.640e+08   ,-2.0058  ,2.4  ,5
133  ,3.341e+08   ,-2.2029  ,2.4  ,5
294  ,1.437e+08   ,2.5  ,-2.2029  ,4.9
295  ,2.043e+08   ,2.5  ,-2.0058  ,4.9
296  ,1.332e+08   ,2.5  ,-1.8087  ,4.9
297  ,2.381e+08   ,2.5  ,-1.6116  ,4.9
298  ,5.579e+08   ,2.5  ,-1.4145  ,4.9
299  ,5.564e+08   ,2.5  ,-1.2175  ,4.9
300  ,2.232e+08   ,2.5  ,-1.0204  ,4.9
301  ,2.814e+08   ,2.5  ,-0.82327  ,4.9
302  ,5.824e+08   ,2.5  ,-0.62618  ,4.9
303  ,8.682e+08   ,2.5  ,-0.42909  ,4.9
304  ,8.122e+08   ,2.5  ,-0.232  ,4.9
305  ,8.466e+08   ,2.5  ,-0.034907  ,4.9
306  ,1.134e+09   ,2.5  ,0.16218  ,4.9
307  ,1.290e+09   ,2.5  ,0.35927  ,4.9
308  ,1.918e+09   ,2.5  ,0.55637  ,4.9
309  ,2.494e+09   ,2.5  ,0.75346  ,4.9
310  ,2.278e+09   ,2.5  ,0.95055  ,4.9
311  ,2.505e+09   ,2.5  ,1.1476  ,4.9
312  ,2.949e+09   ,2.5  ,1.3447  ,4.9
313  ,4.125e+09   ,2.5  ,1.5418  ,4.9
314  ,6.602e+09   ,2.5  ,1.7389  ,4.9
315  ,1.056e+10   ,2.5  ,1.936  ,4.9
316  ,1.006e+08   ,2.5  ,-2.4  ,4.7
317  ,2.963e+08   ,2.5  ,-2.4  ,4.5
318  ,3.728e+08   ,2.5  ,-2.4  ,4.3
319  ,2.644e+08   ,2.5  ,-2.4  ,4.1
320  ,2.185e+08   ,2.5  ,-2.4  ,3.9
321  ,3.441e+08   ,2.5  ,-2.4  ,3.7
322  ,4.115e+08   ,2.5  ,-2.4  ,3.5
323  ,3.839e+08   ,2.5  ,-2.4  ,3.3
324  ,3.150e+08   ,2.5  ,-2.4  ,3.1
325  ,2.783e+08   ,2.5  ,-2.4  ,2.9
326  ,2.151e+08   ,2.5  ,-2.4  ,2.7
327  ,1.501e+08   ,2.5  ,-2.4  ,2.5
328  ,1.418e+08   ,2.5  ,-2.4  ,2.3
329  ,2.151e+08   ,2.5  ,-2.4  ,2.1
330  ,2.708e+08   ,2.5  ,-2.4  ,1.9
331  ,3.270e+08   ,2.5  ,-2.4  ,1.7
332  ,3.584e+08   ,2.5  ,-2.4  ,1.5
333  ,4.139e+08   ,2.5  ,-2.4  ,1.3
334  ,3.973e+08   ,2.5  ,-2.4  ,1.1
335  ,3.490e+08   ,2.5  ,-2.4  ,0.9
336  ,2.866e+08   ,2.5  ,-2.4  ,0.7
337  ,2.079e+08   ,2.5  ,-2.4  ,0.5
338  ,1.418e+08   ,2.5  ,-2.4  ,0.3
339  ,1.848e+08   ,2.5  ,-2.2  ,0.1
340  ,2.112e+08   ,2.5  ,-2  ,0.1
341  ,2.129e+08   ,2.5  ,-1.8  ,0.1
342  ,2.087e+08   ,2.5  ,-1.6  ,0.1
343  ,2.246e+08   ,2.5  ,-1.4  ,0.1
344  ,3.219e+08   ,2.5  ,-1.2  ,0.1
345  ,4.006e+08   ,2.5  ,-1  ,0.1
346  ,3.888e+08   ,2.5  ,-0.8  ,0.1
347  ,3.234e+08   ,2.5  ,-0.6  ,0.1
348  ,2.174e+08   ,2.5  ,-0.4  ,0.1
349  ,1.722e+08   ,2.5  ,-0.2  ,0.1
350  ,2.044e+08   ,2.5  ,-1.7664E-15  ,0.1
351  ,2.389e+08   ,2.5  ,0.2  ,0.1
352  ,3.982e+08   ,2.5  ,0.4  ,0.1
353  ,3.905e+08   ,2.5  ,0.6  ,0.1
354  ,4.227e+08   ,2.5  ,0.8  ,0.1
355  ,3.440e+08   ,2.5  ,1  ,0.1
356  ,2.841e+08   ,2.5  ,1.2  ,0.1
357  ,2.618e+08   ,2.5  ,1.4  ,0.1
358  ,2.850e+08   ,2.5  ,1.6  ,0.1
359  ,1.990e+08   ,2.5  ,1.8  ,0.1
360  ,2.131e+08   ,2.5  ,2  ,0.1
361  ,2.873e+08   ,2.5  ,2.2  ,0.1
362  ,1.013e+10   ,2.5  ,2.4  ,4.436
363  ,6.000e+09   ,2.5  ,2.4  ,4.2389
364  ,3.414e+09   ,2.5  ,2.4  ,4.0418
365  ,2.820e+09   ,2.5  ,2.4  ,3.8447
366  ,1.973e+09   ,2.5  ,2.4  ,3.6476
367  ,2.192e+09   ,2.5  ,2.4  ,3.4505
368  ,2.714e+09   ,2.5  ,2.4  ,3.2535
369  ,2.301e+09   ,2.5  ,2.4  ,3.0564
370  ,1.610e+09   ,2.5  ,2.4  ,2.8593
371  ,1.169e+09   ,2.5  ,2.4  ,2.6622
372  ,1.026e+09   ,2.5  ,2.4  ,2.4651
373  ,7.449e+08   ,2.5  ,2.4  ,2.268
374  ,6.161e+08   ,2.5  ,2.4  ,2.0709
375  ,4.150e+08   ,2.5  ,2.4  ,1.8738
376  ,4.069e+08   ,2.5  ,2.4  ,1.6767
377  ,1.817e+08   ,2.5  ,2.4  ,1.4796
378  ,1.712e+08   ,2.5  ,2.4  ,1.2825
379  ,2.801e+08   ,2.5  ,2.4  ,1.0855
380  ,4.335e+08   ,2.5  ,2.4  ,0.88836
381  ,5.369e+08   ,2.5  ,2.4  ,0.69127
382  ,5.086e+08   ,2.5  ,2.4  ,0.49418
383  ,3.111e+08   ,2.5  ,2.4  ,0.29709
384  ,1.252e+10   ,2.5  ,2.2665  ,4.7665
544  ,1.984e+08   ,2.2  ,2.5  ,0.1
545  ,1.715e+08   ,2  ,2.5  ,0.1
546  ,1.882e+08   ,1.8  ,2.5  ,0.1
547  ,2.178e+08   ,1.6  ,2.5  ,0.1
548  ,2.222e+08   ,1.4  ,2.5  ,0.1
549  ,2.811e+08   ,1.2  ,2.5  ,0.1
550  ,2.523e+08   ,1  ,2.5  ,0.1
551  ,3.391e+08   ,0.8  ,2.5  ,0.1
552  ,4.251e+08   ,0.6  ,2.5  ,0.1
553  ,2.571e+08   ,0.4  ,2.5  ,0.1
554  ,2.363e+08   ,0.2  ,2.5  ,0.1
555  ,2.264e+08   ,5.8879E-16  ,2.5  ,0.1
556  ,3.478e+08   ,-0.2  ,2.5  ,0.1
557  ,2.318e+08   ,-0.4  ,2.5  ,0.1
558  ,2.406e+08   ,-0.6  ,2.5  ,0.1
559  ,3.251e+08   ,-0.8  ,2.5  ,0.1
560  ,3.368e+08   ,-1  ,2.5  ,0.1
561  ,3.615e+08   ,-1.2  ,2.5  ,0.1
562  ,3.481e+08   ,-1.4  ,2.5  ,0.1
563  ,3.296e+08   ,-1.6  ,2.5  ,0.1
564  ,2.902e+08   ,-1.8  ,2.5  ,0.1
565  ,2.132e+08   ,-2  ,2.5  ,0.1
566  ,1.223e+08   ,-2.2  ,2.5  ,0.1
567  ,1.340e+08   ,-2.4  ,2.5  ,4.7
568  ,1.546e+08   ,-2.4  ,2.5  ,4.5
569  ,1.618e+08   ,-2.4  ,2.5  ,4.3
570  ,1.799e+08   ,-2.4  ,2.5  ,4.1
571  ,2.221e+08   ,-2.4  ,2.5  ,3.9
572  ,2.890e+08   ,-2.4  ,2.5  ,3.7
573  ,3.315e+08   ,-2.4  ,2.5  ,3.5
574  ,3.357e+08   ,-2.4  ,2.5  ,3.3
575  ,3.607e+08   ,-2.4  ,2.5  ,3.1
576  ,3.357e+08   ,-2.4  ,2.5  ,2.9
577  ,3.023e+08   ,-2.4  ,2.5  ,2.7
578  ,2.984e+08   ,-2.4  ,2.5  ,2.5
579  ,2.406e+08   ,-2.4  ,2.5  ,2.3
580  ,2.282e+08   ,-2.4  ,2.5  ,2.1
581  ,2.691e+08   ,-2.4  ,2.5  ,1.9
582  ,3.784e+08   ,-2.4  ,2.5  ,1.7
583  ,3.324e+08   ,-2.4  ,2.5  ,1.5
584  ,3.361e+08   ,-2.4  ,2.5  ,1.3
585  ,3.120e+08   ,-2.4  ,2.5  ,1.1
586  ,3.022e+08   ,-2.4  ,2.5  ,0.9
587  ,2.846e+08   ,-2.4  ,2.5  ,0.7
588  ,2.236e+08   ,-2.4  ,2.5  ,0.5
589  ,1.514e+08   ,-2.4  ,2.5  ,0.3
590  ,1.046e+10   ,1.936  ,2.5  ,4.9
591  ,4.659e+09   ,1.7389  ,2.5  ,4.9
592  ,3.430e+09   ,1.5418  ,2.5  ,4.9
593  ,2.412e+09   ,1.3447  ,2.5  ,4.9
594  ,1.879e+09   ,1.1476  ,2.5  ,4.9
595  ,2.181e+09   ,0.95055  ,2.5  ,4.9
596  ,2.701e+09   ,0.75346  ,2.5  ,4.9
597  ,2.313e+09   ,0.55637  ,2.5  ,4.9
598  ,1.757e+09   ,0.35927  ,2.5  ,4.9
599  ,1.367e+09   ,0.16218  ,2.5  ,4.9
600  ,1.040e+09   ,-0.034907  ,2.5  ,4.9
601  ,8.707e+08   ,-0.232  ,2.5  ,4.9
602  ,6.944e+08   ,-0.42909  ,2.5  ,4.9
603  ,4.268e+08   ,-0.62618  ,2.5  ,4.9
604  ,1.230e+08   ,-0.82327  ,2.5  ,4.9
605  ,1.201e+08   ,-1.0204  ,2.5  ,4.9
606  ,1.761e+08   ,-1.2175  ,2.5  ,4.9
607  ,1.743e+08   ,-1.4145  ,2.5  ,4.9
608  ,2.791e+08   ,-1.6116  ,2.5  ,4.9
609  ,3.562e+08   ,-1.8087  ,2.5  ,4.9
610  ,3.703e+08   ,-2.0058  ,2.5  ,4.9
611  ,3.613e+08   ,-2.2029  ,2.5  ,4.9
612  ,1.285e+10   ,2.2665  ,2.5  ,4.7665
613  ,9.125e+09   ,2.4  ,2.5  ,4.436
614  ,5.447e+09   ,2.4  ,2.5  ,4.2389
615  ,3.355e+09   ,2.4  ,2.5  ,4.0418
616  ,2.670e+09   ,2.4  ,2.5  ,3.8447
617  ,2.264e+09   ,2.4  ,2.5  ,3.6476
618  ,2.255e+09   ,2.4  ,2.5  ,3.4505
619  ,2.690e+09   ,2.4  ,2.5  ,3.2535
620  ,2.399e+09   ,2.4  ,2.5  ,3.0564
621  ,1.585e+09   ,2.4  ,2.5  ,2.8593
622  ,1.161e+09   ,2.4  ,2.5  ,2.6622
623  ,8.422e+08   ,2.4  ,2.5  ,2.4651
624  ,6.442e+08   ,2.4  ,2.5  ,2.268
625  ,4.990e+08   ,2.4  ,2.5  ,2.0709
626  ,4.943e+08   ,2.4  ,2.5  ,1.8738
627  ,5.061e+08   ,2.4  ,2.5  ,1.6767
628  ,1.387e+08   ,2.4  ,2.5  ,1.4796
629  ,2.113e+08   ,2.4  ,2.5  ,1.2825
630  ,3.092e+08   ,2.4  ,2.5  ,1.0855
631  ,4.510e+08   ,2.4  ,2.5  ,0.88836
632  ,5.507e+08   ,2.4  ,2.5  ,0.69127
633  ,5.368e+08   ,2.4  ,2.5  ,0.49418
634  ,3.233e+08   ,2.4  ,2.5  ,0.29709
796  ,1.361e+08   ,-2.5  ,2.2  ,0.1
797  ,7.764e+07   ,-2.5  ,2  ,0.1
798  ,5.714e+07   ,-2.5  ,1.8  ,0.1
799  ,4.391e+07   ,-2.5  ,1.6  ,0.1
800  ,4.548e+07   ,-2.5  ,1.4  ,0.1
801  ,4.246e+07   ,-2.5  ,1.2  ,0.1
802  ,3.682e+07   ,-2.5  ,1  ,0.1
803  ,2.818e+07   ,-2.5  ,0.8  ,0.1
804  ,1.316e+07   ,-2.5  ,0.6  ,0.1
805  ,1.051e+07   ,-2.5  ,0.4  ,0.1
806  ,7.223e+06   ,-2.5  ,0.2  ,0.1
807  ,9.615e+06   ,-2.5  ,5.8879E-16  ,0.1
808  ,2.003e+07   ,-2.5  ,-0.2  ,0.1
809  ,2.213e+07   ,-2.5  ,-0.4  ,0.1
810  ,3.732e+06   ,-2.5  ,-0.6  ,0.1
811  ,9.618e+06   ,-2.5  ,-0.8  ,0.1
812  ,1.189e+07   ,-2.5  ,-1  ,0.1
813  ,7.254e+06   ,-2.5  ,-1.2  ,0.1
814  ,4.764e+06   ,-2.5  ,-1.4  ,0.1
815  ,4.419e+06   ,-2.5  ,-1.6  ,0.1
816  ,2.449e+06   ,-2.5  ,-1.8  ,0.1
817  ,2.080e+06   ,-2.5  ,-2  ,0.1
818  ,1.711e+06   ,-2.5  ,-2.2  ,0.1
819  ,7.896e+07   ,-2.5  ,-2.4  ,4.7
820  ,7.018e+07   ,-2.5  ,-2.4  ,4.5
821  ,4.552e+07   ,-2.5  ,-2.4  ,4.3
822  ,2.542e+07   ,-2.5  ,-2.4  ,4.1
823  ,1.352e+07   ,-2.5  ,-2.4  ,3.9
824  ,1.612e+07   ,-2.5  ,-2.4  ,3.7
825  ,1.624e+07   ,-2.5  ,-2.4  ,3.5
826  ,1.119e+07   ,-2.5  ,-2.4  ,3.3
827  ,5.041e+06   ,-2.5  ,-2.4  ,3.1
828  ,7.282e+06   ,-2.5  ,-2.4  ,2.9
829  ,6.203e+06   ,-2.5  ,-2.4  ,2.7
830  ,3.988e+06   ,-2.5  ,-2.4  ,2.5
831  ,3.855e+06   ,-2.5  ,-2.4  ,2.3
832  ,3.283e+06   ,-2.5  ,-2.4  ,2.1
833  ,2.123e+06   ,-2.5  ,-2.4  ,1.9
834  ,4.169e+06   ,-2.5  ,-2.4  ,1.7
835  ,5.149e+06   ,-2.5  ,-2.4  ,1.5
836  ,3.586e+06   ,-2.5  ,-2.4  ,1.3
837  ,2.350e+06   ,-2.5  ,-2.4  ,1.1
838  ,1.496e+06   ,-2.5  ,-2.4  ,0.9
839  ,1.562e+06   ,-2.5  ,-2.4  ,0.7
840  ,2.077e+06   ,-2.5  ,-2.4  ,0.5
841  ,1.662e+06   ,-2.5  ,-2.4  ,0.3
842  ,2.315e+08   ,-2.5  ,2.2  ,4.9
843  ,2.412e+08   ,-2.5  ,2  ,4.9
844  ,2.241e+08   ,-2.5  ,1.8  ,4.9
845  ,2.210e+08   ,-2.5  ,1.6  ,4.9
846  ,1.968e+08   ,-2.5  ,1.4  ,4.9
847  ,2.040e+08   ,-2.5  ,1.2  ,4.9
848  ,2.639e+08   ,-2.5  ,1  ,4.9
849  ,3.706e+08   ,-2.5  ,0.8  ,4.9
850  ,2.516e+08   ,-2.5  ,0.6  ,4.9
851  ,2.287e+08   ,-2.5  ,0.4  ,4.9
852  ,2.504e+08   ,-2.5  ,0.2  ,4.9
853  ,2.332e+08   ,-2.5  ,5.8879E-16  ,4.9
854  ,2.139e+08   ,-2.5  ,-0.2  ,4.9
855  ,2.335e+08   ,-2.5  ,-0.4  ,4.9
856  ,2.754e+08   ,-2.5  ,-0.6  ,4.9
857  ,3.207e+08   ,-2.5  ,-0.8  ,4.9
858  ,3.583e+08   ,-2.5  ,-1  ,4.9
859  ,3.454e+08   ,-2.5  ,-1.2  ,4.9
860  ,2.591e+08   ,-2.5  ,-1.4  ,4.9
861  ,2.043e+08   ,-2.5  ,-1.6  ,4.9
862  ,2.273e+08   ,-2.5  ,-1.8  ,4.9
863  ,2.067e+08   ,-2.5  ,-2  ,4.9
864  ,1.678e+08   ,-2.5  ,-2.2  ,4.9
865  ,1.765e+08   ,-2.5  ,2.4  ,4.7
866  ,2.902e+08   ,-2.5  ,2.4  ,4.5
867  ,3.432e+08   ,-2.5  ,2.4  ,4.3
868  ,2.410e+08   ,-2.5  ,2.4  ,4.1
869  ,3.641e+08   ,-2.5  ,2.4  ,3.9
870  ,3.431e+08   ,-2.5  ,2.4  ,3.7
871  ,3.194e+08   ,-2.5  ,2.4  ,3.5
872  ,3.257e+08   ,-2.5  ,2.4  ,3.3
873  ,3.009e+08   ,-2.5  ,2.4  ,3.1
874  ,3.795e+08   ,-2.5  ,2.4  ,2.9
875  ,2.824e+08   ,-2.5  ,2.4  ,2.7
876  ,2.377e+08   ,-2.5  ,2.4  ,2.5
877  ,1.619e+08   ,-2.5  ,2.4  ,2.3
878  ,1.529e+08   ,-2.5  ,2.4  ,2.1
879  ,2.325e+08   ,-2.5  ,2.4  ,1.9
880  ,3.501e+08   ,-2.5  ,2.4  ,1.7
881  ,3.207e+08   ,-2.5  ,2.4  ,1.5
882  ,2.850e+08   ,-2.5  ,2.4  ,1.3
883  ,2.845e+08   ,-2.5  ,2.4  ,1.1
884  ,2.735e+08   ,-2.5  ,2.4  ,0.9
885  ,2.557e+08   ,-2.5  ,2.4  ,0.7
886  ,2.132e+08   ,-2.5  ,2.4  ,0.5
887  ,1.780e+08   ,-2.5  ,2.4  ,0.3
1044  ,2.820e+06   ,-2.3  ,-2.5  ,0.44697
1045  ,1.329e+06   ,-2.3  ,-2.5  ,0.68705
1046  ,2.439e+06   ,-2.3  ,-2.5  ,0.92554
1047  ,2.647e+06   ,-2.3  ,-2.5  ,1.1682
1048  ,1.622e+06   ,-2.3  ,-2.5  ,1.4148
1049  ,2.218e+06   ,-2.3  ,-2.5  ,1.6581
1050  ,1.688e+06   ,-2.3  ,-2.5  ,1.8967
1051  ,5.064e+06   ,-2.3  ,-2.5  ,2.1357
1052  ,7.168e+06   ,-2.3  ,-2.5  ,2.3794
1053  ,6.050e+06   ,-2.3  ,-2.5  ,2.6206
1054  ,7.560e+06   ,-2.3  ,-2.5  ,2.8643
1055  ,1.134e+07   ,-2.3  ,-2.5  ,3.1033
1056  ,1.123e+07   ,-2.3  ,-2.5  ,3.342
1057  ,1.493e+07   ,-2.3  ,-2.5  ,3.5852
1058  ,2.122e+07   ,-2.3  ,-2.5  ,3.8318
1059  ,1.997e+07   ,-2.3  ,-2.5  ,4.0745
1060  ,7.904e+06   ,-2.3  ,-2.5  ,4.3129
1061  ,6.385e+07   ,-2.3  ,-2.5  ,4.553
1062  ,2.493e+08   ,-2.053  ,-2.5  ,4.8
1063  ,2.778e+08   ,-1.8129  ,-2.5  ,4.8
1064  ,3.319e+08   ,-1.5745  ,-2.5  ,4.8
1065  ,3.200e+08   ,-1.3318  ,-2.5  ,4.8
1066  ,2.620e+08   ,-1.0852  ,-2.5  ,4.8
1067  ,2.933e+08   ,-0.84195  ,-2.5  ,4.8
1068  ,2.835e+08   ,-0.60329  ,-2.5  ,4.8
1069  ,2.346e+08   ,-0.3643  ,-2.5  ,4.8
1070  ,1.910e+08   ,-0.12055  ,-2.5  ,4.8
1071  ,1.427e+08   ,0.12056  ,-2.5  ,4.8
1072  ,1.461e+08   ,0.3643  ,-2.5  ,4.8
1073  ,2.274e+08   ,0.6033  ,-2.5  ,4.8
1074  ,2.764e+08   ,0.84195  ,-2.5  ,4.8
1075  ,3.845e+08   ,1.0852  ,-2.5  ,4.8
1076  ,4.719e+08   ,1.3318  ,-2.5  ,4.8
1077  ,3.256e+08   ,1.5745  ,-2.5  ,4.8
1078  ,2.100e+08   ,1.8129  ,-2.5  ,4.8
1079  ,1.906e+08   ,2.053  ,-2.5  ,4.8
1080  ,1.752e+08   ,2.3  ,-2.5  ,4.553
1081  ,1.703e+08   ,2.3  ,-2.5  ,4.3129
1082  ,3.395e+08   ,2.3  ,-2.5  ,4.0745
1083  ,4.492e+08   ,2.3  ,-2.5  ,3.8318
1084  ,3.293e+08   ,2.3  ,-2.5  ,3.5852
1085  ,2.131e+08   ,2.3  ,-2.5  ,3.3419
1086  ,1.864e+08   ,2.3  ,-2.5  ,3.1033
1087  ,1.173e+08   ,2.3  ,-2.5  ,2.8643
1088  ,1.192e+08   ,2.3  ,-2.5  ,2.6206
1089  ,1.421e+08   ,2.3  ,-2.5  ,2.3794
1090  ,1.872e+08   ,2.3  ,-2.5  ,2.1357
1091  ,2.656e+08   ,2.3  ,-2.5  ,1.8967
1092  ,2.788e+08   ,2.3  ,-2.5  ,1.658
1093  ,2.489e+08   ,2.3  ,-2.5  ,1.4148
1094  ,3.154e+08   ,2.3  ,-2.5  ,1.1682
1095  ,3.518e+08   ,2.3  ,-2.5  ,0.92554
1096  ,3.048e+08   ,2.3  ,-2.5  ,0.68705
1097  ,2.304e+08   ,2.3  ,-2.5  ,0.44697
1098  ,3.143e+06   ,-2.053  ,-2.5  ,0.2
1099  ,1.334e+06   ,-1.8129  ,-2.5  ,0.2
1100  ,4.429e+06   ,-1.5745  ,-2.5  ,0.2
1101  ,4.330e+06   ,-1.3318  ,-2.5  ,0.2
1102  ,3.055e+06   ,-1.0852  ,-2.5  ,0.2
1103  ,4.320e+06   ,-0.84195  ,-2.5  ,0.2
1104  ,2.623e+06   ,-0.60329  ,-2.5  ,0.2
1105  ,2.189e+06   ,-0.3643  ,-2.5  ,0.2
1106  ,3.939e+06   ,-0.12055  ,-2.5  ,0.2
1107  ,5.242e+06   ,0.12056  ,-2.5  ,0.2
1108  ,7.000e+06   ,0.3643  ,-2.5  ,0.2
1109  ,1.284e+07   ,0.6033  ,-2.5  ,0.2
1110  ,1.689e+07   ,0.84195  ,-2.5  ,0.2
1111  ,1.347e+07   ,1.0852  ,-2.5  ,0.2
1112  ,2.333e+07   ,1.3318  ,-2.5  ,0.2
1113  ,2.816e+07   ,1.5745  ,-2.5  ,0.2
1114  ,1.257e+07   ,1.8129  ,-2.5  ,0.2
1115  ,3.535e+07   ,2.053  ,-2.5  ,0.2
1116  ,1.258e+08   ,-2.2  ,-2.5  ,4.9
1117  ,2.671e+08   ,-2  ,-2.5  ,4.9
1118  ,3.035e+08   ,-1.8  ,-2.5  ,4.9
1119  ,3.391e+08   ,-1.6  ,-2.5  ,4.9
1120  ,3.786e+08   ,-1.4  ,-2.5  ,4.9
1121  ,3.691e+08   ,-1.2  ,-2.5  ,4.9
1122  ,3.477e+08   ,-1  ,-2.5  ,4.9
1123  ,3.513e+08   ,-0.8  ,-2.5  ,4.9
1124  ,2.732e+08   ,-0.6  ,-2.5  ,4.9
1125  ,2.231e+08   ,-0.4  ,-2.5  ,4.9
1126  ,1.787e+08   ,-0.2  ,-2.5  ,4.9
1127  ,1.804e+08   ,-1.7664E-15  ,-2.5  ,4.9
1128  ,2.102e+08   ,0.2  ,-2.5  ,4.9
1129  ,2.544e+08   ,0.4  ,-2.5  ,4.9
1130  ,2.606e+08   ,0.6  ,-2.5  ,4.9
1131  ,3.025e+08   ,0.8  ,-2.5  ,4.9
1132  ,3.340e+08   ,1  ,-2.5  ,4.9
1133  ,3.362e+08   ,1.2  ,-2.5  ,4.9
1134  ,3.401e+08   ,1.4  ,-2.5  ,4.9
1135  ,3.429e+08   ,1.6  ,-2.5  ,4.9
1136  ,3.176e+08   ,1.8  ,-2.5  ,4.9
1137  ,2.778e+08   ,2  ,-2.5  ,4.9
1138  ,1.297e+08   ,2.2  ,-2.5  ,4.9
1139  ,8.242e+07   ,-2.4  ,-2.5  ,4.7
1140  ,3.227e+07   ,-2.4  ,-2.5  ,4.5
1141  ,2.718e+07   ,-2.4  ,-2.5  ,4.3
1142  ,2.368e+07   ,-2.4  ,-2.5  ,4.1
1143  ,1.968e+07   ,-2.4  ,-2.5  ,3.9
1144  ,1.818e+07   ,-2.4  ,-2.5  ,3.7
1145  ,1.409e+07   ,-2.4  ,-2.5  ,3.5
1146  ,9.638e+06   ,-2.4  ,-2.5  ,3.3
1147  ,8.016e+06   ,-2.4  ,-2.5  ,3.1
1148  ,7.766e+06   ,-2.4  ,-2.5  ,2.9
1149  ,5.764e+06   ,-2.4  ,-2.5  ,2.7
1150  ,5.451e+06   ,-2.4  ,-2.5  ,2.5
1151  ,5.576e+06   ,-2.4  ,-2.5  ,2.3
1152  ,4.437e+06   ,-2.4  ,-2.5  ,2.1
1153  ,2.135e+06   ,-2.4  ,-2.5  ,1.9
1154  ,2.334e+06   ,-2.4  ,-2.5  ,1.7
1155  ,3.221e+06   ,-2.4  ,-2.5  ,1.5
1156  ,2.486e+06   ,-2.4  ,-2.5  ,1.3
1157  ,2.397e+06   ,-2.4  ,-2.5  ,1.1
1158  ,1.498e+06   ,-2.4  ,-2.5  ,0.9
1159  ,7.414e+05   ,-2.4  ,-2.5  ,0.7
1160  ,1.635e+06   ,-2.4  ,-2.5  ,0.5
1161  ,3.084e+06   ,-2.4  ,-2.5  ,0.3
1162  ,1.641e+06   ,-2.2  ,-2.5  ,0.1
1163  ,3.514e+06   ,-2  ,-2.5  ,0.1
1164  ,2.591e+06   ,-1.8  ,-2.5  ,0.1
1165  ,4.051e+06   ,-1.6  ,-2.5  ,0.1
1166  ,3.941e+06   ,-1.4  ,-2.5  ,0.1
1167  ,2.695e+06   ,-1.2  ,-2.5  ,0.1
1168  ,3.770e+06   ,-1  ,-2.5  ,0.1
1169  ,4.301e+06   ,-0.8  ,-2.5  ,0.1
1170  ,2.273e+06   ,-0.6  ,-2.5  ,0.1
1171  ,1.555e+06   ,-0.4  ,-2.5  ,0.1
1172  ,2.271e+06   ,-0.2  ,-2.5  ,0.1
1173  ,4.031e+06   ,-1.7664E-15  ,-2.5  ,0.1
1174  ,4.228e+06   ,0.2  ,-2.5  ,0.1
1175  ,7.658e+06   ,0.4  ,-2.5  ,0.1
1176  ,8.676e+06   ,0.6  ,-2.5  ,0.1
1177  ,1.559e+07   ,0.8  ,-2.5  ,0.1
1178  ,1.724e+07   ,1  ,-2.5  ,0.1
1179  ,1.917e+07   ,1.2  ,-2.5  ,0.1
1180  ,2.476e+07   ,1.4  ,-2.5  ,0.1
1181  ,3.005e+07   ,1.6  ,-2.5  ,0.1
1182  ,2.943e+07   ,1.8  ,-2.5  ,0.1
1183  ,3.428e+07   ,2  ,-2.5  ,0.1
1184  ,7.281e+07   ,2.2  ,-2.5  ,0.1
1185  ,1.294e+08   ,2.4  ,-2.5  ,4.7
1186  ,2.691e+08   ,2.4  ,-2.5  ,4.5
1187  ,2.799e+08   ,2.4  ,-2.5  ,4.3
1188  ,3.065e+08   ,2.4  ,-2.5  ,4.1
1189  ,3.064e+08   ,2.4  ,-2.5  ,3.9
1190  ,3.918e+08   ,2.4  ,-2.5  ,3.7
1191  ,3.324e+08   ,2.4  ,-2.5  ,3.5
1192  ,2.835e+08   ,2.4  ,-2.5  ,3.3
1193  ,2.234e+08   ,2.4  ,-2.5  ,3.1
1194  ,2.136e+08   ,2.4  ,-2.5  ,2.9
1195  ,1.623e+08   ,2.4  ,-2.5  ,2.7
1196  ,1.466e+08   ,2.4  ,-2.5  ,2.5
1197  ,1.470e+08   ,2.4  ,-2.5  ,2.3
1198  ,1.847e+08   ,2.4  ,-2.5  ,2.1
1199  ,2.451e+08   ,2.4  ,-2.5  ,1.9
1200  ,3.213e+08   ,2.4  ,-2.5  ,1.7
1201  ,3.354e+08   ,2.4  ,-2.5  ,1.5
1202  ,3.653e+08   ,2.4  ,-2.5  ,1.3
1203  ,3.626e+08   ,2.4  ,-2.5  ,1.1
1204  ,3.343e+08   ,2.4  ,-2.5  ,0.9
1205  ,2.953e+08   ,2.4  ,-2.5  ,0.7
1206  ,2.200e+08   ,2.4  ,-2.5  ,0.5
1207  ,1.402e+08   ,2.4  ,-2.5  ,0.3
1208  ,1.416e+08   ,2.4  ,-2.2  ,0
1209  ,1.742e+08   ,2.4  ,-2  ,0
1210  ,2.154e+08   ,2.4  ,-1.8  ,0
1211  ,2.111e+08   ,2.4  ,-1.6  ,0
1212  ,2.803e+08   ,2.4  ,-1.4  ,0
1213  ,3.422e+08   ,2.4  ,-1.2  ,0
1214  ,3.541e+08   ,2.4  ,-1  ,0
1215  ,3.222e+08   ,2.4  ,-0.8  ,0
1216  ,2.596e+08   ,2.4  ,-0.6  ,0
1217  ,1.996e+08   ,2.4  ,-0.4  ,0
1218  ,1.753e+08   ,2.4  ,-0.2  ,0
1219  ,1.924e+08   ,2.4  ,-1.7664E-15  ,0
1220  ,2.912e+08   ,2.4  ,0.2  ,0
1221  ,2.954e+08   ,2.4  ,0.4  ,0
1222  ,2.608e+08   ,2.4  ,0.6  ,0
1223  ,3.718e+08   ,2.4  ,0.8  ,0
1224  ,2.860e+08   ,2.4  ,1  ,0
1225  ,2.570e+08   ,2.4  ,1.2  ,0
1226  ,2.007e+08   ,2.4  ,1.4  ,0
1227  ,2.031e+08   ,2.4  ,1.6  ,0
1228  ,1.800e+08   ,2.4  ,1.8  ,0
1229  ,2.128e+08   ,2.4  ,2  ,0
1230  ,2.617e+08   ,2.4  ,2.2  ,0
1231  ,2.838e+06   ,-2.2  ,-2.4  ,0
1232  ,3.772e+06   ,-2  ,-2.4  ,0
1233  ,2.185e+06   ,-1.8  ,-2.4  ,0
1234  ,3.613e+06   ,-1.6  ,-2.4  ,0
1235  ,3.884e+06   ,-1.4  ,-2.4  ,0
1236  ,3.057e+06   ,-1.2  ,-2.4  ,0
1237  ,4.876e+06   ,-1  ,-2.4  ,0
1238  ,5.023e+06   ,-0.8  ,-2.4  ,0
1239  ,2.544e+06   ,-0.6  ,-2.4  ,0
1240  ,1.268e+06   ,-0.4  ,-2.4  ,0
1241  ,1.824e+06   ,-0.2  ,-2.4  ,0
1242  ,3.225e+06   ,5.8879E-16  ,-2.4  ,0
1243  ,4.844e+06   ,0.2  ,-2.4  ,0
1244  ,6.644e+06   ,0.4  ,-2.4  ,0
1245  ,8.574e+06   ,0.6  ,-2.4  ,0
1246  ,1.575e+07   ,0.8  ,-2.4  ,0
1247  ,1.852e+07   ,1  ,-2.4  ,0
1248  ,1.921e+07   ,1.2  ,-2.4  ,0
1249  ,1.752e+07   ,1.4  ,-2.4  ,0
1250  ,2.592e+07   ,1.6  ,-2.4  ,0
1251  ,4.291e+07   ,1.8  ,-2.4  ,0
1252  ,6.554e+07   ,2  ,-2.4  ,0
1253  ,6.087e+07   ,2.2  ,-2.4  ,0
1254  ,1.319e+08   ,-2.4  ,2.2  ,0
1255  ,7.425e+07   ,-2.4  ,2  ,0
1256  ,5.504e+07   ,-2.4  ,1.8  ,0
1257  ,4.675e+07   ,-2.4  ,1.6  ,0
1258  ,4.327e+07   ,-2.4  ,1.4  ,0
1259  ,3.633e+07   ,-2.4  ,1.2  ,0
1260  ,3.318e+07   ,-2.4  ,1  ,0
1261  ,3.329e+07   ,-2.4  ,0.8  ,0
1262  ,1.659e+07   ,-2.4  ,0.6  ,0
1263  ,6.824e+06   ,-2.4  ,0.4  ,0
1264  ,6.991e+06   ,-2.4  ,0.2  ,0
1265  ,1.015e+07   ,-2.4  ,5.8879E-16  ,0
1266  ,2.155e+07   ,-2.4  ,-0.2  ,0
1267  ,2.860e+07   ,-2.4  ,-0.4  ,0
1268  ,7.278e+06   ,-2.4  ,-0.6  ,0
1269  ,1.427e+07   ,-2.4  ,-0.8  ,0
1270  ,1.376e+07   ,-2.4  ,-1  ,0
1271  ,6.588e+06   ,-2.4  ,-1.2  ,0
1272  ,3.372e+06   ,-2.4  ,-1.4  ,0
1273  ,4.117e+06   ,-2.4  ,-1.6  ,0
1274  ,1.114e+06   ,-2.4  ,-1.8  ,0
1275  ,2.333e+06   ,-2.4  ,-2  ,0
1276  ,3.408e+06   ,-2.4  ,-2.2  ,0
1277  ,1.774e+08   ,2.2  ,2.4  ,0
1278  ,1.949e+08   ,2  ,2.4  ,0
1279  ,2.071e+08   ,1.8  ,2.4  ,0
1280  ,1.940e+08   ,1.6  ,2.4  ,0
1281  ,1.900e+08   ,1.4  ,2.4  ,0
1282  ,2.707e+08   ,1.2  ,2.4  ,0
1283  ,2.798e+08   ,1  ,2.4  ,0
1284  ,2.529e+08   ,0.8  ,2.4  ,0
1285  ,2.128e+08   ,0.6  ,2.4  ,0
1286  ,1.406e+08   ,0.4  ,2.4  ,0
1287  ,1.647e+08   ,0.2  ,2.4  ,0
1288  ,1.852e+08   ,5.8879E-16  ,2.4  ,0
1289  ,2.390e+08   ,-0.2  ,2.4  ,0
1290  ,1.940e+08   ,-0.4  ,2.4  ,0
1291  ,2.262e+08   ,-0.6  ,2.4  ,0
1292  ,2.883e+08   ,-0.8  ,2.4  ,0
1293  ,3.003e+08   ,-1  ,2.4  ,0
1294  ,3.108e+08   ,-1.2  ,2.4  ,0
1295  ,2.870e+08   ,-1.4  ,2.4  ,0
1296  ,2.853e+08   ,-1.6  ,2.4  ,0
1297  ,2.738e+08   ,-1.8  ,2.4  ,0
1298  ,2.112e+08   ,-2  ,2.4  ,0
1299  ,1.460e+08   ,-2.2  ,2.4  ,0
1460  ,1.291e+10   ,2.3243  ,2.3243  ,4.9577
1461  ,1.210e+10   ,2.4577  ,2.3243  ,4.8243
1462  ,9.565e+09   ,2.3243  ,2.4577  ,4.8243
1463  ,2.323e+08   ,-2.3  ,-2.1759  ,4.8
1464  ,3.358e+08   ,-2.3  ,-1.7631  ,4.8
1465  ,4.738e+08   ,-2.3  ,-1.1827  ,4.8
1466  ,3.148e+08   ,-2.3  ,-0.34986  ,4.8
1467  ,4.699e+08   ,-2.3  ,0.80545  ,4.8
1468  ,8.461e+08   ,-0.81337  ,2.3  ,4.8
1469  ,3.055e+09   ,0.67326  ,2.3  ,4.8
1470  ,1.413e+08   ,2.3  ,-2.1824  ,4.8
1471  ,2.448e+08   ,2.3  ,-1.7784  ,4.8
1472  ,6.521e+08   ,2.3  ,-1.2138  ,4.8
1473  ,1.170e+09   ,2.3  ,-0.40752  ,4.8
1474  ,3.093e+09   ,2.3  ,0.70532  ,4.8
1516  ,8.006e+08   ,2.3  ,2.3  ,1.6866
1517  ,3.029e+09   ,2.3  ,2.3  ,3.1733
1518  ,2.126e+08   ,2.3  ,-2.1759  ,0.2
1519  ,3.452e+08   ,2.3  ,-1.7631  ,0.2
1520  ,4.577e+08   ,2.3  ,-1.1827  ,0.2
1521  ,3.025e+08   ,2.3  ,-0.34986  ,0.2
1522  ,4.445e+08   ,2.3  ,0.80545  ,0.2
1564  ,3.665e+08   ,-0.76667  ,2.3  ,0.2
1565  ,4.551e+08   ,0.76667  ,2.3  ,0.2
1566  ,3.577e+08   ,-2.3  ,2.3  ,1.7333
1567  ,4.533e+08   ,-2.3  ,2.3  ,3.2667
1574  ,2.153e+06   ,-2.3  ,-2.1759  ,0.2
1575  ,4.006e+06   ,-2.3  ,-1.7631  ,0.2
1576  ,6.951e+06   ,-2.3  ,-1.1827  ,0.2
1577  ,9.583e+06   ,-2.3  ,-0.34986  ,0.2
1578  ,3.374e+07   ,-2.3  ,0.80545  ,0.2
1777  ,5.656e+08   ,-0.52764  ,2.5  ,4.9
1801  ,1.149e+08   ,-2.3  ,1.5527  ,0.2
1825  ,4.289e+08   ,-1.5333  ,2.3  ,0.2
1841  ,1.202e+09   ,0.063638  ,2.5  ,4.9
1876  ,1.949e+08   ,-0.5  ,2.4  ,0
1894  ,5.083e+08   ,2.3  ,1.5527  ,0.2
1907  ,1.723e+08   ,2.1  ,2.5  ,0.1
1928  ,1.903e+08   ,1.9  ,2.4  ,0
1974  ,2.706e+08   ,2.4  ,1.1  ,0
1981  ,5.668e+08   ,2.4  ,2.5  ,0.59273
1987  ,3.400e+08   ,-2.5  ,2.4  ,4
2004  ,1.424e+08   ,-2.4  ,2.5  ,4.6
2009  ,2.191e+08   ,2.4  ,1.3  ,0
2020  ,3.092e+08   ,2.5  ,1.1  ,0.1
2035  ,8.261e+06   ,-2.3  ,-0.76628  ,0.2
2070  ,4.129e+09   ,1.6404  ,2.4  ,5
2081  ,4.508e+08   ,2.4  ,2.5  ,1.9724
2095  ,5.066e+08   ,2.4  ,2.5  ,0.78982
2138  ,1.744e+07   ,-2.4  ,-0.1  ,0
2146  ,1.851e+08   ,-0.92182  ,2.4  ,5
2174  ,2.313e+08   ,2.4  ,2.5  ,1.184
2190  ,3.259e+08   ,2.5  ,2.4  ,0.98691
2203  ,8.391e+08   ,2.5  ,-0.13345  ,4.9
2232  ,2.381e+09   ,2.3  ,0.1489  ,4.8
2242  ,1.903e+09   ,2.4  ,2.5  ,2.9578
2293  ,1.134e+07   ,-2.5  ,0.5  ,0.1
2311  ,2.532e+09   ,2.3  ,2.3  ,2.4299
2313  ,5.030e+08   ,2.5  ,2.4  ,0.78982
2329  ,5.436e+08   ,2.4  ,2.5  ,2.1695
2355  ,1.625e+08   ,-2.4  ,2.5  ,4.4
2380  ,4.530e+06   ,-2.5  ,-1.5  ,0.1
2383  ,1.965e+09   ,0.45782  ,2.5  ,4.9
2408  ,2.716e+08   ,2.3  ,-1.4961  ,4.8
2445  ,4.103e+08   ,2.5  ,-1.5131  ,4.9
2484  ,5.089e+06   ,-2.5  ,-2.4  ,1.6
2495  ,2.430e+08   ,-2.4  ,1.7  ,5
2508  ,2.904e+08   ,2.4  ,0.3  ,0
2514  ,6.265e+08   ,2.3  ,0.2278  ,0.2
2570  ,2.473e+08   ,-2.4  ,1.5  ,5
2580  ,4.213e+09   ,1.6404  ,2.5  ,4.9
2603  ,1.471e+08   ,-1.1189  ,2.5  ,4.9
2695  ,2.133e+08   ,2.3  ,2.3  ,0.94331
2705  ,1.569e+08   ,2.4  ,2.5  ,1.3811
2714  ,1.594e+09   ,2.5  ,0.45782  ,4.9
2734  ,3.312e+08   ,2.4  ,-0.9  ,0
2775  ,1.753e+08   ,2.5  ,-0.1  ,0.1
2779  ,1.636e+08   ,2.4  ,-0.1  ,0
2801  ,6.135e+09   ,1.4166  ,2.3  ,4.8
2814  ,2.894e+09   ,1.4433  ,2.5  ,4.9
2863  ,2.554e+08   ,-2.4  ,2.5  ,0.6
2884  ,2.867e+08   ,-2.4  ,2.5  ,0.8
2886  ,3.204e+08   ,-2.4  ,2.5  ,1.2
2967  ,1.641e+08   ,2.4  ,1.7  ,0
2973  ,2.736e+08   ,2.5  ,1.5  ,0.1
2987  ,2.842e+08   ,-0.3  ,2.5  ,0.1
3008  ,4.708e+08   ,-2.3  ,2.3  ,0.96667
3012  ,2.566e+08   ,-2.5  ,2.4  ,2.6
3021  ,2.637e+08   ,-2.5  ,2.4  ,2.8
3025  ,1.950e+08   ,-2.5  ,2.4  ,2.4
3030  ,2.751e+08   ,-2.4  ,2.5  ,2.4
3033  ,2.274e+08   ,-2.4  ,2.5  ,2.2
3047  ,7.711e+08   ,2.4  ,2.5  ,2.3665
3052  ,1.081e+09   ,2.5  ,2.4  ,2.5636
3061  ,9.682e+08   ,2.4  ,2.5  ,2.5636
3081  ,2.654e+08   ,-2.4  ,1.3  ,5
3088  ,3.479e+08   ,-1.9073  ,2.4  ,5
3099  ,2.715e+08   ,-2.4  ,1.9  ,5
3107  ,2.574e+08   ,-2.4  ,2.5  ,3.8
3139  ,1.963e+08   ,-1.5131  ,2.4  ,5
3145  ,2.330e+08   ,-1.5131  ,2.5  ,4.9
3148  ,3.197e+08   ,-1.7102  ,2.5  ,4.9
3168  ,4.211e+07   ,-2.4  ,1.5  ,0
3188  ,2.187e+06   ,-2.5  ,-2.4  ,1
3202  ,1.455e+09   ,0.26073  ,2.5  ,4.9
3212  ,4.812e+09   ,2.5  ,1.6404  ,4.9
3247  ,7.946e+09   ,2.5  ,1.8375  ,4.9
3265  ,6.517e+09   ,2.3  ,1.4326  ,4.8
3271  ,1.114e+10   ,2.2299  ,2.2299  ,4.8
3284  ,3.426e+09   ,2.4  ,1.4433  ,5
3291  ,3.206e+09   ,2.5  ,1.4433  ,4.9
3296  ,4.588e+08   ,-2.3  ,-0.76628  ,4.8
3303  ,4.003e+08   ,-2.4  ,-0.9  ,5
3311  ,3.719e+08   ,-2.4  ,-0.7  ,5
3315  ,1.762e+08   ,1.9  ,2.5  ,0.1
3336  ,6.804e+06   ,-2.4  ,0.3  ,0
3340  ,8.024e+06   ,-2.5  ,0.1  ,0.1
3344  ,8.849e+06   ,-2.4  ,0.1  ,0
3356  ,2.027e+08   ,-0.3  ,2.4  ,0
3361  ,7.784e+08   ,-0.33054  ,2.5  ,4.9
3364  ,9.952e+08   ,-0.13345  ,2.5  ,4.9
3383  ,2.217e+09   ,2.4  ,2.5  ,3.5491
3402  ,1.105e+10   ,2.4  ,2.5  ,4.5345
3421  ,1.469e+08   ,-1.316  ,2.5  ,4.9
3439  ,2.750e+09   ,2.5  ,2.4  ,3.9433
3447  ,3.048e+09   ,2.4  ,2.5  ,3.9433
3451  ,2.347e+09   ,2.4  ,2.5  ,3.7462
3468  ,3.021e+09   ,1.4433  ,2.4  ,5
3480  ,1.840e+09   ,1.0491  ,2.4  ,5
3519  ,2.421e+08   ,1.5  ,2.4  ,0
3527  ,4.929e+08   ,2.3  ,-1.4729  ,0.2
3550  ,2.803e+08   ,-1.7  ,2.4  ,0
3554  ,3.178e+08   ,-1.7  ,2.5  ,0.1
3558  ,2.804e+08   ,-1.5  ,2.4  ,0
3562  ,3.411e+08   ,-1.5  ,2.5  ,0.1
3574  ,2.681e+08   ,-2.4  ,2.1  ,5
3581  ,5.308e+07   ,-2.5  ,1.7  ,0.1
3583  ,5.920e+07   ,-2.5  ,1.9  ,0.1
3584  ,3.580e+08   ,-1.9073  ,2.5  ,4.9
3591  ,2.961e+08   ,2.5  ,0.3  ,0.1
3595  ,2.082e+08   ,2.5  ,0.1  ,0.1
3603  ,1.884e+10   ,2.4577  ,2.391  ,4.7576
3663  ,2.689e+06   ,-1.933  ,-2.5  ,0.2
3669  ,1.201e+06   ,-2.1765  ,-2.5  ,0.2
3672  ,2.377e+06   ,-2.3  ,-2.3379  ,0.2
3682  ,3.011e+06   ,-1.9  ,-2.4  ,0
3700  ,7.930e+07   ,2.3  ,-2.5  ,2.7424
3712  ,1.573e+08   ,-2.1  ,-2.5  ,4.9
3715  ,2.917e+08   ,-1.9  ,-2.5  ,4.9
3740  ,4.092e+08   ,-1.3  ,-2.4  ,5
3746  ,2.995e+08   ,-1.2085  ,-2.5  ,4.8
3755  ,3.849e+08   ,-1.5  ,-2.4  ,5
3760  ,3.051e+08   ,-1.7  ,-2.5  ,4.9
3786  ,3.602e+08   ,2.4  ,2.5  ,1.5782
3813  ,1.548e+09   ,0.26073  ,2.4  ,5
3858  ,3.613e+08   ,-0.9  ,-2.4  ,5
3863  ,3.187e+08   ,-2.5  ,0.9  ,4.9
3875  ,3.135e+08   ,-1.9  ,-2.4  ,5
3885  ,4.067e+08   ,2.4  ,-0.72473  ,5
3910  ,1.230e+07   ,-2.4  ,-2.5  ,3.4
3959  ,4.401e+09   ,2.5  ,2.4  ,4.1404
3969  ,2.410e+09   ,2.5  ,1.0491  ,4.9
3992  ,1.757e+10   ,2.391  ,2.2576  ,4.9577
3993  ,1.932e+10   ,2.4577  ,2.2576  ,4.891
4016  ,2.563e+08   ,-2.3015  ,2.5  ,4.9
4018  ,1.253e+08   ,-2.4  ,2.5  ,4.8
4021  ,2.264e+09   ,1.2462  ,2.4  ,5
4042  ,3.483e+08   ,2.4  ,-1.1  ,0
4046  ,2.934e+08   ,-0.9  ,2.4  ,0
4055  ,3.331e+08   ,1.7  ,-2.5  ,4.9
4087  ,1.672e+08   ,1.7  ,2.4  ,0
4114  ,8.894e+08   ,2.5  ,-0.33054  ,4.9
4120  ,3.107e+08   ,2.4  ,-2.5  ,1.8
4125  ,3.709e+08   ,2.4  ,2.5  ,0.98691
4144  ,7.287e+09   ,2.4  ,2.5  ,4.3375
4161  ,3.127e+08   ,-2.4  ,0.3  ,5
4201  ,2.205e+07   ,1.933  ,-2.5  ,0.2
4225  ,1.723e+06   ,-2.3  ,-2.4  ,0
4230  ,2.143e+06   ,-2.3  ,-2.5  ,0.56701
4269  ,3.747e+08   ,-0.9  ,-2.5  ,4.9
4277  ,4.020e+08   ,-1.1  ,-2.4  ,5
4288  ,2.280e+09   ,-0.070055  ,2.3  ,4.8
4328  ,3.453e+07   ,-2.5  ,-2.4  ,4.2
4336  ,5.784e+07   ,-2.5  ,-2.4  ,4.4
4342  ,6.511e+07   ,-2.5  ,-2.4  ,4.6
4348  ,1.166e+08   ,-2.4  ,-2.4707  ,4.9707
4352  ,1.374e+08   ,-2.3  ,-2.5  ,4.9
4354  ,2.660e+08   ,-2.1765  ,-2.5  ,4.8
4355  ,2.419e+08   ,-2.3  ,-2.3379  ,4.8
4362  ,5.436e+08   ,2.5  ,2.4  ,0.59273
4364  ,1.443e+08   ,2.5  ,-2.4  ,2.4
4366  ,1.782e+08   ,2.5  ,-2.4  ,2.2
4372  ,1.740e+08   ,2.4  ,-2.5  ,2.2
4385  ,1.871e+06   ,-2.5  ,-1.9  ,0.1
4399  ,1.021e+08   ,-2.5  ,2.1  ,0.1
4407  ,4.515e+06   ,-0.7  ,-2.4  ,0
4436  ,1.463e+07   ,-2.5  ,-0.1  ,0.1
4462  ,3.673e+08   ,-2.3  ,2.3  ,4.0333
4491  ,7.705e+08   ,2.5  ,-0.52764  ,4.9
4494  ,3.885e+08   ,2.5  ,-2.4  ,1.4
4503  ,3.496e+08   ,2.4  ,-2.5  ,1.4
4508  ,3.840e+08   ,2.4  ,-2.5  ,1.2
4515  ,3.069e+08   ,2.5  ,-2.4  ,1.8
4517  ,3.497e+08   ,2.4  ,-2.5  ,1.6
4522  ,1.009e+07   ,0.7  ,-2.4  ,0
4538  ,1.219e+08   ,-1.1189  ,2.4  ,5
4546  ,4.124e+09   ,2.4  ,2.5  ,4.1404
4559  ,3.347e+07   ,1.7  ,-2.4  ,0
4590  ,6.728e+06   ,0.5  ,-2.4  ,0
4631  ,1.529e+08   ,2.4  ,-2.5  ,2.6
4634  ,2.250e+08   ,2.5  ,-2.4  ,2.8
4657  ,2.320e+06   ,-2.5  ,-2.4  ,2
4660  ,3.444e+06   ,-2.5  ,-2.4  ,1.8
4664  ,9.374e+05   ,-0.3  ,-2.4  ,0
4675  ,1.002e+08   ,-2.4  ,-2.5  ,4.8
4681  ,2.201e+07   ,-2.5  ,-0.3  ,0.1
4684  ,3.833e+08   ,1.7  ,-2.4  ,5
4703  ,4.204e+08   ,-2.4  ,0.7  ,5
4707  ,2.433e+08   ,-2.5  ,0.3  ,4.9
4714  ,8.713e+08   ,2.4  ,-0.33054  ,5
4723  ,2.623e+08   ,-1.5567  ,2.3  ,4.8
4739  ,3.597e+08   ,-2.1044  ,2.5  ,4.9
4763  ,2.390e+08   ,-1.9  ,2.4  ,0
4780  ,3.403e+06   ,-2.3  ,-1.9695  ,0.2
4782  ,1.314e+06   ,-2.4707  ,-2.4  ,0.029289
4784  ,1.153e+06   ,-2.4  ,-1.9  ,0
4791  ,2.278e+06   ,-2.4  ,-2.5  ,1.8
4796  ,1.229e+08   ,2.4707  ,-2.4707  ,4.9
4799  ,7.068e+07   ,2.5  ,-2.4  ,4.8
4806  ,8.105e+07   ,2.3  ,-2.5  ,4.9
4809  ,6.349e+09   ,2.3  ,2.3  ,3.9166
4833  ,1.892e+08   ,-2.4  ,2.5  ,0.4
4841  ,3.078e+08   ,-2.4  ,2.5  ,2.6
4846  ,2.453e+08   ,-2.5  ,2.1  ,4.9
4848  ,1.576e+08   ,-2.5  ,2.3  ,4.9
4849  ,1.291e+08   ,-2.5  ,2.4  ,4.8
4893  ,1.776e+08   ,-2.4  ,2.5  ,4.2
4897  ,1.166e+10   ,2.3333  ,2.1998  ,5
4900  ,1.892e+10   ,2.391  ,2.4577  ,4.7576
4908  ,1.847e+10   ,2.2576  ,2.391  ,4.9577
4911  ,1.897e+10   ,2.2576  ,2.4577  ,4.891
4926  ,2.680e+08   ,-2.5  ,2.4  ,1
4932  ,3.654e+08   ,-2.4  ,2.5  ,1.6
4937  ,3.584e+08   ,-1.1  ,2.5  ,0.1
4939  ,1.130e+10   ,2.3  ,2.2299  ,4.7299
4944  ,1.907e+08   ,2.5  ,-1.9073  ,4.9
4987  ,4.802e+08   ,-2.3  ,1.5527  ,4.8
5010  ,3.015e+10   ,2.4973  ,2.1331  ,4.923
5013  ,1.111e+10   ,2.5  ,2.0345  ,4.9
5017  ,1.185e+10   ,2.4  ,2.0345  ,5
5035  ,1.863e+07   ,1.3  ,-2.4  ,0
5038  ,1.427e+07   ,1.2085  ,-2.5  ,0.2
5092  ,2.704e+06   ,-2.4  ,-2.5  ,1.2
5123  ,2.303e+08   ,2.5  ,-2.4  ,0.6
5151  ,1.257e+07   ,-2.5  ,-0.5  ,0.1
5160  ,4.968e+06   ,-2.5  ,-0.7  ,0.1
5164  ,3.676e+08   ,-2.4  ,0.9  ,5
5168  ,3.384e+08   ,-2.4  ,0.5  ,5
5176  ,3.705e+08   ,2.5  ,-0.7  ,0.1
5179  ,2.320e+08   ,2.4  ,-0.5  ,0
5189  ,1.411e+08   ,2.4  ,-2.5  ,2.4
5194  ,1.705e+08   ,2.3  ,-2.5  ,2.2576
5198  ,3.038e+06   ,-2.3  ,-2.5  ,0.32348
5205  ,3.068e+06   ,-2.4  ,-2.5  ,0.2
5207  ,2.875e+06   ,-2.1  ,-2.5  ,0.1
5246  ,3.146e+08   ,-2.5  ,2.4  ,3.2
5257  ,2.185e+08   ,-2.5  ,1.5  ,4.9
5263  ,1.991e+07   ,-2.3  ,0.2278  ,0.2
5272  ,8.990e+06   ,-2.5  ,0.3  ,0.1
5275  ,2.611e+08   ,-2.5  ,0.5  ,4.9
5281  ,5.995e+09   ,1.8375  ,2.5  ,4.9
5297  ,3.226e+08   ,-0.9  ,2.5  ,0.1
5306  ,2.543e+08   ,-0.7  ,2.4  ,0
5309  ,2.182e+08   ,-0.5  ,2.5  ,0.1
5324  ,1.399e+09   ,2.4  ,2.5  ,2.7607
5332  ,3.218e+08   ,2.5  ,-2.4  ,0.8
5334  ,3.651e+08   ,2.4  ,-2.5  ,1
5360  ,1.302e+08   ,2.4  ,-1.7102  ,5
5362  ,4.353e+08   ,2.4  ,-1.5131  ,5
5368  ,6.710e+09   ,2.4  ,1.8375  ,5
5371  ,3.304e+10   ,2.4325  ,2.4888  ,4.6656
5372  ,1.365e+10   ,2.3333  ,2.5  ,4.6998
5376  ,1.810e+10   ,2.4707  ,2.4707  ,4.6331
5377  ,1.266e+10   ,2.5  ,2.4  ,4.5345
5379  ,3.693e+08   ,-1.5  ,-2.5  ,4.9
5406  ,1.365e+07   ,-2.5  ,-2.4  ,3.4
5420  ,1.160e+07   ,-2.3  ,-2.5  ,3.2226
5423  ,1.899e+07   ,1.5  ,-2.4  ,0
5502  ,1.113e+06   ,-2.5  ,-2.3  ,0.1
5504  ,1.745e+06   ,-2.5  ,-2.4  ,0.2
5506  ,2.121e+06   ,-2.4  ,-2.3  ,0
5511  ,1.722e+06   ,-2.5  ,-2.1  ,0.1
5513  ,9.294e+06   ,-2.4  ,0.5  ,0
5517  ,4.422e+06   ,-0.9  ,-2.5  ,0.1
5532  ,1.117e+08   ,-2.4707  ,2.4707  ,4.9
5534  ,2.940e+08   ,2.4  ,-0.7  ,0
5551  ,2.669e+08   ,2.5  ,-2.4  ,3.8
5566  ,7.823e+07   ,2.5  ,2.4  ,1.3811
5603  ,1.781e+08   ,2.4  ,-0.3  ,0
5617  ,1.675e+08   ,-2.1  ,2.5  ,0.1
5637  ,2.371e+08   ,-2.3  ,-1.9695  ,4.8
5641  ,2.471e+08   ,2.3  ,-2.5  ,3.4636
5645  ,3.556e+06   ,-2.4  ,-2.5  ,2
5649  ,5.604e+06   ,-2.4  ,-2.5  ,2.2
5659  ,1.953e+06   ,-2.3  ,-2.5  ,1.7774
5662  ,2.493e+08   ,2.1765  ,-2.5  ,4.8
5666  ,5.455e+07   ,2.4  ,-2.5  ,4.8
5669  ,2.220e+08   ,2.3  ,-2.3412  ,4.8
5695  ,2.654e+07   ,-2.4  ,0.7  ,0
5701  ,3.528e+08   ,-2.5  ,2.4  ,1.6
5715  ,3.234e+08   ,-2.4  ,2.5  ,1.8
5726  ,2.729e+08   ,-0.7  ,2.5  ,0.1
5727  ,2.932e+08   ,-1.1  ,2.4  ,0
5730  ,2.865e+08   ,2.3  ,-2.5  ,1.7774
5746  ,4.093e+08   ,2.5  ,2.4  ,1.7753
5755  ,3.357e+08   ,2.5  ,-2.4  ,4.4
5763  ,2.550e+08   ,2.4  ,-2.5  ,4.4
5773  ,1.984e+09   ,1.0491  ,2.5  ,4.9
5791  ,2.917e+08   ,-0.72473  ,2.4  ,5
5795  ,6.495e+09   ,1.8375  ,2.4  ,5
5803  ,2.185e+08   ,-0.3  ,-2.4  ,5
5810  ,4.535e+09   ,2.4  ,1.6404  ,5
5836  ,1.851e+08   ,-2.5  ,1.3  ,4.9
5860  ,3.402e+08   ,2.5  ,-2.4  ,1.6
5866  ,2.891e+07   ,1.5  ,-2.5  ,0.1
5884  ,2.301e+08   ,-2.4  ,-0.3  ,5
5888  ,2.466e+08   ,-2.5  ,-0.5  ,4.9
5901  ,1.311e+08   ,2.3  ,-2.5  ,2.5
5908  ,4.186e+08   ,2.5  ,-2.4  ,1.2
5909  ,2.520e+08   ,2.5  ,-2.4  ,2
5934  ,2.855e+08   ,1.9  ,-2.5  ,4.9
5938  ,2.332e+08   ,1.933  ,-2.5  ,4.8
5948  ,3.438e+07   ,-2.4  ,-2.5  ,4.6
5950  ,1.140e+08   ,-2.4707  ,-2.4707  ,4.9
5951  ,6.565e+07   ,-2.5  ,-2.4  ,4.8
5952  ,1.281e+08   ,-2.5  ,-2.3  ,4.9
5986  ,4.122e+08   ,2.3  ,-2.5  ,3.7085
5990  ,1.859e+08   ,-0.92182  ,2.5  ,4.9
6019  ,2.185e+08   ,2.5  ,1.9  ,0.1
6025  ,3.077e+08   ,2.4  ,-1.3  ,0
6035  ,2.344e+08   ,-2.5  ,1.9  ,4.9
6044  ,2.496e+08   ,0.1  ,2.5  ,0.1
6054  ,2.302e+08   ,2.4  ,0.1  ,0
6070  ,1.327e+08   ,-2.4  ,2.3  ,0
6071  ,1.148e+08   ,-2.3  ,2.4  ,0
6076  ,8.452e+07   ,-2.4  ,2.1  ,0
6083  ,6.043e+07   ,2.1  ,-2.4  ,0
6084  ,2.067e+08   ,2.4  ,2.3  ,0
6087  ,1.585e+08   ,2.3  ,2.4  ,0
6092  ,2.353e+06   ,-2.4  ,-2.5  ,0.4
6096  ,7.749e+05   ,-2.3  ,-2.5  ,0.1
6099  ,1.067e+07   ,0.7  ,-2.5  ,0.1
6149  ,1.461e+07   ,-2.4  ,-0.9  ,0
6159  ,3.950e+06   ,-2.5  ,-2.4  ,2.6
6183  ,2.141e+09   ,1.2462  ,2.5  ,4.9
6224  ,2.110e+08   ,2.5  ,-2.4  ,4
6228  ,3.489e+08   ,2.4  ,-2.5  ,3.8
6237  ,4.174e+08   ,2.5  ,0.7  ,0.1
6241  ,1.392e+10   ,2.5  ,2.3333  ,4.6998
6245  ,3.274e+08   ,2.5  ,2.4  ,1.5782
6259  ,1.732e+08   ,2.5  ,-2.1044  ,4.9
6265  ,1.507e+08   ,2.3  ,-1.9804  ,4.8
6267  ,1.297e+08   ,2.5  ,-2.3015  ,4.9
6268  ,9.080e+07   ,2.4707  ,-2.4  ,4.9707
6270  ,1.707e+08   ,2.4  ,-2.1044  ,5
6317  ,4.305e+08   ,-2.3  ,0.2278  ,4.8
6349  ,4.348e+08   ,-0.52764  ,2.4  ,5
6391  ,5.073e+08   ,2.4  ,2.5  ,1.7753
6440  ,3.652e+08   ,-2.5  ,2.4  ,3.8
6471  ,1.901e+08   ,2.5  ,-0.92182  ,4.9
6489  ,2.636e+09   ,2.5  ,1.2462  ,4.9
6523  ,3.178e+06   ,-1.1  ,-2.4  ,0
6528  ,2.779e+06   ,-1.1  ,-2.5  ,0.1
6535  ,4.883e+06   ,-0.9  ,-2.4  ,0
6538  ,2.655e+08   ,1.5  ,-2.4  ,5
6541  ,3.264e+08   ,1.5  ,-2.5  ,4.9
6551  ,3.907e+08   ,2.5  ,-0.72473  ,4.9
6564  ,2.970e+10   ,2.1331  ,2.4973  ,4.923
6565  ,1.123e+10   ,2.0345  ,2.5  ,4.9
6572  ,2.085e+08   ,2.4  ,-1.7  ,0
6581  ,6.062e+08   ,0  ,2.3  ,0.2
6592  ,2.455e+08   ,2.3  ,-1.9695  ,0.2
6594  ,1.652e+08   ,0.3  ,2.4  ,0
6601  ,4.577e+08   ,0.5  ,2.5  ,0.1
6605  ,3.418e+06   ,-2.4  ,-1.3  ,0
6606  ,1.053e+07   ,-2.4  ,-1.1  ,0
6615  ,2.810e+07   ,-2.4  ,-0.3  ,0
6634  ,1.838e+08   ,2.1  ,-2.5  ,4.9
6635  ,1.155e+08   ,2.4  ,-2.4707  ,4.9707
6636  ,4.902e+07   ,2.3  ,-2.4  ,5
6647  ,8.373e+06   ,0.5  ,-2.5  ,0.1
6704  ,8.963e+07   ,-2.4707  ,2.4707  ,0.1
6708  ,1.380e+08   ,-2.5  ,2.4  ,0.2
6712  ,3.258e+08   ,-2.4  ,2.5  ,3.6
6715  ,3.292e+08   ,-2.4  ,2.5  ,3.4
6728  ,3.028e+08   ,-2.5  ,0.7  ,4.9
6753  ,3.637e+08   ,-2.1044  ,2.4  ,5
6788  ,7.562e+09   ,2.5  ,2.4  ,4.3375
6791  ,2.914e+08   ,-1.933  ,-2.5  ,4.8
6795  ,1.303e+10   ,2.1998  ,2.5  ,4.8333
6837  ,1.676e+06   ,-2.3  ,-2.5  ,0.8063
6869  ,1.167e+08   ,2.5  ,-1.7102  ,4.9
6873  ,2.051e+08   ,2.4  ,-1.9073  ,5
6880  ,1.886e+08   ,2.4  ,-0.92182  ,5
6885  ,7.776e+08   ,2.4  ,-0.52764  ,5
6893  ,2.428e+09   ,2.4  ,1.2462  ,5
6914  ,4.056e+08   ,0.7  ,2.5  ,0.1
6920  ,2.656e+08   ,0.9  ,2.4  ,0
6923  ,2.349e+08   ,0.7  ,2.4  ,0
6936  ,3.303e+08   ,2.4  ,-2.5  ,3.4
6939  ,1.904e+08   ,2.3  ,-2.5  ,3.2226
6961  ,1.714e+08   ,-0.1  ,-2.5  ,4.9
6967  ,1.963e+08   ,-2.5  ,-1.5  ,4.9
6975  ,2.627e+08   ,-2.4  ,1.1  ,5
6978  ,1.163e+08   ,-2.4  ,2.5  ,0.2
6987  ,5.274e+08   ,2.4  ,-1.316  ,5
6994  ,2.343e+08   ,2.4  ,-1.5  ,0
7004  ,3.719e+08   ,2.4  ,-2.5  ,3.6
7011  ,2.420e+09   ,2.4  ,0.65491  ,5
7016  ,1.670e+09   ,2.4  ,0.45782  ,5
7019  ,6.900e+08   ,2.5  ,2.4  ,2.1695
7021  ,4.799e+08   ,2.5  ,2.4  ,1.9724
7052  ,3.344e+08   ,-1.3  ,2.5  ,0.1
7054  ,1.099e+06   ,-2.4  ,-2.5  ,0.8
7057  ,6.533e+06   ,0.3  ,-2.5  ,0.1
7065  ,5.544e+06   ,0.24243  ,-2.5  ,0.2
7075  ,3.302e+10   ,2.4888  ,2.4325  ,4.6656
7113  ,4.951e+06   ,-2.4  ,-2.5  ,2.6
7121  ,6.705e+06   ,-2.4  ,-2.5  ,2.8
7126  ,6.643e+06   ,-2.5  ,-2.4  ,2.8
7128  ,2.122e+06   ,-2.4707  ,-2.4707  ,0.1
7129  ,1.186e+06   ,-2.4  ,-2.4707  ,0.029289
7141  ,3.486e+08   ,-1.7  ,-2.4  ,5
7145  ,2.858e+08   ,1.1  ,2.4  ,0
7163  ,3.423e+08   ,-1.7102  ,2.4  ,5
7172  ,3.347e+08   ,2.5  ,-2.4  ,3.2
7174  ,3.409e+08   ,-2.5  ,2.4  ,3.6
7183  ,3.371e+08   ,-1.4531  ,-2.5  ,4.8
7204  ,1.043e+09   ,2.3  ,-0.81068  ,4.8
7220  ,9.033e+08   ,2.5  ,0.063638  ,4.9
7227  ,2.188e+08   ,2.5  ,-1.9  ,0.1
7256  ,1.772e+08   ,-0.1  ,-2.4  ,5
7280  ,7.882e+08   ,-0.33054  ,2.4  ,5
7299  ,4.051e+08   ,2.5  ,-1.1189  ,4.9
7316  ,1.317e+06   ,-2.5  ,-2.4  ,0.8
7323  ,2.718e+06   ,-2.4  ,-2.5  ,1
7396  ,3.192e+08   ,1.1  ,-2.4  ,5
7400  ,1.912e+07   ,-2.5  ,0.7  ,0.1
7409  ,2.325e+08   ,1.3  ,-2.4  ,5
7420  ,2.608e+08   ,2.5  ,2.1  ,0.1
7429  ,1.916e+08   ,2.4  ,1.9  ,0
7436  ,2.055e+08   ,2.5  ,-1.7  ,0.1
7438  ,2.026e+08   ,2.4  ,-2.5  ,2.8
7445  ,2.915e+10   ,2.4325  ,2.1656  ,4.9888
7464  ,1.995e+08   ,2.5  ,-1.5  ,0.1
7480  ,1.153e+08   ,2.5  ,-2.4  ,0.2
7482  ,2.946e+07   ,1.9  ,-2.5  ,0.1
7483  ,2.797e+07   ,1.7  ,-2.5  ,0.1
7486  ,3.542e+08   ,1.9  ,-2.4  ,5
7488  ,2.454e+08   ,1.6937  ,-2.5  ,4.8
7492  ,1.780e+08   ,2.1  ,-2.4  ,5
7495  ,3.726e+06   ,0.1  ,-2.5  ,0.1
7504  ,6.037e+06   ,0.3  ,-2.4  ,0
7507  ,1.927e+07   ,0.9  ,-2.5  ,0.1
7533  ,3.121e+07   ,-2.5  ,0.9  ,0.1
7536  ,7.555e+06   ,-2.4  ,-2.5  ,3.2
7540  ,9.132e+06   ,-2.4  ,-2.5  ,3
7545  ,7.012e+06   ,-2.5  ,-2.4  ,3
7582  ,2.594e+08   ,1.3  ,2.5  ,0.1
7588  ,8.772e+08   ,2.5  ,2.4  ,2.3665
7598  ,3.283e+08   ,-2.5  ,2.4  ,4.2
7607  ,4.064e+08   ,1.5333  ,2.3  ,0.2
7627  ,2.201e+08   ,-2.5  ,1.1  ,4.9
7651  ,2.080e+08   ,2.4  ,-1.9  ,0
7656  ,3.960e+08   ,2.5  ,2.4  ,0.39564
7660  ,1.116e+10   ,2.2299  ,2.3  ,4.7299
7668  ,4.271e+08   ,1.4531  ,-2.5  ,4.8
7676  ,1.905e+08   ,0.1  ,-2.5  ,4.9
7683  ,2.122e+08   ,0.1  ,-2.4  ,5
7686  ,3.583e+08   ,-2.4  ,-1.1  ,5
7702  ,2.112e+07   ,-2.3  ,-2.5  ,4.433
7710  ,9.653e+07   ,-2.3  ,-2.5  ,4.6765
7752  ,3.736e+08   ,0.9  ,-2.4  ,5
7763  ,8.531e+07   ,0.24243  ,-2.5  ,4.8
7767  ,6.004e+06   ,-2.5  ,-2.4  ,3.2
7768  ,3.517e+06   ,-2.4  ,-2.1  ,0
7776  ,3.138e+07   ,-2.4  ,0.9  ,0
7786  ,2.641e+08   ,-0.4838  ,-2.5  ,4.8
7800  ,2.073e+08   ,2.5  ,-2.4  ,4.6
7805  ,3.155e+08   ,-2.5  ,-1.3  ,4.9
7811  ,3.466e+08   ,-2.5  ,-1.1  ,4.9
7820  ,1.870e+08   ,2.5  ,-2.1  ,0.1
7824  ,1.543e+08   ,2.4  ,-2.1  ,0
7828  ,2.934e+08   ,2.4  ,-2.5  ,4.2
7831  ,2.847e+08   ,2.4  ,-2.5  ,4
7838  ,3.288e+08   ,2.5  ,-2.4  ,4.2
7839  ,1.355e+09   ,2.5  ,2.4  ,2.7607
7840  ,1.932e+09   ,2.5  ,2.4  ,2.9578
7863  ,4.189e+06   ,-2.4  ,-1.5  ,0
7890  ,3.148e+08   ,2.4  ,0.9  ,0
7897  ,1.087e+07   ,-2.4  ,-0.7  ,0
7912  ,4.190e+06   ,-1.5  ,-2.4  ,0
7917  ,3.120e+06   ,-1.3  ,-2.5  ,0.1
7931  ,1.786e+08   ,0.5  ,2.4  ,0
7934  ,1.967e+07   ,1.1  ,-2.4  ,0
7937  ,3.266e+08   ,2.4  ,-2.5  ,0.8
7941  ,8.451e+05   ,-2.4  ,-2.5  ,0.6
7969  ,1.319e+08   ,-2.5  ,2.3  ,0.1
7971  ,6.494e+07   ,-2.4  ,1.9  ,0
7972  ,2.387e+08   ,-1.9  ,2.5  ,0.1
7978  ,3.380e+07   ,-2.4  ,1.1  ,0
7996  ,3.136e+08   ,-2.4  ,-0.5  ,5
8000  ,1.658e+06   ,-2.5  ,-2.4  ,0.6
8003  ,1.454e+06   ,-2.5  ,-2.4  ,0.4
8025  ,2.813e+08   ,0.9  ,2.5  ,0.1
8035  ,2.481e+08   ,0.3  ,2.5  ,0.1
8039  ,2.541e+08   ,2.3  ,-2.5  ,0.32348
8041  ,2.097e+08   ,2.3  ,-2.3379  ,0.2
8043  ,7.102e+07   ,2.1765  ,-2.5  ,0.2
8045  ,3.439e+06   ,-0.96359  ,-2.5  ,0.2
8054  ,2.426e+08   ,1.3  ,2.4  ,0
8058  ,2.976e+08   ,1.1  ,2.5  ,0.1
8062  ,2.894e+08   ,-2.5  ,2.4  ,1.4
8067  ,2.647e+08   ,-2.5  ,2.4  ,0.8
8087  ,4.588e+07   ,-2.5  ,1.5  ,0.1
8132  ,1.095e+09   ,-0.13345  ,2.4  ,5
8183  ,3.926e+08   ,2.5  ,-0.9  ,0.1
8184  ,1.558e+07   ,1.6937  ,-2.5  ,0.2
8214  ,8.663e+07   ,-2.4707  ,-2.4  ,4.9707
8217  ,1.436e+08   ,-2.1  ,-2.4  ,5
8219  ,3.039e+07   ,-2.4  ,-2.5  ,4.4
8227  ,2.588e+09   ,2.5  ,2.4  ,3.1549
8242  ,2.925e+08   ,0.7  ,-2.5  ,4.9
8248  ,3.784e+08   ,2.5  ,-2.4  ,3.6
8254  ,1.840e+08   ,2.5  ,-0.3  ,0.1
8256  ,2.721e+08   ,2.5  ,-0.5  ,0.1
8258  ,2.280e+08   ,-0.3  ,-2.5  ,4.9
8263  ,2.829e+08   ,-0.5  ,-2.5  ,4.9
8268  ,1.649e+07   ,-2.3  ,-2.5  ,3.7085
8277  ,3.619e+06   ,-0.1  ,-2.5  ,0.1
8285  ,3.386e+08   ,1.1  ,-2.5  ,4.9
8307  ,1.506e+08   ,0.1  ,2.4  ,0
8308  ,4.755e+08   ,-0.1  ,2.5  ,0.1
8309  ,2.211e+08   ,-0.1  ,2.4  ,0
8313  ,1.333e+08   ,2.5  ,-2.3  ,0.1
8318  ,2.814e+08   ,2.5  ,-2.4  ,3
8338  ,2.372e+09   ,2.5  ,2.4  ,3.352
8339  ,2.723e+09   ,2.4  ,2.5  ,3.1549
8344  ,3.178e+08   ,-2.5  ,2.4  ,3.4
8357  ,2.846e+10   ,2.4888  ,2.1656  ,4.9325
8358  ,1.335e+10   ,2.5  ,2.1998  ,4.8333
8383  ,2.488e+06   ,-1.7  ,-2.4  ,0
8396  ,1.809e+07   ,1.1  ,-2.5  ,0.1
8399  ,2.942e+10   ,2.4526  ,2.1331  ,4.9851
8405  ,3.848e+08   ,2.5  ,-2.4  ,1
8412  ,3.452e+08   ,2.3  ,-2.5  ,0.8063
8417  ,7.103e+06   ,-2.3  ,-2.5  ,2.5
8434  ,3.229e+08   ,0.9636  ,-2.5  ,4.8
8438  ,8.211e+05   ,-0.3  ,-2.5  ,0.1
8452  ,2.026e+08   ,-2.4  ,-0.1  ,5
8468  ,2.383e+09   ,2.5  ,2.4  ,3.7462
8471  ,3.886e+08   ,-1.3  ,-2.5  ,4.9
8493  ,3.645e+08   ,-1.1  ,-2.5  ,4.9
8509  ,3.721e+06   ,-2.5  ,-1.7  ,0.1
8517  ,3.330e+08   ,-2.4  ,2.5  ,3
8531  ,5.477e+07   ,-2.4  ,1.7  ,0
8556  ,2.096e+09   ,2.5  ,2.4  ,3.5491
8573  ,1.335e+08   ,-1.316  ,2.4  ,5
8576  ,4.271e+07   ,-2.4  ,1.3  ,0
8611  ,2.901e+08   ,2.3  ,-2.5  ,1.2915
8618  ,2.165e+08   ,-2.4  ,2.5  ,4
8646  ,3.930e+07   ,-2.5  ,1.1  ,0.1
8656  ,2.805e+08   ,2.5  ,-1.3  ,0.1
8657  ,2.247e+08   ,2.4  ,2.1  ,0
8673  ,2.818e+08   ,-1.3  ,2.4  ,0
8692  ,2.396e+08   ,0.72263  ,-2.5  ,4.8
8696  ,3.443e+08   ,2.3  ,-2.5  ,1.0469
8706  ,2.216e+09   ,2.5  ,0.65491  ,4.9
8721  ,3.414e+06   ,-2.4  ,-2.5  ,1.6
8725  ,2.694e+09   ,0.65491  ,2.4  ,5
8739  ,2.881e+10   ,2.1656  ,2.4325  ,4.9888
8741  ,1.364e+10   ,2.1998  ,2.3333  ,5
8746  ,3.802e+06   ,-2.1  ,-2.4  ,0
8748  ,3.043e+06   ,-2.5  ,-2.4  ,1.2
8752  ,2.938e+10   ,2.1331  ,2.4526  ,4.9851
8759  ,2.974e+06   ,-2.3  ,-2.5  ,1.0469
8787  ,2.420e+06   ,-0.1  ,-2.4  ,0
8793  ,6.459e+06   ,-2.3  ,-2.5  ,2.2576
8795  ,6.073e+06   ,-2.4  ,-2.5  ,2.4
8798  ,1.242e+07   ,-2.3  ,-2.5  ,4.1937
8808  ,2.250e+07   ,-2.3  ,-2.5  ,3.9531
8814  ,2.213e+08   ,-2.4  ,-1.5  ,5
8849  ,1.833e+08   ,0.4838  ,-2.5  ,4.8
8851  ,2.391e+07   ,-2.4  ,-2.5  ,4.2
8868  ,2.347e+08   ,2.4  ,-2.5  ,3
8874  ,2.407e+09   ,0.852  ,2.4  ,5
8883  ,3.249e+08   ,-0.5  ,-2.4  ,5
8886  ,3.001e+08   ,-0.72262  ,-2.5  ,4.8
8893  ,3.212e+08   ,-0.7  ,-2.5  ,4.9
8897  ,1.755e+07   ,-2.5  ,-2.4  ,3.6
8899  ,1.322e+07   ,-2.3  ,-2.5  ,3.4636
8900  ,4.133e+06   ,-2.3  ,-1.4729  ,0.2
8906  ,5.242e+06   ,-2.5  ,-1.3  ,0.1
8910  ,2.440e+09   ,0.852  ,2.5  ,4.9
8925  ,3.309e+08   ,-2.4  ,2.5  ,1.4
8941  ,1.574e+08   ,2.4707  ,2.4  ,0.029289
8942  ,2.194e+08   ,2.5  ,2.3  ,0.1
8945  ,2.219e+08   ,-2.5  ,0.1  ,4.9
8950  ,1.535e+08   ,2.4707  ,2.4707  ,0.1
8951  ,1.388e+08   ,2.4  ,2.4707  ,0.029289
8959  ,1.095e+09   ,2.4  ,0.26073  ,5
8965  ,1.932e+09   ,0.45782  ,2.4  ,5
8978  ,2.266e+09   ,2.4  ,0.852  ,5
8983  ,3.644e+08   ,2.5  ,-1.1  ,0.1
8991  ,2.384e+08   ,-2.5  ,2.4  ,0.6
9008  ,2.332e+09   ,2.5  ,0.852  ,4.9
9011  ,1.458e+07   ,-2.4  ,-0.5  ,0
9025  ,4.720e+06   ,-1.5  ,-2.5  ,0.1
9038  ,2.406e+08   ,2.4  ,-2.5  ,2
9041  ,3.665e+08   ,2.5  ,0.9  ,0.1
9050  ,3.792e+08   ,2.5  ,0.5  ,0.1
9054  ,1.883e+07   ,0.9  ,-2.4  ,0
9060  ,1.815e+08   ,2.4  ,-2.5  ,0.4
9062  ,2.874e+08   ,2.3  ,-2.5  ,0.56701
9064  ,1.891e+08   ,2.5  ,-2.4  ,0.4
9069  ,2.531e+08   ,2.4  ,-2.5  ,0.6
9071  ,2.989e+07   ,1.4531  ,-2.5  ,0.2
9082  ,1.884e+06   ,-2.3  ,-2.5  ,1.2915
9086  ,2.724e+06   ,-2.4  ,-2.5  ,1.4
9091  ,3.891e+06   ,-2.5  ,-2.4  ,1.4
9094  ,3.414e+08   ,1.3  ,-2.5  ,4.9
9097  ,4.074e+06   ,-0.7  ,-2.5  ,0.1
9137  ,2.834e+08   ,-2.5  ,-0.7  ,4.9
9143  ,2.277e+08   ,-2.5  ,-0.1  ,4.9
9146  ,1.807e+08   ,-2.1  ,2.4  ,0
9148  ,2.199e+08   ,-2.5  ,1.7  ,4.9
9173  ,2.968e+08   ,-2.5  ,2.4  ,3
9192  ,3.320e+08   ,-0.7  ,-2.4  ,5
9195  ,1.514e+07   ,0.72263  ,-2.5  ,0.2
9209  ,4.056e+08   ,2.5  ,-2.4  ,3.4
9215  ,1.622e+07   ,0.9636  ,-2.5  ,0.2
9217  ,2.687e+08   ,2.4  ,-2.5  ,3.2
9218  ,2.518e+08   ,-0.96359  ,-2.5  ,4.8
9229  ,3.424e+08   ,-2.4  ,2.5  ,2.8
9248  ,1.995e+08   ,2.3  ,-2.5  ,4.433
9255  ,2.589e+08   ,2.5  ,1.3  ,0.1
9257  ,1.830e+08   ,2.4  ,1.5  ,0
9262  ,3.586e+08   ,0.5  ,-2.4  ,5
9264  ,7.513e+08   ,2.4  ,-0.13345  ,5
9272  ,1.120e+09   ,0.063638  ,2.4  ,5
9277  ,2.737e+08   ,-2.5  ,2.4  ,1.2
9279  ,1.158e+09   ,2.5  ,0.26073  ,4.9
9282  ,4.426e+08   ,1.2085  ,-2.5  ,4.8
9286  ,3.237e+08   ,0.9  ,-2.5  ,4.9
9292  ,1.648e+08   ,-2.4  ,2.4707  ,4.9707
9293  ,2.619e+08   ,-2.3015  ,2.4  ,5
9296  ,2.403e+08   ,-2.4  ,-2.1  ,5
9303  ,2.582e+08   ,-2.4  ,-1.9  ,5
9311  ,1.753e+08   ,-2.4  ,2.3  ,5
9313  ,2.218e+08   ,-2.4  ,0.1  ,5
9319  ,1.755e+06   ,-0.5  ,-2.4  ,0
9328  ,1.780e+06   ,-2.3  ,-2.5  ,1.5364
9334  ,1.063e+08   ,-2.3  ,2.5  ,0.1
9338  ,4.710e+06   ,-2.5  ,-2.4  ,2.4
9339  ,4.519e+07   ,-2.5  ,1.3  ,0.1
9341  ,5.189e+06   ,-2.3  ,-2.5  ,2.7424
9344  ,3.711e+06   ,-2.5  ,-2.4  ,2.2
9358  ,1.051e+09   ,-2.3  ,2.3  ,2.5
9364  ,1.779e+08   ,-2.5  ,-2.1  ,4.9
9367  ,1.478e+08   ,-2.4  ,-2.3  ,5
9374  ,2.521e+08   ,-2.4  ,-1.3  ,5
9378  ,2.879e+08   ,-2.5  ,2.4  ,1.8
9384  ,2.302e+08   ,2.3  ,-2.5  ,2.0162
9385  ,3.004e+08   ,-2.5  ,2.4  ,4.4
9389  ,1.804e+08   ,-2.5  ,2.4  ,2
9395  ,1.214e+08   ,2.4  ,-2.3015  ,5
9396  ,2.940e+06   ,-2.4  ,-1.7  ,0
9407  ,4.570e+08   ,-2.3  ,-1.4729  ,4.8
9411  ,2.101e+08   ,-2.5  ,-1.7  ,4.9
9423  ,1.680e+07   ,-2.4  ,-2.5  ,3.6
9432  ,3.790e+08   ,0.7  ,-2.4  ,5
9438  ,3.353e+08   ,-2.5  ,-0.9  ,4.9
9443  ,2.193e+08   ,-2.5  ,-0.3  ,4.9
9445  ,1.324e+08   ,-2.4707  ,2.4  ,4.9707
9448  ,4.480e+08   ,2.4  ,-1.1189  ,5
9453  ,3.119e+08   ,2.4  ,0.7  ,0
9455  ,1.657e+08   ,2.5  ,-2.4  ,2.6
9457  ,1.385e+08   ,2.3  ,-2.5  ,2.9838
9494  ,3.019e+08   ,-2.4  ,2.5  ,1
9500  ,2.452e+08   ,0.3  ,-2.5  ,4.9
9504  ,2.953e+08   ,0.3  ,-2.4  ,5
9506  ,4.275e+07   ,2.1  ,-2.5  ,0.1
9518  ,2.557e+06   ,-1.9  ,-2.5  ,0.1
9528  ,7.322e+07   ,2.3  ,-2.5  ,0.1
9531  ,9.872e+07   ,2.4707  ,-2.4707  ,0.1
9533  ,7.739e+07   ,2.4707  ,-2.4  ,0.029289
9534  ,8.873e+07   ,2.4  ,-2.4707  ,0.029289
9541  ,2.846e+08   ,0.5  ,-2.5  ,4.9
9544  ,1.693e+06   ,-0.5  ,-2.5  ,0.1
9559  ,2.202e+08   ,-2.5  ,-1.9  ,4.9
9562  ,2.238e+08   ,-2.5  ,2.4  ,4.6
9565  ,2.337e+08   ,-2.4  ,2.5  ,2
9571  ,1.387e+07   ,-2.5  ,-2.4  ,3.8
9574  ,1.860e+07   ,-2.4  ,-2.5  ,3.8
9577  ,2.211e+07   ,1.3  ,-2.5  ,0.1
9582  ,1.142e+07   ,-2.5  ,-0.9  ,0.1
9596  ,1.734e+08   ,2.1  ,2.4  ,0
9598  ,3.588e+08   ,-2.4  ,2.5  ,3.2
9602  ,2.368e+08   ,1.5  ,2.5  ,0.1
9610  ,4.279e+08   ,2.4  ,2.5  ,0.39564
9612  ,2.285e+08   ,-0.72473  ,2.5  ,4.9
9614  ,2.154e+08   ,1.7  ,2.5  ,0.1
9635  ,2.676e+08   ,2.5  ,1.7  ,0.1
9646  ,1.899e+08   ,2.3  ,2.5  ,0.1
9651  ,2.875e+10   ,2.1656  ,2.4888  ,4.9325
9653  ,5.455e+08   ,2.5  ,-1.316  ,4.9
9656  ,2.019e+08   ,-2.4  ,-1.7  ,5
9659  ,2.325e+08   ,2.3  ,-2.5  ,4.6765
9661  ,4.256e+08   ,2.3  ,-2.5  ,3.9531
9664  ,1.318e+08   ,-2.3  ,-2.4  ,5
9666  ,5.086e+07   ,1.9  ,-2.4  ,0
9677  ,2.945e+08   ,2.4  ,0.5  ,0
9678  ,9.993e+06   ,-2.5  ,-1.1  ,0.1
9680  ,2.302e+08   ,2.5  ,2.4  ,1.184
9681  ,2.334e+08   ,2.5  ,2.4  ,0.19855
9696  ,2.784e+06   ,-2.3  ,-2.5  ,2.0162
9698  ,1.064e+08   ,2.4  ,-2.3  ,0
9699  ,2.525e+06   ,-0.24243  ,-2.5  ,0.2
9701  ,3.411e+06   ,0.1  ,-2.4  ,0
9704  ,1.496e+06   ,-0.4838  ,-2.5  ,0.2
9718  ,4.264e+06   ,-0.72262  ,-2.5  ,0.2
9726  ,4.713e+08   ,2.3  ,-0.76628  ,0.2
9727  ,1.909e+08   ,-2.5  ,2.4  ,0.4
9730  ,1.644e+08   ,1.9433E-06  ,-2.5  ,4.8
9731  ,2.286e+08   ,-0.24243  ,-2.5  ,4.8
9732  ,1.517e+08   ,-2.5  ,2.4  ,2.2
9738  ,1.633e+07   ,-2.5  ,-2.4  ,4
9743  ,3.219e+08   ,-1.6937  ,-2.5  ,4.8
9744  ,2.170e+07   ,-2.4  ,-2.5  ,4
9750  ,3.506e+06   ,-1.7  ,-2.5  ,0.1
9752  ,2.715e+06   ,-1.6937  ,-2.5  ,0.2
9754  ,3.594e+06   ,-1.3  ,-2.4  ,0
9759  ,1.176e+08   ,-2.4707  ,2.4  ,0.029289
9760  ,9.343e+07   ,-2.4  ,2.4707  ,0.029289
9768  ,2.312e+08   ,2.3  ,-2.5  ,4.1937
9770  ,5.107e+06   ,1.9433E-06  ,-2.5  ,0.2
9771  ,1.052e+07   ,0.4838  ,-2.5  ,0.2
9772  ,1.252e+08   ,2.4  ,-2.5  ,0.2
9773  ,1.989e+08   ,2.4  ,-2.5  ,4.6
9776  ,8.322e+08   ,2.4  ,0.063638  ,5
9780  ,2.514e+09   ,0.65491  ,2.5  ,4.9
9781  ,2.299e+08   ,2.4  ,2.5  ,0.19855
9782  ,9.966e+06   ,-2.3  ,-2.5  ,2.9838
9786  ,3.304e+06   ,-1.2085  ,-2.5  ,0.2
9787  ,4.948e+06   ,-1.4531  ,-2.5  ,0.2
9790  ,4.799e+07   ,2.3  ,-2.4  ,0
9793  ,1.175e+10   ,2.0345  ,2.4  ,5
9797  ,2.370e+08   ,2.3  ,-2.5  ,1.5364
9798  ,2.336e+09   ,2.4  ,1.0491  ,5
9809  ,2.387e+09   ,2.4  ,2.5  ,3.352
