Date:  12:51, Monday, July 10, 2023
Model name: Hollow_DropBox
Study name: DropTest_300fts(-Default-)
Plot type:  Stress1
Plot step: 9   time : 47.2138 Microseconds
Result Type: von Mises 


Node  ,Value (N/m^2)  ,X (in)  ,Y (in)  ,Z (in)
1  ,2.631e+10   ,2.5  ,2.1331  ,4.9
2  ,2.434e+10   ,2.4577  ,2.1908  ,4.9577
3  ,4.929e+10   ,2.4894  ,2.1331  ,4.9447
4  ,2.664e+10   ,2.1331  ,2.5  ,4.9
5  ,4.970e+10   ,2.1331  ,2.4894  ,4.9447
6  ,2.332e+10   ,2.1908  ,2.4577  ,4.9577
7  ,2.440e+08   ,-2.4  ,2.4  ,5
8  ,7.775e+08   ,-2.4  ,-2.4  ,5
9  ,6.476e+08   ,2.4  ,-2.4  ,5
10  ,2.456e+10   ,2.4  ,2.1331  ,5
11  ,2.665e+10   ,2.1331  ,2.4  ,5
12  ,6.649e+08   ,2.5  ,-2.4  ,4.9
13  ,7.176e+08   ,2.5  ,-2.4  ,0.1
14  ,1.933e+08   ,2.5  ,2.4  ,0.1
15  ,2.670e+10   ,2.5  ,2.4  ,4.6331
16  ,1.675e+08   ,2.4  ,2.5  ,0.1
17  ,3.469e+08   ,-2.4  ,2.5  ,0.1
18  ,2.509e+08   ,-2.4  ,2.5  ,4.9
19  ,2.684e+10   ,2.4  ,2.5  ,4.6331
20  ,1.453e+08   ,-2.5  ,2.4  ,0.1
21  ,9.138e+06   ,-2.5  ,-2.4  ,0.1
22  ,4.803e+08   ,-2.5  ,-2.4  ,4.9
23  ,2.801e+08   ,-2.5  ,2.4  ,4.9
24  ,1.727e+07   ,-2.3  ,-2.5  ,0.2
25  ,9.279e+08   ,-2.3  ,-2.5  ,4.8
26  ,1.499e+09   ,2.3  ,-2.5  ,4.8
27  ,8.254e+08   ,2.3  ,-2.5  ,0.2
28  ,7.927e+08   ,-2.4  ,-2.5  ,4.9
29  ,6.210e+08   ,2.4  ,-2.5  ,4.9
30  ,4.873e+06   ,-2.4  ,-2.5  ,0.1
31  ,7.523e+08   ,2.4  ,-2.5  ,0.1
32  ,5.153e+08   ,2.4  ,-2.4  ,0
33  ,3.121e+08   ,2.4  ,2.4  ,0
34  ,1.235e+07   ,-2.4  ,-2.4  ,0
35  ,1.912e+08   ,-2.4  ,2.4  ,0
36  ,2.879e+10   ,2.4577  ,2.4577  ,4.6908
37  ,6.976e+08   ,-2.3  ,2.3  ,4.8
38  ,1.502e+10   ,2.1599  ,2.3  ,4.8
39  ,1.489e+10   ,2.3  ,2.1599  ,4.8
40  ,1.503e+10   ,2.3  ,2.3  ,4.6599
41  ,6.722e+08   ,2.3  ,2.3  ,0.2
42  ,2.511e+08   ,-2.3  ,2.3  ,0.2
43  ,3.024e+08   ,-2.4  ,2.2  ,5
44  ,5.317e+08   ,-2.4  ,2  ,5
45  ,4.952e+08   ,-2.4  ,1.8  ,5
46  ,5.159e+08   ,-2.4  ,1.6  ,5
47  ,5.716e+08   ,-2.4  ,1.4  ,5
48  ,7.172e+08   ,-2.4  ,1.2  ,5
49  ,7.645e+08   ,-2.4  ,1  ,5
50  ,1.071e+09   ,-2.4  ,0.8  ,5
51  ,1.055e+09   ,-2.4  ,0.6  ,5
52  ,9.022e+08   ,-2.4  ,0.4  ,5
53  ,8.908e+08   ,-2.4  ,0.2  ,5
54  ,6.689e+08   ,-2.4  ,5.8879E-16  ,5
55  ,6.781e+08   ,-2.4  ,-0.2  ,5
56  ,5.348e+08   ,-2.4  ,-0.4  ,5
57  ,4.353e+08   ,-2.4  ,-0.6  ,5
58  ,3.182e+08   ,-2.4  ,-0.8  ,5
59  ,3.310e+08   ,-2.4  ,-1  ,5
60  ,3.668e+08   ,-2.4  ,-1.2  ,5
61  ,6.290e+08   ,-2.4  ,-1.4  ,5
62  ,5.690e+08   ,-2.4  ,-1.6  ,5
63  ,5.535e+08   ,-2.4  ,-1.8  ,5
64  ,6.401e+08   ,-2.4  ,-2  ,5
65  ,7.034e+08   ,-2.4  ,-2.2  ,5
66  ,1.086e+09   ,-2.2  ,-2.4  ,5
67  ,9.040e+08   ,-2  ,-2.4  ,5
68  ,8.780e+08   ,-1.8  ,-2.4  ,5
69  ,8.935e+08   ,-1.6  ,-2.4  ,5
70  ,9.407e+08   ,-1.4  ,-2.4  ,5
71  ,8.365e+08   ,-1.2  ,-2.4  ,5
72  ,5.392e+08   ,-1  ,-2.4  ,5
73  ,2.395e+08   ,-0.8  ,-2.4  ,5
74  ,2.622e+08   ,-0.6  ,-2.4  ,5
75  ,5.387e+08   ,-0.4  ,-2.4  ,5
76  ,6.090e+08   ,-0.2  ,-2.4  ,5
77  ,6.905e+08   ,-5.8879E-16  ,-2.4  ,5
78  ,7.526e+08   ,0.2  ,-2.4  ,5
79  ,7.928e+08   ,0.4  ,-2.4  ,5
80  ,1.067e+09   ,0.6  ,-2.4  ,5
81  ,1.061e+09   ,0.8  ,-2.4  ,5
82  ,9.296e+08   ,1  ,-2.4  ,5
83  ,9.999e+08   ,1.2  ,-2.4  ,5
84  ,1.314e+09   ,1.4  ,-2.4  ,5
85  ,1.423e+09   ,1.6  ,-2.4  ,5
86  ,1.512e+09   ,1.8  ,-2.4  ,5
87  ,1.206e+09   ,2  ,-2.4  ,5
88  ,6.370e+08   ,2.2  ,-2.4  ,5
89  ,8.909e+08   ,2.4  ,-2.2029  ,5
90  ,9.840e+08   ,2.4  ,-2.0058  ,5
91  ,7.990e+08   ,2.4  ,-1.8087  ,5
92  ,6.505e+08   ,2.4  ,-1.6116  ,5
93  ,6.533e+08   ,2.4  ,-1.4145  ,5
94  ,5.461e+08   ,2.4  ,-1.2175  ,5
95  ,6.578e+08   ,2.4  ,-1.0204  ,5
96  ,8.032e+08   ,2.4  ,-0.82327  ,5
97  ,7.685e+08   ,2.4  ,-0.62618  ,5
98  ,7.616e+08   ,2.4  ,-0.42909  ,5
99  ,9.030e+08   ,2.4  ,-0.232  ,5
100  ,1.172e+09   ,2.4  ,-0.034907  ,5
101  ,1.450e+09   ,2.4  ,0.16218  ,5
102  ,1.782e+09   ,2.4  ,0.35927  ,5
103  ,2.069e+09   ,2.4  ,0.55637  ,5
104  ,2.250e+09   ,2.4  ,0.75346  ,5
105  ,2.293e+09   ,2.4  ,0.95055  ,5
106  ,2.268e+09   ,2.4  ,1.1476  ,5
107  ,3.623e+09   ,2.4  ,1.3447  ,5
108  ,4.924e+09   ,2.4  ,1.5418  ,5
109  ,6.914e+09   ,2.4  ,1.7389  ,5
110  ,1.251e+10   ,2.4  ,1.936  ,5
111  ,1.759e+10   ,2.2665  ,2.2665  ,5
112  ,1.267e+10   ,1.936  ,2.4  ,5
113  ,6.583e+09   ,1.7389  ,2.4  ,5
114  ,5.272e+09   ,1.5418  ,2.4  ,5
115  ,3.489e+09   ,1.3447  ,2.4  ,5
116  ,2.750e+09   ,1.1476  ,2.4  ,5
117  ,2.610e+09   ,0.95055  ,2.4  ,5
118  ,2.508e+09   ,0.75346  ,2.4  ,5
119  ,2.052e+09   ,0.55637  ,2.4  ,5
120  ,1.860e+09   ,0.35927  ,2.4  ,5
121  ,1.780e+09   ,0.16218  ,2.4  ,5
122  ,1.518e+09   ,-0.034907  ,2.4  ,5
123  ,1.602e+09   ,-0.232  ,2.4  ,5
124  ,1.108e+09   ,-0.42909  ,2.4  ,5
125  ,1.023e+09   ,-0.62618  ,2.4  ,5
126  ,1.089e+09   ,-0.82327  ,2.4  ,5
127  ,9.982e+08   ,-1.0204  ,2.4  ,5
128  ,8.805e+08   ,-1.2175  ,2.4  ,5
129  ,7.628e+08   ,-1.4145  ,2.4  ,5
130  ,5.584e+08   ,-1.6116  ,2.4  ,5
131  ,3.812e+08   ,-1.8087  ,2.4  ,5
132  ,2.833e+08   ,-2.0058  ,2.4  ,5
133  ,3.198e+08   ,-2.2029  ,2.4  ,5
294  ,8.179e+08   ,2.5  ,-2.2029  ,4.9
295  ,9.528e+08   ,2.5  ,-2.0058  ,4.9
296  ,8.325e+08   ,2.5  ,-1.8087  ,4.9
297  ,7.441e+08   ,2.5  ,-1.6116  ,4.9
298  ,6.385e+08   ,2.5  ,-1.4145  ,4.9
299  ,5.736e+08   ,2.5  ,-1.2175  ,4.9
300  ,6.554e+08   ,2.5  ,-1.0204  ,4.9
301  ,6.297e+08   ,2.5  ,-0.82327  ,4.9
302  ,6.517e+08   ,2.5  ,-0.62618  ,4.9
303  ,7.451e+08   ,2.5  ,-0.42909  ,4.9
304  ,9.514e+08   ,2.5  ,-0.232  ,4.9
305  ,1.328e+09   ,2.5  ,-0.034907  ,4.9
306  ,1.687e+09   ,2.5  ,0.16218  ,4.9
307  ,1.723e+09   ,2.5  ,0.35927  ,4.9
308  ,2.037e+09   ,2.5  ,0.55637  ,4.9
309  ,2.140e+09   ,2.5  ,0.75346  ,4.9
310  ,2.233e+09   ,2.5  ,0.95055  ,4.9
311  ,2.888e+09   ,2.5  ,1.1476  ,4.9
312  ,3.723e+09   ,2.5  ,1.3447  ,4.9
313  ,5.437e+09   ,2.5  ,1.5418  ,4.9
314  ,8.569e+09   ,2.5  ,1.7389  ,4.9
315  ,1.333e+10   ,2.5  ,1.936  ,4.9
316  ,6.110e+08   ,2.5  ,-2.4  ,4.7
317  ,9.640e+08   ,2.5  ,-2.4  ,4.5
318  ,1.302e+09   ,2.5  ,-2.4  ,4.3
319  ,1.280e+09   ,2.5  ,-2.4  ,4.1
320  ,1.186e+09   ,2.5  ,-2.4  ,3.9
321  ,1.026e+09   ,2.5  ,-2.4  ,3.7
322  ,1.020e+09   ,2.5  ,-2.4  ,3.5
323  ,1.218e+09   ,2.5  ,-2.4  ,3.3
324  ,1.155e+09   ,2.5  ,-2.4  ,3.1
325  ,9.605e+08   ,2.5  ,-2.4  ,2.9
326  ,9.250e+08   ,2.5  ,-2.4  ,2.7
327  ,8.481e+08   ,2.5  ,-2.4  ,2.5
328  ,7.148e+08   ,2.5  ,-2.4  ,2.3
329  ,5.284e+08   ,2.5  ,-2.4  ,2.1
330  ,2.280e+08   ,2.5  ,-2.4  ,1.9
331  ,3.389e+08   ,2.5  ,-2.4  ,1.7
332  ,6.011e+08   ,2.5  ,-2.4  ,1.5
333  ,9.036e+08   ,2.5  ,-2.4  ,1.3
334  ,8.863e+08   ,2.5  ,-2.4  ,1.1
335  ,7.494e+08   ,2.5  ,-2.4  ,0.9
336  ,7.085e+08   ,2.5  ,-2.4  ,0.7
337  ,9.355e+08   ,2.5  ,-2.4  ,0.5
338  ,9.810e+08   ,2.5  ,-2.4  ,0.3
339  ,6.621e+08   ,2.5  ,-2.2  ,0.1
340  ,5.893e+08   ,2.5  ,-2  ,0.1
341  ,5.187e+08   ,2.5  ,-1.8  ,0.1
342  ,5.437e+08   ,2.5  ,-1.6  ,0.1
343  ,4.475e+08   ,2.5  ,-1.4  ,0.1
344  ,3.263e+08   ,2.5  ,-1.2  ,0.1
345  ,2.902e+08   ,2.5  ,-1  ,0.1
346  ,2.441e+08   ,2.5  ,-0.8  ,0.1
347  ,3.857e+08   ,2.5  ,-0.6  ,0.1
348  ,5.090e+08   ,2.5  ,-0.4  ,0.1
349  ,6.148e+08   ,2.5  ,-0.2  ,0.1
350  ,6.495e+08   ,2.5  ,-1.7664E-15  ,0.1
351  ,7.274e+08   ,2.5  ,0.2  ,0.1
352  ,8.879e+08   ,2.5  ,0.4  ,0.1
353  ,8.429e+08   ,2.5  ,0.6  ,0.1
354  ,1.069e+09   ,2.5  ,0.8  ,0.1
355  ,8.163e+08   ,2.5  ,1  ,0.1
356  ,6.721e+08   ,2.5  ,1.2  ,0.1
357  ,6.369e+08   ,2.5  ,1.4  ,0.1
358  ,5.720e+08   ,2.5  ,1.6  ,0.1
359  ,4.315e+08   ,2.5  ,1.8  ,0.1
360  ,3.634e+08   ,2.5  ,2  ,0.1
361  ,2.951e+08   ,2.5  ,2.2  ,0.1
362  ,1.392e+10   ,2.5  ,2.4  ,4.436
363  ,8.423e+09   ,2.5  ,2.4  ,4.2389
364  ,4.779e+09   ,2.5  ,2.4  ,4.0418
365  ,3.747e+09   ,2.5  ,2.4  ,3.8447
366  ,2.707e+09   ,2.5  ,2.4  ,3.6476
367  ,2.657e+09   ,2.5  ,2.4  ,3.4505
368  ,2.828e+09   ,2.5  ,2.4  ,3.2535
369  ,2.295e+09   ,2.5  ,2.4  ,3.0564
370  ,1.788e+09   ,2.5  ,2.4  ,2.8593
371  ,1.645e+09   ,2.5  ,2.4  ,2.6622
372  ,1.559e+09   ,2.5  ,2.4  ,2.4651
373  ,1.191e+09   ,2.5  ,2.4  ,2.268
374  ,1.082e+09   ,2.5  ,2.4  ,2.0709
375  ,1.046e+09   ,2.5  ,2.4  ,1.8738
376  ,1.078e+09   ,2.5  ,2.4  ,1.6767
377  ,7.112e+08   ,2.5  ,2.4  ,1.4796
378  ,6.852e+08   ,2.5  ,2.4  ,1.2825
379  ,6.287e+08   ,2.5  ,2.4  ,1.0855
380  ,6.112e+08   ,2.5  ,2.4  ,0.88836
381  ,4.817e+08   ,2.5  ,2.4  ,0.69127
382  ,2.956e+08   ,2.5  ,2.4  ,0.49418
383  ,1.666e+08   ,2.5  ,2.4  ,0.29709
384  ,1.710e+10   ,2.5  ,2.2665  ,4.7665
544  ,2.680e+08   ,2.2  ,2.5  ,0.1
545  ,3.658e+08   ,2  ,2.5  ,0.1
546  ,4.000e+08   ,1.8  ,2.5  ,0.1
547  ,4.667e+08   ,1.6  ,2.5  ,0.1
548  ,4.838e+08   ,1.4  ,2.5  ,0.1
549  ,5.849e+08   ,1.2  ,2.5  ,0.1
550  ,6.545e+08   ,1  ,2.5  ,0.1
551  ,9.352e+08   ,0.8  ,2.5  ,0.1
552  ,8.211e+08   ,0.6  ,2.5  ,0.1
553  ,7.636e+08   ,0.4  ,2.5  ,0.1
554  ,8.318e+08   ,0.2  ,2.5  ,0.1
555  ,9.333e+08   ,5.8879E-16  ,2.5  ,0.1
556  ,1.003e+09   ,-0.2  ,2.5  ,0.1
557  ,8.896e+08   ,-0.4  ,2.5  ,0.1
558  ,7.027e+08   ,-0.6  ,2.5  ,0.1
559  ,4.145e+08   ,-0.8  ,2.5  ,0.1
560  ,5.395e+08   ,-1  ,2.5  ,0.1
561  ,5.527e+08   ,-1.2  ,2.5  ,0.1
562  ,4.969e+08   ,-1.4  ,2.5  ,0.1
563  ,4.311e+08   ,-1.6  ,2.5  ,0.1
564  ,4.684e+08   ,-1.8  ,2.5  ,0.1
565  ,5.534e+08   ,-2  ,2.5  ,0.1
566  ,7.820e+08   ,-2.2  ,2.5  ,0.1
567  ,2.839e+08   ,-2.4  ,2.5  ,4.7
568  ,3.436e+08   ,-2.4  ,2.5  ,4.5
569  ,3.622e+08   ,-2.4  ,2.5  ,4.3
570  ,4.009e+08   ,-2.4  ,2.5  ,4.1
571  ,4.835e+08   ,-2.4  ,2.5  ,3.9
572  ,5.667e+08   ,-2.4  ,2.5  ,3.7
573  ,6.836e+08   ,-2.4  ,2.5  ,3.5
574  ,9.440e+08   ,-2.4  ,2.5  ,3.3
575  ,7.982e+08   ,-2.4  ,2.5  ,3.1
576  ,7.518e+08   ,-2.4  ,2.5  ,2.9
577  ,6.935e+08   ,-2.4  ,2.5  ,2.7
578  ,7.908e+08   ,-2.4  ,2.5  ,2.5
579  ,7.317e+08   ,-2.4  ,2.5  ,2.3
580  ,7.750e+08   ,-2.4  ,2.5  ,2.1
581  ,6.094e+08   ,-2.4  ,2.5  ,1.9
582  ,3.134e+08   ,-2.4  ,2.5  ,1.7
583  ,4.668e+08   ,-2.4  ,2.5  ,1.5
584  ,4.733e+08   ,-2.4  ,2.5  ,1.3
585  ,4.774e+08   ,-2.4  ,2.5  ,1.1
586  ,4.698e+08   ,-2.4  ,2.5  ,0.9
587  ,4.584e+08   ,-2.4  ,2.5  ,0.7
588  ,6.058e+08   ,-2.4  ,2.5  ,0.5
589  ,7.545e+08   ,-2.4  ,2.5  ,0.3
590  ,1.372e+10   ,1.936  ,2.5  ,4.9
591  ,6.098e+09   ,1.7389  ,2.5  ,4.9
592  ,4.899e+09   ,1.5418  ,2.5  ,4.9
593  ,3.720e+09   ,1.3447  ,2.5  ,4.9
594  ,2.785e+09   ,1.1476  ,2.5  ,4.9
595  ,2.794e+09   ,0.95055  ,2.5  ,4.9
596  ,2.394e+09   ,0.75346  ,2.5  ,4.9
597  ,1.964e+09   ,0.55637  ,2.5  ,4.9
598  ,2.018e+09   ,0.35927  ,2.5  ,4.9
599  ,1.656e+09   ,0.16218  ,2.5  ,4.9
600  ,1.401e+09   ,-0.034907  ,2.5  ,4.9
601  ,1.227e+09   ,-0.232  ,2.5  ,4.9
602  ,1.287e+09   ,-0.42909  ,2.5  ,4.9
603  ,1.248e+09   ,-0.62618  ,2.5  ,4.9
604  ,1.101e+09   ,-0.82327  ,2.5  ,4.9
605  ,1.087e+09   ,-1.0204  ,2.5  ,4.9
606  ,9.925e+08   ,-1.2175  ,2.5  ,4.9
607  ,8.268e+08   ,-1.4145  ,2.5  ,4.9
608  ,6.102e+08   ,-1.6116  ,2.5  ,4.9
609  ,4.098e+08   ,-1.8087  ,2.5  ,4.9
610  ,2.888e+08   ,-2.0058  ,2.5  ,4.9
611  ,2.072e+08   ,-2.2029  ,2.5  ,4.9
612  ,1.712e+10   ,2.2665  ,2.5  ,4.7665
613  ,1.190e+10   ,2.4  ,2.5  ,4.436
614  ,7.162e+09   ,2.4  ,2.5  ,4.2389
615  ,4.823e+09   ,2.4  ,2.5  ,4.0418
616  ,3.498e+09   ,2.4  ,2.5  ,3.8447
617  ,2.944e+09   ,2.4  ,2.5  ,3.6476
618  ,2.787e+09   ,2.4  ,2.5  ,3.4505
619  ,2.855e+09   ,2.4  ,2.5  ,3.2535
620  ,2.310e+09   ,2.4  ,2.5  ,3.0564
621  ,1.893e+09   ,2.4  ,2.5  ,2.8593
622  ,1.632e+09   ,2.4  ,2.5  ,2.6622
623  ,1.276e+09   ,2.4  ,2.5  ,2.4651
624  ,1.139e+09   ,2.4  ,2.5  ,2.268
625  ,9.669e+08   ,2.4  ,2.5  ,2.0709
626  ,1.066e+09   ,2.4  ,2.5  ,1.8738
627  ,1.181e+09   ,2.4  ,2.5  ,1.6767
628  ,1.055e+09   ,2.4  ,2.5  ,1.4796
629  ,8.974e+08   ,2.4  ,2.5  ,1.2825
630  ,6.158e+08   ,2.4  ,2.5  ,1.0855
631  ,4.607e+08   ,2.4  ,2.5  ,0.88836
632  ,3.524e+08   ,2.4  ,2.5  ,0.69127
633  ,3.054e+08   ,2.4  ,2.5  ,0.49418
634  ,1.703e+08   ,2.4  ,2.5  ,0.29709
796  ,3.307e+08   ,-2.5  ,2.2  ,0.1
797  ,5.146e+08   ,-2.5  ,2  ,0.1
798  ,6.222e+08   ,-2.5  ,1.8  ,0.1
799  ,7.175e+08   ,-2.5  ,1.6  ,0.1
800  ,7.619e+08   ,-2.5  ,1.4  ,0.1
801  ,7.386e+08   ,-2.5  ,1.2  ,0.1
802  ,6.911e+08   ,-2.5  ,1  ,0.1
803  ,4.913e+08   ,-2.5  ,0.8  ,0.1
804  ,4.526e+08   ,-2.5  ,0.6  ,0.1
805  ,4.592e+08   ,-2.5  ,0.4  ,0.1
806  ,4.731e+08   ,-2.5  ,0.2  ,0.1
807  ,4.743e+08   ,-2.5  ,5.8879E-16  ,0.1
808  ,4.150e+08   ,-2.5  ,-0.2  ,0.1
809  ,3.409e+08   ,-2.5  ,-0.4  ,0.1
810  ,3.153e+08   ,-2.5  ,-0.6  ,0.1
811  ,2.709e+08   ,-2.5  ,-0.8  ,0.1
812  ,1.970e+08   ,-2.5  ,-1  ,0.1
813  ,1.046e+08   ,-2.5  ,-1.2  ,0.1
814  ,4.737e+07   ,-2.5  ,-1.4  ,0.1
815  ,4.586e+07   ,-2.5  ,-1.6  ,0.1
816  ,6.866e+07   ,-2.5  ,-1.8  ,0.1
817  ,4.050e+07   ,-2.5  ,-2  ,0.1
818  ,1.617e+07   ,-2.5  ,-2.2  ,0.1
819  ,3.754e+08   ,-2.5  ,-2.4  ,4.7
820  ,4.941e+08   ,-2.5  ,-2.4  ,4.5
821  ,8.316e+08   ,-2.5  ,-2.4  ,4.3
822  ,1.136e+09   ,-2.5  ,-2.4  ,4.1
823  ,1.019e+09   ,-2.5  ,-2.4  ,3.9
824  ,8.217e+08   ,-2.5  ,-2.4  ,3.7
825  ,4.792e+08   ,-2.5  ,-2.4  ,3.5
826  ,1.213e+08   ,-2.5  ,-2.4  ,3.3
827  ,2.430e+08   ,-2.5  ,-2.4  ,3.1
828  ,5.105e+08   ,-2.5  ,-2.4  ,2.9
829  ,5.115e+08   ,-2.5  ,-2.4  ,2.7
830  ,3.800e+08   ,-2.5  ,-2.4  ,2.5
831  ,2.848e+08   ,-2.5  ,-2.4  ,2.3
832  ,2.392e+08   ,-2.5  ,-2.4  ,2.1
833  ,2.088e+08   ,-2.5  ,-2.4  ,1.9
834  ,2.255e+08   ,-2.5  ,-2.4  ,1.7
835  ,2.142e+08   ,-2.5  ,-2.4  ,1.5
836  ,1.363e+08   ,-2.5  ,-2.4  ,1.3
837  ,1.198e+08   ,-2.5  ,-2.4  ,1.1
838  ,1.017e+08   ,-2.5  ,-2.4  ,0.9
839  ,8.165e+07   ,-2.5  ,-2.4  ,0.7
840  ,4.267e+07   ,-2.5  ,-2.4  ,0.5
841  ,1.712e+07   ,-2.5  ,-2.4  ,0.3
842  ,3.918e+08   ,-2.5  ,2.2  ,4.9
843  ,4.472e+08   ,-2.5  ,2  ,4.9
844  ,4.434e+08   ,-2.5  ,1.8  ,4.9
845  ,4.805e+08   ,-2.5  ,1.6  ,4.9
846  ,5.702e+08   ,-2.5  ,1.4  ,4.9
847  ,6.449e+08   ,-2.5  ,1.2  ,4.9
848  ,7.831e+08   ,-2.5  ,1  ,4.9
849  ,1.154e+09   ,-2.5  ,0.8  ,4.9
850  ,8.286e+08   ,-2.5  ,0.6  ,4.9
851  ,7.401e+08   ,-2.5  ,0.4  ,4.9
852  ,7.495e+08   ,-2.5  ,0.2  ,4.9
853  ,7.380e+08   ,-2.5  ,5.8879E-16  ,4.9
854  ,6.383e+08   ,-2.5  ,-0.2  ,4.9
855  ,4.811e+08   ,-2.5  ,-0.4  ,4.9
856  ,4.062e+08   ,-2.5  ,-0.6  ,4.9
857  ,4.057e+08   ,-2.5  ,-0.8  ,4.9
858  ,3.285e+08   ,-2.5  ,-1  ,4.9
859  ,3.387e+08   ,-2.5  ,-1.2  ,4.9
860  ,4.165e+08   ,-2.5  ,-1.4  ,4.9
861  ,4.329e+08   ,-2.5  ,-1.6  ,4.9
862  ,4.536e+08   ,-2.5  ,-1.8  ,4.9
863  ,5.274e+08   ,-2.5  ,-2  ,4.9
864  ,5.524e+08   ,-2.5  ,-2.2  ,4.9
865  ,3.623e+08   ,-2.5  ,2.4  ,4.7
866  ,4.331e+08   ,-2.5  ,2.4  ,4.5
867  ,5.313e+08   ,-2.5  ,2.4  ,4.3
868  ,4.449e+08   ,-2.5  ,2.4  ,4.1
869  ,6.702e+08   ,-2.5  ,2.4  ,3.9
870  ,6.921e+08   ,-2.5  ,2.4  ,3.7
871  ,7.665e+08   ,-2.5  ,2.4  ,3.5
872  ,9.267e+08   ,-2.5  ,2.4  ,3.3
873  ,8.156e+08   ,-2.5  ,2.4  ,3.1
874  ,7.857e+08   ,-2.5  ,2.4  ,2.9
875  ,7.474e+08   ,-2.5  ,2.4  ,2.7
876  ,7.790e+08   ,-2.5  ,2.4  ,2.5
877  ,6.348e+08   ,-2.5  ,2.4  ,2.3
878  ,5.904e+08   ,-2.5  ,2.4  ,2.1
879  ,4.390e+08   ,-2.5  ,2.4  ,1.9
880  ,2.947e+08   ,-2.5  ,2.4  ,1.7
881  ,2.815e+08   ,-2.5  ,2.4  ,1.5
882  ,2.924e+08   ,-2.5  ,2.4  ,1.3
883  ,3.058e+08   ,-2.5  ,2.4  ,1.1
884  ,3.034e+08   ,-2.5  ,2.4  ,0.9
885  ,3.382e+08   ,-2.5  ,2.4  ,0.7
886  ,4.389e+08   ,-2.5  ,2.4  ,0.5
887  ,4.513e+08   ,-2.5  ,2.4  ,0.3
1044  ,3.578e+07   ,-2.3  ,-2.5  ,0.44697
1045  ,6.087e+07   ,-2.3  ,-2.5  ,0.68705
1046  ,1.039e+08   ,-2.3  ,-2.5  ,0.92554
1047  ,1.525e+08   ,-2.3  ,-2.5  ,1.1682
1048  ,1.834e+08   ,-2.3  ,-2.5  ,1.4148
1049  ,1.992e+08   ,-2.3  ,-2.5  ,1.6581
1050  ,1.745e+08   ,-2.3  ,-2.5  ,1.8967
1051  ,2.735e+08   ,-2.3  ,-2.5  ,2.1357
1052  ,3.516e+08   ,-2.3  ,-2.5  ,2.3794
1053  ,3.616e+08   ,-2.3  ,-2.5  ,2.6206
1054  ,4.389e+08   ,-2.3  ,-2.5  ,2.8643
1055  ,8.059e+08   ,-2.3  ,-2.5  ,3.1033
1056  ,7.824e+08   ,-2.3  ,-2.5  ,3.342
1057  ,2.378e+08   ,-2.3  ,-2.5  ,3.5852
1058  ,3.313e+08   ,-2.3  ,-2.5  ,3.8318
1059  ,5.315e+08   ,-2.3  ,-2.5  ,4.0745
1060  ,5.646e+08   ,-2.3  ,-2.5  ,4.3129
1061  ,4.707e+08   ,-2.3  ,-2.5  ,4.553
1062  ,1.248e+09   ,-2.053  ,-2.5  ,4.8
1063  ,8.696e+08   ,-1.8129  ,-2.5  ,4.8
1064  ,6.312e+08   ,-1.5745  ,-2.5  ,4.8
1065  ,5.345e+08   ,-1.3318  ,-2.5  ,4.8
1066  ,5.157e+08   ,-1.0852  ,-2.5  ,4.8
1067  ,3.860e+08   ,-0.84195  ,-2.5  ,4.8
1068  ,2.940e+08   ,-0.60329  ,-2.5  ,4.8
1069  ,3.264e+08   ,-0.3643  ,-2.5  ,4.8
1070  ,6.042e+08   ,-0.12055  ,-2.5  ,4.8
1071  ,8.485e+08   ,0.12056  ,-2.5  ,4.8
1072  ,9.763e+08   ,0.3643  ,-2.5  ,4.8
1073  ,7.948e+08   ,0.6033  ,-2.5  ,4.8
1074  ,1.192e+09   ,0.84195  ,-2.5  ,4.8
1075  ,1.319e+09   ,1.0852  ,-2.5  ,4.8
1076  ,1.021e+09   ,1.3318  ,-2.5  ,4.8
1077  ,8.533e+08   ,1.5745  ,-2.5  ,4.8
1078  ,6.495e+08   ,1.8129  ,-2.5  ,4.8
1079  ,9.884e+08   ,2.053  ,-2.5  ,4.8
1080  ,8.964e+08   ,2.3  ,-2.5  ,4.553
1081  ,5.893e+08   ,2.3  ,-2.5  ,4.3129
1082  ,7.830e+08   ,2.3  ,-2.5  ,4.0745
1083  ,1.038e+09   ,2.3  ,-2.5  ,3.8318
1084  ,1.310e+09   ,2.3  ,-2.5  ,3.5852
1085  ,1.201e+09   ,2.3  ,-2.5  ,3.3419
1086  ,8.744e+08   ,2.3  ,-2.5  ,3.1033
1087  ,1.008e+09   ,2.3  ,-2.5  ,2.8643
1088  ,9.605e+08   ,2.3  ,-2.5  ,2.6206
1089  ,7.071e+08   ,2.3  ,-2.5  ,2.3794
1090  ,4.887e+08   ,2.3  ,-2.5  ,2.1357
1091  ,2.966e+08   ,2.3  ,-2.5  ,1.8967
1092  ,3.386e+08   ,2.3  ,-2.5  ,1.658
1093  ,5.059e+08   ,2.3  ,-2.5  ,1.4148
1094  ,5.554e+08   ,2.3  ,-2.5  ,1.1682
1095  ,6.672e+08   ,2.3  ,-2.5  ,0.92554
1096  ,8.997e+08   ,2.3  ,-2.5  ,0.68705
1097  ,1.105e+09   ,2.3  ,-2.5  ,0.44697
1098  ,3.257e+07   ,-2.053  ,-2.5  ,0.2
1099  ,5.909e+07   ,-1.8129  ,-2.5  ,0.2
1100  ,8.988e+07   ,-1.5745  ,-2.5  ,0.2
1101  ,1.260e+08   ,-1.3318  ,-2.5  ,0.2
1102  ,1.552e+08   ,-1.0852  ,-2.5  ,0.2
1103  ,1.905e+08   ,-0.84195  ,-2.5  ,0.2
1104  ,2.358e+08   ,-0.60329  ,-2.5  ,0.2
1105  ,3.026e+08   ,-0.3643  ,-2.5  ,0.2
1106  ,3.759e+08   ,-0.12055  ,-2.5  ,0.2
1107  ,3.833e+08   ,0.12056  ,-2.5  ,0.2
1108  ,4.332e+08   ,0.3643  ,-2.5  ,0.2
1109  ,7.882e+08   ,0.6033  ,-2.5  ,0.2
1110  ,7.351e+08   ,0.84195  ,-2.5  ,0.2
1111  ,1.685e+08   ,1.0852  ,-2.5  ,0.2
1112  ,3.081e+08   ,1.3318  ,-2.5  ,0.2
1113  ,4.696e+08   ,1.5745  ,-2.5  ,0.2
1114  ,5.708e+08   ,1.8129  ,-2.5  ,0.2
1115  ,4.424e+08   ,2.053  ,-2.5  ,0.2
1116  ,8.070e+08   ,-2.2  ,-2.5  ,4.9
1117  ,2.751e+08   ,-2  ,-2.5  ,4.9
1118  ,5.012e+08   ,-1.8  ,-2.5  ,4.9
1119  ,7.225e+08   ,-1.6  ,-2.5  ,4.9
1120  ,7.138e+08   ,-1.4  ,-2.5  ,4.9
1121  ,5.344e+08   ,-1.2  ,-2.5  ,4.9
1122  ,2.364e+08   ,-1  ,-2.5  ,4.9
1123  ,2.200e+08   ,-0.8  ,-2.5  ,4.9
1124  ,3.566e+08   ,-0.6  ,-2.5  ,4.9
1125  ,4.615e+08   ,-0.4  ,-2.5  ,4.9
1126  ,6.297e+08   ,-0.2  ,-2.5  ,4.9
1127  ,7.372e+08   ,-1.7664E-15  ,-2.5  ,4.9
1128  ,8.570e+08   ,0.2  ,-2.5  ,4.9
1129  ,9.466e+08   ,0.4  ,-2.5  ,4.9
1130  ,9.652e+08   ,0.6  ,-2.5  ,4.9
1131  ,1.177e+09   ,0.8  ,-2.5  ,4.9
1132  ,1.165e+09   ,1  ,-2.5  ,4.9
1133  ,1.183e+09   ,1.2  ,-2.5  ,4.9
1134  ,1.194e+09   ,1.4  ,-2.5  ,4.9
1135  ,1.173e+09   ,1.6  ,-2.5  ,4.9
1136  ,1.146e+09   ,1.8  ,-2.5  ,4.9
1137  ,1.061e+09   ,2  ,-2.5  ,4.9
1138  ,1.044e+09   ,2.2  ,-2.5  ,4.9
1139  ,7.664e+08   ,-2.4  ,-2.5  ,4.7
1140  ,4.152e+08   ,-2.4  ,-2.5  ,4.5
1141  ,2.969e+08   ,-2.4  ,-2.5  ,4.3
1142  ,2.734e+08   ,-2.4  ,-2.5  ,4.1
1143  ,4.210e+08   ,-2.4  ,-2.5  ,3.9
1144  ,5.427e+08   ,-2.4  ,-2.5  ,3.7
1145  ,5.319e+08   ,-2.4  ,-2.5  ,3.5
1146  ,4.168e+08   ,-2.4  ,-2.5  ,3.3
1147  ,5.935e+08   ,-2.4  ,-2.5  ,3.1
1148  ,5.722e+08   ,-2.4  ,-2.5  ,2.9
1149  ,5.010e+08   ,-2.4  ,-2.5  ,2.7
1150  ,3.645e+08   ,-2.4  ,-2.5  ,2.5
1151  ,2.856e+08   ,-2.4  ,-2.5  ,2.3
1152  ,2.475e+08   ,-2.4  ,-2.5  ,2.1
1153  ,2.094e+08   ,-2.4  ,-2.5  ,1.9
1154  ,2.063e+08   ,-2.4  ,-2.5  ,1.7
1155  ,2.017e+08   ,-2.4  ,-2.5  ,1.5
1156  ,1.435e+08   ,-2.4  ,-2.5  ,1.3
1157  ,1.322e+08   ,-2.4  ,-2.5  ,1.1
1158  ,1.001e+08   ,-2.4  ,-2.5  ,0.9
1159  ,6.196e+07   ,-2.4  ,-2.5  ,0.7
1160  ,2.385e+07   ,-2.4  ,-2.5  ,0.5
1161  ,1.305e+07   ,-2.4  ,-2.5  ,0.3
1162  ,1.348e+07   ,-2.2  ,-2.5  ,0.1
1163  ,3.398e+07   ,-2  ,-2.5  ,0.1
1164  ,4.418e+07   ,-1.8  ,-2.5  ,0.1
1165  ,7.123e+07   ,-1.6  ,-2.5  ,0.1
1166  ,1.252e+08   ,-1.4  ,-2.5  ,0.1
1167  ,1.713e+08   ,-1.2  ,-2.5  ,0.1
1168  ,1.816e+08   ,-1  ,-2.5  ,0.1
1169  ,2.106e+08   ,-0.8  ,-2.5  ,0.1
1170  ,2.520e+08   ,-0.6  ,-2.5  ,0.1
1171  ,2.988e+08   ,-0.4  ,-2.5  ,0.1
1172  ,3.319e+08   ,-0.2  ,-2.5  ,0.1
1173  ,3.648e+08   ,-1.7664E-15  ,-2.5  ,0.1
1174  ,4.817e+08   ,0.2  ,-2.5  ,0.1
1175  ,5.613e+08   ,0.4  ,-2.5  ,0.1
1176  ,5.355e+08   ,0.6  ,-2.5  ,0.1
1177  ,4.607e+08   ,0.8  ,-2.5  ,0.1
1178  ,4.995e+08   ,1  ,-2.5  ,0.1
1179  ,4.617e+08   ,1.2  ,-2.5  ,0.1
1180  ,3.917e+08   ,1.4  ,-2.5  ,0.1
1181  ,3.740e+08   ,1.6  ,-2.5  ,0.1
1182  ,4.195e+08   ,1.8  ,-2.5  ,0.1
1183  ,4.163e+08   ,2  ,-2.5  ,0.1
1184  ,7.200e+08   ,2.2  ,-2.5  ,0.1
1185  ,8.962e+08   ,2.4  ,-2.5  ,4.7
1186  ,8.909e+08   ,2.4  ,-2.5  ,4.5
1187  ,9.748e+08   ,2.4  ,-2.5  ,4.3
1188  ,1.026e+09   ,2.4  ,-2.5  ,4.1
1189  ,1.162e+09   ,2.4  ,-2.5  ,3.9
1190  ,1.181e+09   ,2.4  ,-2.5  ,3.7
1191  ,1.204e+09   ,2.4  ,-2.5  ,3.5
1192  ,1.201e+09   ,2.4  ,-2.5  ,3.3
1193  ,1.091e+09   ,2.4  ,-2.5  ,3.1
1194  ,1.052e+09   ,2.4  ,-2.5  ,2.9
1195  ,9.847e+08   ,2.4  ,-2.5  ,2.7
1196  ,8.680e+08   ,2.4  ,-2.5  ,2.5
1197  ,7.650e+08   ,2.4  ,-2.5  ,2.3
1198  ,5.426e+08   ,2.4  ,-2.5  ,2.1
1199  ,3.309e+08   ,2.4  ,-2.5  ,1.9
1200  ,1.419e+08   ,2.4  ,-2.5  ,1.7
1201  ,3.065e+08   ,2.4  ,-2.5  ,1.5
1202  ,6.894e+08   ,2.4  ,-2.5  ,1.3
1203  ,7.196e+08   ,2.4  ,-2.5  ,1.1
1204  ,5.586e+08   ,2.4  ,-2.5  ,0.9
1205  ,3.590e+08   ,2.4  ,-2.5  ,0.7
1206  ,2.305e+08   ,2.4  ,-2.5  ,0.5
1207  ,6.837e+08   ,2.4  ,-2.5  ,0.3
1208  ,4.978e+08   ,2.4  ,-2.2  ,0
1209  ,5.083e+08   ,2.4  ,-2  ,0
1210  ,4.385e+08   ,2.4  ,-1.8  ,0
1211  ,4.164e+08   ,2.4  ,-1.6  ,0
1212  ,3.822e+08   ,2.4  ,-1.4  ,0
1213  ,2.728e+08   ,2.4  ,-1.2  ,0
1214  ,2.968e+08   ,2.4  ,-1  ,0
1215  ,4.055e+08   ,2.4  ,-0.8  ,0
1216  ,4.164e+08   ,2.4  ,-0.6  ,0
1217  ,4.645e+08   ,2.4  ,-0.4  ,0
1218  ,6.239e+08   ,2.4  ,-0.2  ,0
1219  ,6.626e+08   ,2.4  ,-1.7664E-15  ,0
1220  ,7.751e+08   ,2.4  ,0.2  ,0
1221  ,7.368e+08   ,2.4  ,0.4  ,0
1222  ,7.290e+08   ,2.4  ,0.6  ,0
1223  ,1.073e+09   ,2.4  ,0.8  ,0
1224  ,8.354e+08   ,2.4  ,1  ,0
1225  ,7.121e+08   ,2.4  ,1.2  ,0
1226  ,5.909e+08   ,2.4  ,1.4  ,0
1227  ,4.331e+08   ,2.4  ,1.6  ,0
1228  ,4.528e+08   ,2.4  ,1.8  ,0
1229  ,4.062e+08   ,2.4  ,2  ,0
1230  ,3.871e+08   ,2.4  ,2.2  ,0
1231  ,1.384e+07   ,-2.2  ,-2.4  ,0
1232  ,2.922e+07   ,-2  ,-2.4  ,0
1233  ,3.277e+07   ,-1.8  ,-2.4  ,0
1234  ,7.344e+07   ,-1.6  ,-2.4  ,0
1235  ,1.436e+08   ,-1.4  ,-2.4  ,0
1236  ,1.903e+08   ,-1.2  ,-2.4  ,0
1237  ,1.935e+08   ,-1  ,-2.4  ,0
1238  ,2.168e+08   ,-0.8  ,-2.4  ,0
1239  ,2.711e+08   ,-0.6  ,-2.4  ,0
1240  ,3.245e+08   ,-0.4  ,-2.4  ,0
1241  ,3.339e+08   ,-0.2  ,-2.4  ,0
1242  ,3.789e+08   ,5.8879E-16  ,-2.4  ,0
1243  ,5.221e+08   ,0.2  ,-2.4  ,0
1244  ,4.705e+08   ,0.4  ,-2.4  ,0
1245  ,2.193e+08   ,0.6  ,-2.4  ,0
1246  ,1.371e+08   ,0.8  ,-2.4  ,0
1247  ,5.389e+08   ,1  ,-2.4  ,0
1248  ,8.737e+08   ,1.2  ,-2.4  ,0
1249  ,1.031e+09   ,1.4  ,-2.4  ,0
1250  ,1.111e+09   ,1.6  ,-2.4  ,0
1251  ,9.295e+08   ,1.8  ,-2.4  ,0
1252  ,6.384e+08   ,2  ,-2.4  ,0
1253  ,4.744e+08   ,2.2  ,-2.4  ,0
1254  ,3.704e+08   ,-2.4  ,2.2  ,0
1255  ,4.882e+08   ,-2.4  ,2  ,0
1256  ,6.020e+08   ,-2.4  ,1.8  ,0
1257  ,6.669e+08   ,-2.4  ,1.6  ,0
1258  ,7.583e+08   ,-2.4  ,1.4  ,0
1259  ,7.677e+08   ,-2.4  ,1.2  ,0
1260  ,6.942e+08   ,-2.4  ,1  ,0
1261  ,4.942e+08   ,-2.4  ,0.8  ,0
1262  ,4.403e+08   ,-2.4  ,0.6  ,0
1263  ,4.472e+08   ,-2.4  ,0.4  ,0
1264  ,4.673e+08   ,-2.4  ,0.2  ,0
1265  ,4.748e+08   ,-2.4  ,5.8879E-16  ,0
1266  ,4.361e+08   ,-2.4  ,-0.2  ,0
1267  ,3.581e+08   ,-2.4  ,-0.4  ,0
1268  ,3.144e+08   ,-2.4  ,-0.6  ,0
1269  ,2.600e+08   ,-2.4  ,-0.8  ,0
1270  ,1.697e+08   ,-2.4  ,-1  ,0
1271  ,8.333e+07   ,-2.4  ,-1.2  ,0
1272  ,5.481e+07   ,-2.4  ,-1.4  ,0
1273  ,7.624e+07   ,-2.4  ,-1.6  ,0
1274  ,8.279e+07   ,-2.4  ,-1.8  ,0
1275  ,5.067e+07   ,-2.4  ,-2  ,0
1276  ,1.192e+07   ,-2.4  ,-2.2  ,0
1277  ,3.160e+08   ,2.2  ,2.4  ,0
1278  ,3.857e+08   ,2  ,2.4  ,0
1279  ,4.676e+08   ,1.8  ,2.4  ,0
1280  ,4.655e+08   ,1.6  ,2.4  ,0
1281  ,5.255e+08   ,1.4  ,2.4  ,0
1282  ,6.785e+08   ,1.2  ,2.4  ,0
1283  ,8.115e+08   ,1  ,2.4  ,0
1284  ,8.956e+08   ,0.8  ,2.4  ,0
1285  ,8.161e+08   ,0.6  ,2.4  ,0
1286  ,6.337e+08   ,0.4  ,2.4  ,0
1287  ,7.373e+08   ,0.2  ,2.4  ,0
1288  ,8.567e+08   ,5.8879E-16  ,2.4  ,0
1289  ,1.042e+09   ,-0.2  ,2.4  ,0
1290  ,9.273e+08   ,-0.4  ,2.4  ,0
1291  ,6.546e+08   ,-0.6  ,2.4  ,0
1292  ,3.979e+08   ,-0.8  ,2.4  ,0
1293  ,2.679e+08   ,-1  ,2.4  ,0
1294  ,2.919e+08   ,-1.2  ,2.4  ,0
1295  ,3.040e+08   ,-1.4  ,2.4  ,0
1296  ,2.656e+08   ,-1.6  ,2.4  ,0
1297  ,3.057e+08   ,-1.8  ,2.4  ,0
1298  ,3.935e+08   ,-2  ,2.4  ,0
1299  ,4.766e+08   ,-2.2  ,2.4  ,0
1460  ,1.201e+10   ,2.3243  ,2.3243  ,4.9577
1461  ,1.112e+10   ,2.4577  ,2.3243  ,4.8243
1462  ,8.218e+09   ,2.3243  ,2.4577  ,4.8243
1463  ,8.616e+08   ,-2.3  ,-2.1759  ,4.8
1464  ,5.403e+08   ,-2.3  ,-1.7631  ,4.8
1465  ,1.040e+09   ,-2.3  ,-1.1827  ,4.8
1466  ,1.347e+09   ,-2.3  ,-0.34986  ,4.8
1467  ,1.256e+09   ,-2.3  ,0.80545  ,4.8
1468  ,1.398e+09   ,-0.81337  ,2.3  ,4.8
1469  ,3.889e+09   ,0.67326  ,2.3  ,4.8
1470  ,9.032e+08   ,2.3  ,-2.1824  ,4.8
1471  ,1.033e+09   ,2.3  ,-1.7784  ,4.8
1472  ,9.835e+08   ,2.3  ,-1.2138  ,4.8
1473  ,1.305e+09   ,2.3  ,-0.40752  ,4.8
1474  ,3.668e+09   ,2.3  ,0.70532  ,4.8
1516  ,1.335e+09   ,2.3  ,2.3  ,1.6866
1517  ,4.028e+09   ,2.3  ,2.3  ,3.1733
1518  ,7.858e+08   ,2.3  ,-2.1759  ,0.2
1519  ,5.109e+08   ,2.3  ,-1.7631  ,0.2
1520  ,1.009e+09   ,2.3  ,-1.1827  ,0.2
1521  ,1.365e+09   ,2.3  ,-0.34986  ,0.2
1522  ,1.191e+09   ,2.3  ,0.80545  ,0.2
1564  ,1.413e+09   ,-0.76667  ,2.3  ,0.2
1565  ,1.090e+09   ,0.76667  ,2.3  ,0.2
1566  ,1.480e+09   ,-2.3  ,2.3  ,1.7333
1567  ,1.109e+09   ,-2.3  ,2.3  ,3.2667
1574  ,2.004e+07   ,-2.3  ,-2.1759  ,0.2
1575  ,7.993e+07   ,-2.3  ,-1.7631  ,0.2
1576  ,1.246e+08   ,-2.3  ,-1.1827  ,0.2
1577  ,3.868e+08   ,-2.3  ,-0.34986  ,0.2
1578  ,2.907e+08   ,-2.3  ,0.80545  ,0.2
1777  ,1.253e+09   ,-0.52764  ,2.5  ,4.9
1801  ,5.356e+08   ,-2.3  ,1.5527  ,0.2
1825  ,1.211e+09   ,-1.5333  ,2.3  ,0.2
1841  ,1.557e+09   ,0.063638  ,2.5  ,4.9
1876  ,7.914e+08   ,-0.5  ,2.4  ,0
1894  ,1.268e+09   ,2.3  ,1.5527  ,0.2
1907  ,3.148e+08   ,2.1  ,2.5  ,0.1
1928  ,3.937e+08   ,1.9  ,2.4  ,0
1974  ,7.563e+08   ,2.4  ,1.1  ,0
1981  ,3.357e+08   ,2.4  ,2.5  ,0.59273
1987  ,6.270e+08   ,-2.5  ,2.4  ,4
2004  ,3.016e+08   ,-2.4  ,2.5  ,4.6
2009  ,6.202e+08   ,2.4  ,1.3  ,0
2020  ,7.344e+08   ,2.5  ,1.1  ,0.1
2035  ,2.802e+08   ,-2.3  ,-0.76628  ,0.2
2070  ,5.741e+09   ,1.6404  ,2.4  ,5
2081  ,1.015e+09   ,2.4  ,2.5  ,1.9724
2095  ,4.288e+08   ,2.4  ,2.5  ,0.78982
2138  ,4.596e+08   ,-2.4  ,-0.1  ,0
2146  ,1.013e+09   ,-0.92182  ,2.4  ,5
2174  ,7.219e+08   ,2.4  ,2.5  ,1.184
2190  ,6.342e+08   ,2.5  ,2.4  ,0.98691
2203  ,1.134e+09   ,2.5  ,-0.13345  ,4.9
2232  ,2.922e+09   ,2.3  ,0.1489  ,4.8
2242  ,2.119e+09   ,2.4  ,2.5  ,2.9578
2293  ,4.546e+08   ,-2.5  ,0.5  ,0.1
2311  ,3.486e+09   ,2.3  ,2.3  ,2.4299
2313  ,5.554e+08   ,2.5  ,2.4  ,0.78982
2329  ,1.035e+09   ,2.4  ,2.5  ,2.1695
2355  ,3.653e+08   ,-2.4  ,2.5  ,4.4
2380  ,3.990e+07   ,-2.5  ,-1.5  ,0.1
2383  ,1.961e+09   ,0.45782  ,2.5  ,4.9
2408  ,1.203e+09   ,2.3  ,-1.4961  ,4.8
2445  ,6.886e+08   ,2.5  ,-1.5131  ,4.9
2484  ,2.253e+08   ,-2.5  ,-2.4  ,1.6
2495  ,4.846e+08   ,-2.4  ,1.7  ,5
2508  ,7.490e+08   ,2.4  ,0.3  ,0
2514  ,1.728e+09   ,2.3  ,0.2278  ,0.2
2570  ,5.637e+08   ,-2.4  ,1.5  ,5
2580  ,5.884e+09   ,1.6404  ,2.5  ,4.9
2603  ,1.084e+09   ,-1.1189  ,2.5  ,4.9
2695  ,9.687e+08   ,2.3  ,2.3  ,0.94331
2705  ,9.924e+08   ,2.4  ,2.5  ,1.3811
2714  ,1.908e+09   ,2.5  ,0.45782  ,4.9
2734  ,3.423e+08   ,2.4  ,-0.9  ,0
2775  ,6.266e+08   ,2.5  ,-0.1  ,0.1
2779  ,6.282e+08   ,2.4  ,-0.1  ,0
2801  ,7.964e+09   ,1.4166  ,2.3  ,4.8
2814  ,4.260e+09   ,1.4433  ,2.5  ,4.9
2863  ,5.201e+08   ,-2.4  ,2.5  ,0.6
2884  ,4.726e+08   ,-2.4  ,2.5  ,0.8
2886  ,4.652e+08   ,-2.4  ,2.5  ,1.2
2967  ,4.104e+08   ,2.4  ,1.7  ,0
2973  ,5.975e+08   ,2.5  ,1.5  ,0.1
2987  ,8.961e+08   ,-0.3  ,2.5  ,0.1
3008  ,1.176e+09   ,-2.3  ,2.3  ,0.96667
3012  ,7.560e+08   ,-2.5  ,2.4  ,2.6
3021  ,7.214e+08   ,-2.5  ,2.4  ,2.8
3025  ,6.882e+08   ,-2.5  ,2.4  ,2.4
3030  ,7.466e+08   ,-2.4  ,2.5  ,2.4
3033  ,7.303e+08   ,-2.4  ,2.5  ,2.2
3047  ,1.139e+09   ,2.4  ,2.5  ,2.3665
3052  ,1.558e+09   ,2.5  ,2.4  ,2.5636
3061  ,1.418e+09   ,2.4  ,2.5  ,2.5636
3081  ,6.235e+08   ,-2.4  ,1.3  ,5
3088  ,3.287e+08   ,-1.9073  ,2.4  ,5
3099  ,4.892e+08   ,-2.4  ,1.9  ,5
3107  ,5.228e+08   ,-2.4  ,2.5  ,3.8
3139  ,6.457e+08   ,-1.5131  ,2.4  ,5
3145  ,7.174e+08   ,-1.5131  ,2.5  ,4.9
3148  ,5.116e+08   ,-1.7102  ,2.5  ,4.9
3168  ,7.183e+08   ,-2.4  ,1.5  ,0
3188  ,1.138e+08   ,-2.5  ,-2.4  ,1
3202  ,1.783e+09   ,0.26073  ,2.5  ,4.9
3212  ,6.294e+09   ,2.5  ,1.6404  ,4.9
3247  ,9.994e+09   ,2.5  ,1.8375  ,4.9
3265  ,8.205e+09   ,2.3  ,1.4326  ,4.8
3271  ,1.475e+10   ,2.2299  ,2.2299  ,4.8
3284  ,4.285e+09   ,2.4  ,1.4433  ,5
3291  ,4.381e+09   ,2.5  ,1.4433  ,4.9
3296  ,1.531e+09   ,-2.3  ,-0.76628  ,4.8
3303  ,3.505e+08   ,-2.4  ,-0.9  ,5
3311  ,3.520e+08   ,-2.4  ,-0.7  ,5
3315  ,3.786e+08   ,1.9  ,2.5  ,0.1
3336  ,4.582e+08   ,-2.4  ,0.3  ,0
3340  ,4.726e+08   ,-2.5  ,0.1  ,0.1
3344  ,4.705e+08   ,-2.4  ,0.1  ,0
3356  ,9.558e+08   ,-0.3  ,2.4  ,0
3361  ,1.175e+09   ,-0.33054  ,2.5  ,4.9
3364  ,1.239e+09   ,-0.13345  ,2.5  ,4.9
3383  ,2.974e+09   ,2.4  ,2.5  ,3.5491
3402  ,1.456e+10   ,2.4  ,2.5  ,4.5345
3421  ,8.927e+08   ,-1.316  ,2.5  ,4.9
3439  ,3.960e+09   ,2.5  ,2.4  ,3.9433
3447  ,4.222e+09   ,2.4  ,2.5  ,3.9433
3451  ,3.024e+09   ,2.4  ,2.5  ,3.7462
3468  ,4.261e+09   ,1.4433  ,2.4  ,5
3480  ,2.766e+09   ,1.0491  ,2.4  ,5
3519  ,5.723e+08   ,1.5  ,2.4  ,0
3527  ,7.390e+08   ,2.3  ,-1.4729  ,0.2
3550  ,2.706e+08   ,-1.7  ,2.4  ,0
3554  ,4.338e+08   ,-1.7  ,2.5  ,0.1
3558  ,2.614e+08   ,-1.5  ,2.4  ,0
3562  ,4.534e+08   ,-1.5  ,2.5  ,0.1
3574  ,3.677e+08   ,-2.4  ,2.1  ,5
3581  ,6.612e+08   ,-2.5  ,1.7  ,0.1
3583  ,5.701e+08   ,-2.5  ,1.9  ,0.1
3584  ,3.324e+08   ,-1.9073  ,2.5  ,4.9
3591  ,7.093e+08   ,2.5  ,0.3  ,0.1
3595  ,6.487e+08   ,2.5  ,0.1  ,0.1
3603  ,1.834e+10   ,2.4577  ,2.391  ,4.7576
3663  ,4.605e+07   ,-1.933  ,-2.5  ,0.2
3669  ,1.741e+07   ,-2.1765  ,-2.5  ,0.2
3672  ,1.611e+07   ,-2.3  ,-2.3379  ,0.2
3682  ,3.331e+07   ,-1.9  ,-2.4  ,0
3700  ,1.004e+09   ,2.3  ,-2.5  ,2.7424
3712  ,6.030e+08   ,-2.1  ,-2.5  ,4.9
3715  ,2.850e+08   ,-1.9  ,-2.5  ,4.9
3740  ,8.423e+08   ,-1.3  ,-2.4  ,5
3746  ,5.332e+08   ,-1.2085  ,-2.5  ,4.8
3755  ,9.087e+08   ,-1.5  ,-2.4  ,5
3760  ,5.485e+08   ,-1.7  ,-2.5  ,4.9
3786  ,1.132e+09   ,2.4  ,2.5  ,1.5782
3813  ,1.931e+09   ,0.26073  ,2.4  ,5
3858  ,4.072e+08   ,-0.9  ,-2.4  ,5
3863  ,9.756e+08   ,-2.5  ,0.9  ,4.9
3875  ,7.945e+08   ,-1.9  ,-2.4  ,5
3885  ,7.387e+08   ,2.4  ,-0.72473  ,5
3910  ,4.596e+08   ,-2.4  ,-2.5  ,3.4
3959  ,6.164e+09   ,2.5  ,2.4  ,4.1404
3969  ,2.456e+09   ,2.5  ,1.0491  ,4.9
3992  ,1.600e+10   ,2.391  ,2.2576  ,4.9577
3993  ,1.854e+10   ,2.4577  ,2.2576  ,4.891
4016  ,2.042e+08   ,-2.3015  ,2.5  ,4.9
4018  ,2.627e+08   ,-2.4  ,2.5  ,4.8
4021  ,2.803e+09   ,1.2462  ,2.4  ,5
4042  ,2.958e+08   ,2.4  ,-1.1  ,0
4046  ,3.238e+08   ,-0.9  ,2.4  ,0
4055  ,1.128e+09   ,1.7  ,-2.5  ,4.9
4087  ,4.757e+08   ,1.7  ,2.4  ,0
4114  ,8.134e+08   ,2.5  ,-0.33054  ,4.9
4120  ,1.835e+08   ,2.4  ,-2.5  ,1.8
4125  ,4.320e+08   ,2.4  ,2.5  ,0.98691
4144  ,9.626e+09   ,2.4  ,2.5  ,4.3375
4161  ,9.159e+08   ,-2.4  ,0.3  ,5
4201  ,5.824e+08   ,1.933  ,-2.5  ,0.2
4225  ,1.180e+07   ,-2.3  ,-2.4  ,0
4230  ,4.916e+07   ,-2.3  ,-2.5  ,0.56701
4269  ,1.990e+08   ,-0.9  ,-2.5  ,4.9
4277  ,6.755e+08   ,-1.1  ,-2.4  ,5
4288  ,3.032e+09   ,-0.070055  ,2.3  ,4.8
4328  ,9.872e+08   ,-2.5  ,-2.4  ,4.2
4336  ,6.900e+08   ,-2.5  ,-2.4  ,4.4
4342  ,1.840e+08   ,-2.5  ,-2.4  ,4.6
4348  ,6.746e+08   ,-2.4  ,-2.4707  ,4.9707
4352  ,8.160e+08   ,-2.3  ,-2.5  ,4.9
4354  ,1.452e+09   ,-2.1765  ,-2.5  ,4.8
4355  ,1.007e+09   ,-2.3  ,-2.3379  ,4.8
4362  ,3.398e+08   ,2.5  ,2.4  ,0.59273
4364  ,7.744e+08   ,2.5  ,-2.4  ,2.4
4366  ,6.387e+08   ,2.5  ,-2.4  ,2.2
4372  ,6.735e+08   ,2.4  ,-2.5  ,2.2
4385  ,5.724e+07   ,-2.5  ,-1.9  ,0.1
4399  ,4.072e+08   ,-2.5  ,2.1  ,0.1
4407  ,2.411e+08   ,-0.7  ,-2.4  ,0
4436  ,4.508e+08   ,-2.5  ,-0.1  ,0.1
4462  ,1.086e+09   ,-2.3  ,2.3  ,4.0333
4491  ,7.023e+08   ,2.5  ,-0.52764  ,4.9
4494  ,7.681e+08   ,2.5  ,-2.4  ,1.4
4503  ,4.631e+08   ,2.4  ,-2.5  ,1.4
4508  ,7.076e+08   ,2.4  ,-2.5  ,1.2
4515  ,1.878e+08   ,2.5  ,-2.4  ,1.8
4517  ,1.790e+08   ,2.4  ,-2.5  ,1.6
4522  ,1.018e+08   ,0.7  ,-2.4  ,0
4538  ,9.118e+08   ,-1.1189  ,2.4  ,5
4546  ,5.498e+09   ,2.4  ,2.5  ,4.1404
4559  ,1.036e+09   ,1.7  ,-2.4  ,0
4590  ,3.600e+08   ,0.5  ,-2.4  ,0
4631  ,9.375e+08   ,2.4  ,-2.5  ,2.6
4634  ,9.635e+08   ,2.5  ,-2.4  ,2.8
4657  ,2.297e+08   ,-2.5  ,-2.4  ,2
4660  ,2.358e+08   ,-2.5  ,-2.4  ,1.8
4664  ,3.200e+08   ,-0.3  ,-2.4  ,0
4675  ,6.834e+08   ,-2.4  ,-2.5  ,4.8
4681  ,3.750e+08   ,-2.5  ,-0.3  ,0.1
4684  ,1.447e+09   ,1.7  ,-2.4  ,5
4703  ,1.034e+09   ,-2.4  ,0.7  ,5
4707  ,7.649e+08   ,-2.5  ,0.3  ,4.9
4714  ,7.445e+08   ,2.4  ,-0.33054  ,5
4723  ,1.251e+09   ,-1.5567  ,2.3  ,4.8
4739  ,1.972e+08   ,-2.1044  ,2.5  ,4.9
4763  ,3.447e+08   ,-1.9  ,2.4  ,0
4780  ,5.770e+07   ,-2.3  ,-1.9695  ,0.2
4782  ,8.741e+06   ,-2.4707  ,-2.4  ,0.029289
4784  ,6.936e+07   ,-2.4  ,-1.9  ,0
4791  ,2.148e+08   ,-2.4  ,-2.5  ,1.8
4796  ,5.967e+08   ,2.4707  ,-2.4707  ,4.9
4799  ,4.422e+08   ,2.5  ,-2.4  ,4.8
4806  ,3.927e+08   ,2.3  ,-2.5  ,4.9
4809  ,8.274e+09   ,2.3  ,2.3  ,3.9166
4833  ,6.545e+08   ,-2.4  ,2.5  ,0.4
4841  ,7.400e+08   ,-2.4  ,2.5  ,2.6
4846  ,3.778e+08   ,-2.5  ,2.1  ,4.9
4848  ,3.275e+08   ,-2.5  ,2.3  ,4.9
4849  ,3.082e+08   ,-2.5  ,2.4  ,4.8
4893  ,4.163e+08   ,-2.4  ,2.5  ,4.2
4897  ,1.801e+10   ,2.3333  ,2.1998  ,5
4900  ,1.788e+10   ,2.391  ,2.4577  ,4.7576
4908  ,1.864e+10   ,2.2576  ,2.391  ,4.9577
4911  ,1.855e+10   ,2.2576  ,2.4577  ,4.891
4926  ,2.879e+08   ,-2.5  ,2.4  ,1
4932  ,3.963e+08   ,-2.4  ,2.5  ,1.6
4937  ,5.517e+08   ,-1.1  ,2.5  ,0.1
4939  ,1.461e+10   ,2.3  ,2.2299  ,4.7299
4944  ,9.007e+08   ,2.5  ,-1.9073  ,4.9
4987  ,1.229e+09   ,-2.3  ,1.5527  ,4.8
5010  ,4.306e+10   ,2.4973  ,2.1331  ,4.923
5013  ,1.418e+10   ,2.5  ,2.0345  ,4.9
5017  ,1.638e+10   ,2.4  ,2.0345  ,5
5035  ,9.307e+08   ,1.3  ,-2.4  ,0
5038  ,1.885e+08   ,1.2085  ,-2.5  ,0.2
5092  ,1.337e+08   ,-2.4  ,-2.5  ,1.2
5123  ,8.106e+08   ,2.5  ,-2.4  ,0.6
5151  ,3.263e+08   ,-2.5  ,-0.5  ,0.1
5160  ,2.948e+08   ,-2.5  ,-0.7  ,0.1
5164  ,9.092e+08   ,-2.4  ,0.9  ,5
5168  ,9.502e+08   ,-2.4  ,0.5  ,5
5176  ,2.748e+08   ,2.5  ,-0.7  ,0.1
5179  ,4.195e+08   ,2.4  ,-0.5  ,0
5189  ,8.028e+08   ,2.4  ,-2.5  ,2.4
5194  ,6.169e+08   ,2.3  ,-2.5  ,2.2576
5198  ,2.818e+07   ,-2.3  ,-2.5  ,0.32348
5205  ,1.245e+07   ,-2.4  ,-2.5  ,0.2
5207  ,2.499e+07   ,-2.1  ,-2.5  ,0.1
5246  ,8.735e+08   ,-2.5  ,2.4  ,3.2
5257  ,5.259e+08   ,-2.5  ,1.5  ,4.9
5263  ,3.238e+08   ,-2.3  ,0.2278  ,0.2
5272  ,4.633e+08   ,-2.5  ,0.3  ,0.1
5275  ,8.296e+08   ,-2.5  ,0.5  ,4.9
5281  ,7.466e+09   ,1.8375  ,2.5  ,4.9
5297  ,4.858e+08   ,-0.9  ,2.5  ,0.1
5306  ,4.904e+08   ,-0.7  ,2.4  ,0
5309  ,7.954e+08   ,-0.5  ,2.5  ,0.1
5324  ,1.775e+09   ,2.4  ,2.5  ,2.7607
5332  ,6.575e+08   ,2.5  ,-2.4  ,0.8
5334  ,7.279e+08   ,2.4  ,-2.5  ,1
5360  ,7.133e+08   ,2.4  ,-1.7102  ,5
5362  ,6.414e+08   ,2.4  ,-1.5131  ,5
5368  ,8.255e+09   ,2.4  ,1.8375  ,5
5371  ,3.661e+10   ,2.4325  ,2.4888  ,4.6656
5372  ,2.094e+10   ,2.3333  ,2.5  ,4.6998
5376  ,2.866e+10   ,2.4707  ,2.4707  ,4.6331
5377  ,1.766e+10   ,2.5  ,2.4  ,4.5345
5379  ,7.882e+08   ,-1.5  ,-2.5  ,4.9
5406  ,2.225e+08   ,-2.5  ,-2.4  ,3.4
5420  ,8.712e+08   ,-2.3  ,-2.5  ,3.2226
5423  ,1.053e+09   ,1.5  ,-2.4  ,0
5502  ,1.001e+07   ,-2.5  ,-2.3  ,0.1
5504  ,1.338e+07   ,-2.5  ,-2.4  ,0.2
5506  ,1.231e+07   ,-2.4  ,-2.3  ,0
5511  ,1.947e+07   ,-2.5  ,-2.1  ,0.1
5513  ,4.370e+08   ,-2.4  ,0.5  ,0
5517  ,2.045e+08   ,-0.9  ,-2.5  ,0.1
5532  ,1.987e+08   ,-2.4707  ,2.4707  ,4.9
5534  ,3.683e+08   ,2.4  ,-0.7  ,0
5551  ,1.137e+09   ,2.5  ,-2.4  ,3.8
5566  ,7.635e+08   ,2.5  ,2.4  ,1.3811
5603  ,5.273e+08   ,2.4  ,-0.3  ,0
5617  ,6.391e+08   ,-2.1  ,2.5  ,0.1
5637  ,7.259e+08   ,-2.3  ,-1.9695  ,4.8
5641  ,1.325e+09   ,2.3  ,-2.5  ,3.4636
5645  ,2.292e+08   ,-2.4  ,-2.5  ,2
5649  ,2.641e+08   ,-2.4  ,-2.5  ,2.2
5659  ,1.818e+08   ,-2.3  ,-2.5  ,1.7774
5662  ,1.705e+09   ,2.1765  ,-2.5  ,4.8
5666  ,3.402e+08   ,2.4  ,-2.5  ,4.8
5669  ,1.298e+09   ,2.3  ,-2.3412  ,4.8
5695  ,4.444e+08   ,-2.4  ,0.7  ,0
5701  ,2.362e+08   ,-2.5  ,2.4  ,1.6
5715  ,4.415e+08   ,-2.4  ,2.5  ,1.8
5726  ,5.688e+08   ,-0.7  ,2.5  ,0.1
5727  ,2.901e+08   ,-1.1  ,2.4  ,0
5730  ,2.828e+08   ,2.3  ,-2.5  ,1.7774
5746  ,1.036e+09   ,2.5  ,2.4  ,1.7753
5755  ,1.151e+09   ,2.5  ,-2.4  ,4.4
5763  ,8.635e+08   ,2.4  ,-2.5  ,4.4
5773  ,2.957e+09   ,1.0491  ,2.5  ,4.9
5791  ,1.069e+09   ,-0.72473  ,2.4  ,5
5795  ,8.309e+09   ,1.8375  ,2.4  ,5
5803  ,5.879e+08   ,-0.3  ,-2.4  ,5
5810  ,5.733e+09   ,2.4  ,1.6404  ,5
5836  ,5.736e+08   ,-2.5  ,1.3  ,4.9
5860  ,4.849e+08   ,2.5  ,-2.4  ,1.6
5866  ,3.623e+08   ,1.5  ,-2.5  ,0.1
5884  ,6.313e+08   ,-2.4  ,-0.3  ,5
5888  ,3.845e+08   ,-2.5  ,-0.5  ,4.9
5901  ,8.436e+08   ,2.3  ,-2.5  ,2.5
5908  ,8.703e+08   ,2.5  ,-2.4  ,1.2
5909  ,3.505e+08   ,2.5  ,-2.4  ,2
5934  ,1.025e+09   ,1.9  ,-2.5  ,4.9
5938  ,4.786e+08   ,1.933  ,-2.5  ,4.8
5948  ,5.197e+08   ,-2.4  ,-2.5  ,4.6
5950  ,5.744e+08   ,-2.4707  ,-2.4707  ,4.9
5951  ,4.406e+08   ,-2.5  ,-2.4  ,4.8
5952  ,5.004e+08   ,-2.5  ,-2.3  ,4.9
5986  ,1.195e+09   ,2.3  ,-2.5  ,3.7085
5990  ,1.022e+09   ,-0.92182  ,2.5  ,4.9
6019  ,3.717e+08   ,2.5  ,1.9  ,0.1
6025  ,3.178e+08   ,2.4  ,-1.3  ,0
6035  ,4.537e+08   ,-2.5  ,1.9  ,4.9
6044  ,9.264e+08   ,0.1  ,2.5  ,0.1
6054  ,6.972e+08   ,2.4  ,0.1  ,0
6070  ,2.576e+08   ,-2.4  ,2.3  ,0
6071  ,3.332e+08   ,-2.3  ,2.4  ,0
6076  ,4.461e+08   ,-2.4  ,2.1  ,0
6083  ,3.411e+08   ,2.1  ,-2.4  ,0
6084  ,3.307e+08   ,2.4  ,2.3  ,0
6087  ,3.193e+08   ,2.3  ,2.4  ,0
6092  ,1.377e+07   ,-2.4  ,-2.5  ,0.4
6096  ,9.502e+06   ,-2.3  ,-2.5  ,0.1
6099  ,4.877e+08   ,0.7  ,-2.5  ,0.1
6149  ,2.212e+08   ,-2.4  ,-0.9  ,0
6159  ,4.611e+08   ,-2.5  ,-2.4  ,2.6
6183  ,3.122e+09   ,1.2462  ,2.5  ,4.9
6224  ,1.161e+09   ,2.5  ,-2.4  ,4
6228  ,1.176e+09   ,2.4  ,-2.5  ,3.8
6237  ,9.353e+08   ,2.5  ,0.7  ,0.1
6241  ,2.178e+10   ,2.5  ,2.3333  ,4.6998
6245  ,8.520e+08   ,2.5  ,2.4  ,1.5782
6259  ,8.959e+08   ,2.5  ,-2.1044  ,4.9
6265  ,1.069e+09   ,2.3  ,-1.9804  ,4.8
6267  ,7.069e+08   ,2.5  ,-2.3015  ,4.9
6268  ,4.893e+08   ,2.4707  ,-2.4  ,4.9707
6270  ,9.638e+08   ,2.4  ,-2.1044  ,5
6317  ,1.379e+09   ,-2.3  ,0.2278  ,4.8
6349  ,1.197e+09   ,-0.52764  ,2.4  ,5
6391  ,1.116e+09   ,2.4  ,2.5  ,1.7753
6440  ,7.030e+08   ,-2.5  ,2.4  ,3.8
6471  ,6.383e+08   ,2.5  ,-0.92182  ,4.9
6489  ,3.298e+09   ,2.5  ,1.2462  ,4.9
6523  ,1.906e+08   ,-1.1  ,-2.4  ,0
6528  ,1.715e+08   ,-1.1  ,-2.5  ,0.1
6535  ,2.103e+08   ,-0.9  ,-2.4  ,0
6538  ,1.309e+09   ,1.5  ,-2.4  ,5
6541  ,1.181e+09   ,1.5  ,-2.5  ,4.9
6551  ,6.330e+08   ,2.5  ,-0.72473  ,4.9
6564  ,4.346e+10   ,2.1331  ,2.4973  ,4.923
6565  ,1.473e+10   ,2.0345  ,2.5  ,4.9
6572  ,4.383e+08   ,2.4  ,-1.7  ,0
6581  ,1.577e+09   ,0  ,2.3  ,0.2
6592  ,6.434e+08   ,2.3  ,-1.9695  ,0.2
6594  ,7.168e+08   ,0.3  ,2.4  ,0
6601  ,8.033e+08   ,0.5  ,2.5  ,0.1
6605  ,7.198e+07   ,-2.4  ,-1.3  ,0
6606  ,1.195e+08   ,-2.4  ,-1.1  ,0
6615  ,3.929e+08   ,-2.4  ,-0.3  ,0
6634  ,1.039e+09   ,2.1  ,-2.5  ,4.9
6635  ,5.974e+08   ,2.4  ,-2.4707  ,4.9707
6636  ,4.329e+08   ,2.3  ,-2.4  ,5
6647  ,6.046e+08   ,0.5  ,-2.5  ,0.1
6704  ,1.962e+08   ,-2.4707  ,2.4707  ,0.1
6708  ,3.019e+08   ,-2.5  ,2.4  ,0.2
6712  ,6.435e+08   ,-2.4  ,2.5  ,3.6
6715  ,7.861e+08   ,-2.4  ,2.5  ,3.4
6728  ,9.673e+08   ,-2.5  ,0.7  ,4.9
6753  ,2.993e+08   ,-2.1044  ,2.4  ,5
6788  ,1.023e+10   ,2.5  ,2.4  ,4.3375
6791  ,1.153e+09   ,-1.933  ,-2.5  ,4.8
6795  ,2.139e+10   ,2.1998  ,2.5  ,4.8333
6837  ,8.603e+07   ,-2.3  ,-2.5  ,0.8063
6869  ,7.701e+08   ,2.5  ,-1.7102  ,4.9
6873  ,8.554e+08   ,2.4  ,-1.9073  ,5
6880  ,7.312e+08   ,2.4  ,-0.92182  ,5
6885  ,7.634e+08   ,2.4  ,-0.52764  ,5
6893  ,3.114e+09   ,2.4  ,1.2462  ,5
6914  ,8.689e+08   ,0.7  ,2.5  ,0.1
6920  ,8.526e+08   ,0.9  ,2.4  ,0
6923  ,8.570e+08   ,0.7  ,2.4  ,0
6936  ,1.195e+09   ,2.4  ,-2.5  ,3.4
6939  ,9.945e+08   ,2.3  ,-2.5  ,3.2226
6961  ,6.529e+08   ,-0.1  ,-2.5  ,4.9
6967  ,4.139e+08   ,-2.5  ,-1.5  ,4.9
6975  ,6.929e+08   ,-2.4  ,1.1  ,5
6978  ,5.731e+08   ,-2.4  ,2.5  ,0.2
6987  ,5.951e+08   ,2.4  ,-1.316  ,5
6994  ,3.897e+08   ,2.4  ,-1.5  ,0
7004  ,1.123e+09   ,2.4  ,-2.5  ,3.6
7011  ,2.069e+09   ,2.4  ,0.65491  ,5
7016  ,2.000e+09   ,2.4  ,0.45782  ,5
7019  ,1.053e+09   ,2.5  ,2.4  ,2.1695
7021  ,1.077e+09   ,2.5  ,2.4  ,1.9724
7052  ,4.702e+08   ,-1.3  ,2.5  ,0.1
7054  ,8.314e+07   ,-2.4  ,-2.5  ,0.8
7057  ,5.443e+08   ,0.3  ,-2.5  ,0.1
7065  ,3.936e+08   ,0.24243  ,-2.5  ,0.2
7075  ,3.669e+10   ,2.4888  ,2.4325  ,4.6656
7113  ,4.194e+08   ,-2.4  ,-2.5  ,2.6
7121  ,5.510e+08   ,-2.4  ,-2.5  ,2.8
7126  ,5.482e+08   ,-2.5  ,-2.4  ,2.8
7128  ,5.037e+06   ,-2.4707  ,-2.4707  ,0.1
7129  ,7.798e+06   ,-2.4  ,-2.4707  ,0.029289
7141  ,8.350e+08   ,-1.7  ,-2.4  ,5
7145  ,7.438e+08   ,1.1  ,2.4  ,0
7163  ,4.136e+08   ,-1.7102  ,2.4  ,5
7172  ,1.250e+09   ,2.5  ,-2.4  ,3.2
7174  ,7.392e+08   ,-2.5  ,2.4  ,3.6
7183  ,5.632e+08   ,-1.4531  ,-2.5  ,4.8
7204  ,1.644e+09   ,2.3  ,-0.81068  ,4.8
7220  ,1.448e+09   ,2.5  ,0.063638  ,4.9
7227  ,5.323e+08   ,2.5  ,-1.9  ,0.1
7256  ,6.299e+08   ,-0.1  ,-2.4  ,5
7280  ,1.337e+09   ,-0.33054  ,2.4  ,5
7299  ,6.134e+08   ,2.5  ,-1.1189  ,4.9
7316  ,9.261e+07   ,-2.5  ,-2.4  ,0.8
7323  ,1.184e+08   ,-2.4  ,-2.5  ,1
7396  ,8.801e+08   ,1.1  ,-2.4  ,5
7400  ,4.598e+08   ,-2.5  ,0.7  ,0.1
7409  ,1.166e+09   ,1.3  ,-2.4  ,5
7420  ,3.420e+08   ,2.5  ,2.1  ,0.1
7429  ,4.207e+08   ,2.4  ,1.9  ,0
7436  ,5.318e+08   ,2.5  ,-1.7  ,0.1
7438  ,1.037e+09   ,2.4  ,-2.5  ,2.8
7445  ,3.433e+10   ,2.4325  ,2.1656  ,4.9888
7464  ,4.693e+08   ,2.5  ,-1.5  ,0.1
7480  ,7.757e+08   ,2.5  ,-2.4  ,0.2
7482  ,2.729e+08   ,1.9  ,-2.5  ,0.1
7483  ,3.297e+08   ,1.7  ,-2.5  ,0.1
7486  ,1.369e+09   ,1.9  ,-2.4  ,5
7488  ,7.366e+08   ,1.6937  ,-2.5  ,4.8
7492  ,7.072e+08   ,2.1  ,-2.4  ,5
7495  ,4.263e+08   ,0.1  ,-2.5  ,0.1
7504  ,5.382e+08   ,0.3  ,-2.4  ,0
7507  ,4.881e+08   ,0.9  ,-2.5  ,0.1
7533  ,5.822e+08   ,-2.5  ,0.9  ,0.1
7536  ,5.055e+08   ,-2.4  ,-2.5  ,3.2
7540  ,6.262e+08   ,-2.4  ,-2.5  ,3
7545  ,4.066e+08   ,-2.5  ,-2.4  ,3
7582  ,5.066e+08   ,1.3  ,2.5  ,0.1
7588  ,1.422e+09   ,2.5  ,2.4  ,2.3665
7598  ,5.626e+08   ,-2.5  ,2.4  ,4.2
7607  ,1.066e+09   ,1.5333  ,2.3  ,0.2
7627  ,6.804e+08   ,-2.5  ,1.1  ,4.9
7651  ,4.742e+08   ,2.4  ,-1.9  ,0
7656  ,2.403e+08   ,2.5  ,2.4  ,0.39564
7660  ,1.477e+10   ,2.2299  ,2.3  ,4.7299
7668  ,9.313e+08   ,1.4531  ,-2.5  ,4.8
7676  ,7.918e+08   ,0.1  ,-2.5  ,4.9
7683  ,7.174e+08   ,0.1  ,-2.4  ,5
7686  ,3.000e+08   ,-2.4  ,-1.1  ,5
7702  ,5.727e+08   ,-2.3  ,-2.5  ,4.433
7710  ,6.643e+08   ,-2.3  ,-2.5  ,4.6765
7752  ,9.625e+08   ,0.9  ,-2.4  ,5
7763  ,9.406e+08   ,0.24243  ,-2.5  ,4.8
7767  ,8.573e+07   ,-2.5  ,-2.4  ,3.2
7768  ,2.459e+07   ,-2.4  ,-2.1  ,0
7776  ,5.964e+08   ,-2.4  ,0.9  ,0
7786  ,2.944e+08   ,-0.4838  ,-2.5  ,4.8
7800  ,5.099e+08   ,2.5  ,-2.4  ,4.6
7805  ,3.950e+08   ,-2.5  ,-1.3  ,4.9
7811  ,3.401e+08   ,-2.5  ,-1.1  ,4.9
7820  ,5.783e+08   ,2.5  ,-2.1  ,0.1
7824  ,4.902e+08   ,2.4  ,-2.1  ,0
7828  ,9.819e+08   ,2.4  ,-2.5  ,4.2
7831  ,1.045e+09   ,2.4  ,-2.5  ,4
7838  ,1.262e+09   ,2.5  ,-2.4  ,4.2
7839  ,1.806e+09   ,2.5  ,2.4  ,2.7607
7840  ,1.959e+09   ,2.5  ,2.4  ,2.9578
7863  ,6.447e+07   ,-2.4  ,-1.5  ,0
7890  ,9.487e+08   ,2.4  ,0.9  ,0
7897  ,2.886e+08   ,-2.4  ,-0.7  ,0
7912  ,9.811e+07   ,-1.5  ,-2.4  ,0
7917  ,1.546e+08   ,-1.3  ,-2.5  ,0.1
7931  ,6.973e+08   ,0.5  ,2.4  ,0
7934  ,6.653e+08   ,1.1  ,-2.4  ,0
7937  ,4.988e+08   ,2.4  ,-2.5  ,0.8
7941  ,3.810e+07   ,-2.4  ,-2.5  ,0.6
7969  ,2.277e+08   ,-2.5  ,2.3  ,0.1
7971  ,5.174e+08   ,-2.4  ,1.9  ,0
7972  ,4.734e+08   ,-1.9  ,2.5  ,0.1
7978  ,7.374e+08   ,-2.4  ,1.1  ,0
7996  ,4.944e+08   ,-2.4  ,-0.5  ,5
8000  ,5.710e+07   ,-2.5  ,-2.4  ,0.6
8003  ,2.216e+07   ,-2.5  ,-2.4  ,0.4
8025  ,7.777e+08   ,0.9  ,2.5  ,0.1
8035  ,7.893e+08   ,0.3  ,2.5  ,0.1
8039  ,1.313e+09   ,2.3  ,-2.5  ,0.32348
8041  ,9.256e+08   ,2.3  ,-2.3379  ,0.2
8043  ,6.388e+08   ,2.1765  ,-2.5  ,0.2
8045  ,1.760e+08   ,-0.96359  ,-2.5  ,0.2
8054  ,6.236e+08   ,1.3  ,2.4  ,0
8058  ,6.625e+08   ,1.1  ,2.5  ,0.1
8062  ,2.752e+08   ,-2.5  ,2.4  ,1.4
8067  ,3.029e+08   ,-2.5  ,2.4  ,0.8
8087  ,7.191e+08   ,-2.5  ,1.5  ,0.1
8132  ,1.537e+09   ,-0.13345  ,2.4  ,5
8183  ,2.942e+08   ,2.5  ,-0.9  ,0.1
8184  ,5.397e+08   ,1.6937  ,-2.5  ,0.2
8214  ,4.367e+08   ,-2.4707  ,-2.4  ,4.9707
8217  ,1.116e+09   ,-2.1  ,-2.4  ,5
8219  ,2.871e+08   ,-2.4  ,-2.5  ,4.4
8227  ,2.587e+09   ,2.5  ,2.4  ,3.1549
8242  ,1.103e+09   ,0.7  ,-2.5  ,4.9
8248  ,9.216e+08   ,2.5  ,-2.4  ,3.6
8254  ,5.668e+08   ,2.5  ,-0.3  ,0.1
8256  ,4.317e+08   ,2.5  ,-0.5  ,0.1
8258  ,5.536e+08   ,-0.3  ,-2.5  ,4.9
8263  ,4.217e+08   ,-0.5  ,-2.5  ,4.9
8268  ,2.031e+08   ,-2.3  ,-2.5  ,3.7085
8277  ,3.394e+08   ,-0.1  ,-2.5  ,0.1
8285  ,1.120e+09   ,1.1  ,-2.5  ,4.9
8307  ,7.490e+08   ,0.1  ,2.4  ,0
8308  ,1.132e+09   ,-0.1  ,2.5  ,0.1
8309  ,9.336e+08   ,-0.1  ,2.4  ,0
8313  ,6.098e+08   ,2.5  ,-2.3  ,0.1
8318  ,1.092e+09   ,2.5  ,-2.4  ,3
8338  ,2.663e+09   ,2.5  ,2.4  ,3.352
8339  ,2.550e+09   ,2.4  ,2.5  ,3.1549
8344  ,8.255e+08   ,-2.5  ,2.4  ,3.4
8357  ,3.323e+10   ,2.4888  ,2.1656  ,4.9325
8358  ,2.183e+10   ,2.5  ,2.1998  ,4.8333
8383  ,3.779e+07   ,-1.7  ,-2.4  ,0
8396  ,4.807e+08   ,1.1  ,-2.5  ,0.1
8399  ,4.221e+10   ,2.4526  ,2.1331  ,4.9851
8405  ,8.057e+08   ,2.5  ,-2.4  ,1
8412  ,7.954e+08   ,2.3  ,-2.5  ,0.8063
8417  ,3.592e+08   ,-2.3  ,-2.5  ,2.5
8434  ,1.330e+09   ,0.9636  ,-2.5  ,4.8
8438  ,3.127e+08   ,-0.3  ,-2.5  ,0.1
8452  ,6.623e+08   ,-2.4  ,-0.1  ,5
8468  ,3.191e+09   ,2.5  ,2.4  ,3.7462
8471  ,6.535e+08   ,-1.3  ,-2.5  ,4.9
8493  ,3.712e+08   ,-1.1  ,-2.5  ,4.9
8509  ,5.996e+07   ,-2.5  ,-1.7  ,0.1
8517  ,7.502e+08   ,-2.4  ,2.5  ,3
8531  ,6.353e+08   ,-2.4  ,1.7  ,0
8556  ,2.822e+09   ,2.5  ,2.4  ,3.5491
8573  ,7.972e+08   ,-1.316  ,2.4  ,5
8576  ,7.415e+08   ,-2.4  ,1.3  ,0
8611  ,5.399e+08   ,2.3  ,-2.5  ,1.2915
8618  ,4.235e+08   ,-2.4  ,2.5  ,4
8646  ,7.312e+08   ,-2.5  ,1.1  ,0.1
8656  ,3.857e+08   ,2.5  ,-1.3  ,0.1
8657  ,3.562e+08   ,2.4  ,2.1  ,0
8673  ,3.046e+08   ,-1.3  ,2.4  ,0
8692  ,9.270e+08   ,0.72263  ,-2.5  ,4.8
8696  ,5.965e+08   ,2.3  ,-2.5  ,1.0469
8706  ,2.070e+09   ,2.5  ,0.65491  ,4.9
8721  ,2.149e+08   ,-2.4  ,-2.5  ,1.6
8725  ,2.401e+09   ,0.65491  ,2.4  ,5
8739  ,3.413e+10   ,2.1656  ,2.4325  ,4.9888
8741  ,2.206e+10   ,2.1998  ,2.3333  ,5
8746  ,1.680e+07   ,-2.1  ,-2.4  ,0
8748  ,1.216e+08   ,-2.5  ,-2.4  ,1.2
8752  ,4.287e+10   ,2.1331  ,2.4526  ,4.9851
8759  ,1.350e+08   ,-2.3  ,-2.5  ,1.0469
8787  ,3.351e+08   ,-0.1  ,-2.4  ,0
8793  ,3.221e+08   ,-2.3  ,-2.5  ,2.2576
8795  ,3.179e+08   ,-2.4  ,-2.5  ,2.4
8798  ,5.764e+08   ,-2.3  ,-2.5  ,4.1937
8808  ,4.343e+08   ,-2.3  ,-2.5  ,3.9531
8814  ,6.289e+08   ,-2.4  ,-1.5  ,5
8849  ,8.626e+08   ,0.4838  ,-2.5  ,4.8
8851  ,2.748e+08   ,-2.4  ,-2.5  ,4.2
8868  ,1.081e+09   ,2.4  ,-2.5  ,3
8874  ,2.543e+09   ,0.852  ,2.4  ,5
8883  ,3.982e+08   ,-0.5  ,-2.4  ,5
8886  ,3.471e+08   ,-0.72262  ,-2.5  ,4.8
8893  ,3.193e+08   ,-0.7  ,-2.5  ,4.9
8897  ,6.604e+08   ,-2.5  ,-2.4  ,3.6
8899  ,5.140e+08   ,-2.3  ,-2.5  ,3.4636
8900  ,6.976e+07   ,-2.3  ,-1.4729  ,0.2
8906  ,7.489e+07   ,-2.5  ,-1.3  ,0.1
8910  ,2.458e+09   ,0.852  ,2.5  ,4.9
8925  ,4.154e+08   ,-2.4  ,2.5  ,1.4
8941  ,2.092e+08   ,2.4707  ,2.4  ,0.029289
8942  ,2.356e+08   ,2.5  ,2.3  ,0.1
8945  ,6.431e+08   ,-2.5  ,0.1  ,4.9
8950  ,1.444e+08   ,2.4707  ,2.4707  ,0.1
8951  ,1.730e+08   ,2.4  ,2.4707  ,0.029289
8959  ,1.591e+09   ,2.4  ,0.26073  ,5
8965  ,1.923e+09   ,0.45782  ,2.4  ,5
8978  ,2.259e+09   ,2.4  ,0.852  ,5
8983  ,2.711e+08   ,2.5  ,-1.1  ,0.1
8991  ,3.694e+08   ,-2.5  ,2.4  ,0.6
9008  ,2.195e+09   ,2.5  ,0.852  ,4.9
9011  ,3.343e+08   ,-2.4  ,-0.5  ,0
9025  ,9.625e+07   ,-1.5  ,-2.5  ,0.1
9038  ,4.423e+08   ,2.4  ,-2.5  ,2
9041  ,9.174e+08   ,2.5  ,0.9  ,0.1
9050  ,8.342e+08   ,2.5  ,0.5  ,0.1
9054  ,3.007e+08   ,0.9  ,-2.4  ,0
9060  ,4.124e+08   ,2.4  ,-2.5  ,0.4
9062  ,1.047e+09   ,2.3  ,-2.5  ,0.56701
9064  ,9.643e+08   ,2.5  ,-2.4  ,0.4
9069  ,1.758e+08   ,2.4  ,-2.5  ,0.6
9071  ,3.908e+08   ,1.4531  ,-2.5  ,0.2
9082  ,1.616e+08   ,-2.3  ,-2.5  ,1.2915
9086  ,1.600e+08   ,-2.4  ,-2.5  ,1.4
9091  ,1.582e+08   ,-2.5  ,-2.4  ,1.4
9094  ,1.182e+09   ,1.3  ,-2.5  ,4.9
9097  ,2.374e+08   ,-0.7  ,-2.5  ,0.1
9137  ,4.210e+08   ,-2.5  ,-0.7  ,4.9
9143  ,6.730e+08   ,-2.5  ,-0.1  ,4.9
9146  ,4.377e+08   ,-2.1  ,2.4  ,0
9148  ,4.396e+08   ,-2.5  ,1.7  ,4.9
9173  ,7.264e+08   ,-2.5  ,2.4  ,3
9192  ,1.520e+08   ,-0.7  ,-2.4  ,5
9195  ,8.443e+08   ,0.72263  ,-2.5  ,0.2
9209  ,1.093e+09   ,2.5  ,-2.4  ,3.4
9215  ,4.368e+08   ,0.9636  ,-2.5  ,0.2
9217  ,1.184e+09   ,2.4  ,-2.5  ,3.2
9218  ,4.357e+08   ,-0.96359  ,-2.5  ,4.8
9229  ,7.003e+08   ,-2.4  ,2.5  ,2.8
9248  ,4.942e+08   ,2.3  ,-2.5  ,4.433
9255  ,6.443e+08   ,2.5  ,1.3  ,0.1
9257  ,4.939e+08   ,2.4  ,1.5  ,0
9262  ,9.627e+08   ,0.5  ,-2.4  ,5
9264  ,1.060e+09   ,2.4  ,-0.13345  ,5
9272  ,1.477e+09   ,0.063638  ,2.4  ,5
9277  ,2.903e+08   ,-2.5  ,2.4  ,1.2
9279  ,1.695e+09   ,2.5  ,0.26073  ,4.9
9282  ,1.192e+09   ,1.2085  ,-2.5  ,4.8
9286  ,1.125e+09   ,0.9  ,-2.5  ,4.9
9292  ,2.324e+08   ,-2.4  ,2.4707  ,4.9707
9293  ,2.289e+08   ,-2.3015  ,2.4  ,5
9296  ,6.115e+08   ,-2.4  ,-2.1  ,5
9303  ,6.263e+08   ,-2.4  ,-1.9  ,5
9311  ,2.564e+08   ,-2.4  ,2.3  ,5
9313  ,7.078e+08   ,-2.4  ,0.1  ,5
9319  ,2.942e+08   ,-0.5  ,-2.4  ,0
9328  ,2.016e+08   ,-2.3  ,-2.5  ,1.5364
9334  ,5.951e+08   ,-2.3  ,2.5  ,0.1
9338  ,3.088e+08   ,-2.5  ,-2.4  ,2.4
9339  ,7.492e+08   ,-2.5  ,1.3  ,0.1
9341  ,3.850e+08   ,-2.3  ,-2.5  ,2.7424
9344  ,2.458e+08   ,-2.5  ,-2.4  ,2.2
9358  ,2.598e+09   ,-2.3  ,2.3  ,2.5
9364  ,5.743e+08   ,-2.5  ,-2.1  ,4.9
9367  ,6.748e+08   ,-2.4  ,-2.3  ,5
9374  ,4.855e+08   ,-2.4  ,-1.3  ,5
9378  ,3.615e+08   ,-2.5  ,2.4  ,1.8
9384  ,4.010e+08   ,2.3  ,-2.5  ,2.0162
9385  ,4.618e+08   ,-2.5  ,2.4  ,4.4
9389  ,4.807e+08   ,-2.5  ,2.4  ,2
9395  ,7.396e+08   ,2.4  ,-2.3015  ,5
9396  ,8.185e+07   ,-2.4  ,-1.7  ,0
9407  ,6.993e+08   ,-2.3  ,-1.4729  ,4.8
9411  ,4.274e+08   ,-2.5  ,-1.7  ,4.9
9423  ,5.401e+08   ,-2.4  ,-2.5  ,3.6
9432  ,1.125e+09   ,0.7  ,-2.4  ,5
9438  ,3.587e+08   ,-2.5  ,-0.9  ,4.9
9443  ,5.445e+08   ,-2.5  ,-0.3  ,4.9
9445  ,1.928e+08   ,-2.4707  ,2.4  ,4.9707
9448  ,5.723e+08   ,2.4  ,-1.1189  ,5
9453  ,8.623e+08   ,2.4  ,0.7  ,0
9455  ,8.792e+08   ,2.5  ,-2.4  ,2.6
9457  ,8.901e+08   ,2.3  ,-2.5  ,2.9838
9494  ,4.623e+08   ,-2.4  ,2.5  ,1
9500  ,9.036e+08   ,0.3  ,-2.5  ,4.9
9504  ,7.742e+08   ,0.3  ,-2.4  ,5
9506  ,5.375e+08   ,2.1  ,-2.5  ,0.1
9518  ,3.716e+07   ,-1.9  ,-2.5  ,0.1
9528  ,6.459e+08   ,2.3  ,-2.5  ,0.1
9531  ,6.301e+08   ,2.4707  ,-2.4707  ,0.1
9533  ,4.491e+08   ,2.4707  ,-2.4  ,0.029289
9534  ,5.759e+08   ,2.4  ,-2.4707  ,0.029289
9541  ,9.863e+08   ,0.5  ,-2.5  ,4.9
9544  ,2.775e+08   ,-0.5  ,-2.5  ,0.1
9559  ,4.717e+08   ,-2.5  ,-1.9  ,4.9
9562  ,3.573e+08   ,-2.5  ,2.4  ,4.6
9565  ,6.720e+08   ,-2.4  ,2.5  ,2
9571  ,9.421e+08   ,-2.5  ,-2.4  ,3.8
9574  ,4.600e+08   ,-2.4  ,-2.5  ,3.8
9577  ,3.907e+08   ,1.3  ,-2.5  ,0.1
9582  ,2.397e+08   ,-2.5  ,-0.9  ,0.1
9596  ,3.069e+08   ,2.1  ,2.4  ,0
9598  ,8.578e+08   ,-2.4  ,2.5  ,3.2
9602  ,4.792e+08   ,1.5  ,2.5  ,0.1
9610  ,2.198e+08   ,2.4  ,2.5  ,0.39564
9612  ,1.206e+09   ,-0.72473  ,2.5  ,4.9
9614  ,4.521e+08   ,1.7  ,2.5  ,0.1
9635  ,5.125e+08   ,2.5  ,1.7  ,0.1
9646  ,1.950e+08   ,2.3  ,2.5  ,0.1
9651  ,3.403e+10   ,2.1656  ,2.4888  ,4.9325
9653  ,6.062e+08   ,2.5  ,-1.316  ,4.9
9656  ,5.384e+08   ,-2.4  ,-1.7  ,5
9659  ,1.573e+09   ,2.3  ,-2.5  ,4.6765
9661  ,9.097e+08   ,2.3  ,-2.5  ,3.9531
9664  ,7.807e+08   ,-2.3  ,-2.4  ,5
9666  ,7.634e+08   ,1.9  ,-2.4  ,0
9677  ,7.572e+08   ,2.4  ,0.5  ,0
9678  ,1.489e+08   ,-2.5  ,-1.1  ,0.1
9680  ,6.660e+08   ,2.5  ,2.4  ,1.184
9681  ,1.512e+08   ,2.5  ,2.4  ,0.19855
9696  ,2.044e+08   ,-2.3  ,-2.5  ,2.0162
9698  ,4.944e+08   ,2.4  ,-2.3  ,0
9699  ,3.441e+08   ,-0.24243  ,-2.5  ,0.2
9701  ,4.499e+08   ,0.1  ,-2.4  ,0
9704  ,2.582e+08   ,-0.4838  ,-2.5  ,0.2
9718  ,2.086e+08   ,-0.72262  ,-2.5  ,0.2
9726  ,1.735e+09   ,2.3  ,-0.76628  ,0.2
9727  ,4.406e+08   ,-2.5  ,2.4  ,0.4
9730  ,7.232e+08   ,1.9433E-06  ,-2.5  ,4.8
9731  ,4.700e+08   ,-0.24243  ,-2.5  ,4.8
9732  ,6.359e+08   ,-2.5  ,2.4  ,2.2
9738  ,1.060e+09   ,-2.5  ,-2.4  ,4
9743  ,8.024e+08   ,-1.6937  ,-2.5  ,4.8
9744  ,3.616e+08   ,-2.4  ,-2.5  ,4
9750  ,4.833e+07   ,-1.7  ,-2.5  ,0.1
9752  ,8.294e+07   ,-1.6937  ,-2.5  ,0.2
9754  ,1.671e+08   ,-1.3  ,-2.4  ,0
9759  ,1.500e+08   ,-2.4707  ,2.4  ,0.029289
9760  ,1.582e+08   ,-2.4  ,2.4707  ,0.029289
9768  ,6.709e+08   ,2.3  ,-2.5  ,4.1937
9770  ,3.917e+08   ,1.9433E-06  ,-2.5  ,0.2
9771  ,6.125e+08   ,0.4838  ,-2.5  ,0.2
9772  ,7.521e+08   ,2.4  ,-2.5  ,0.2
9773  ,8.600e+08   ,2.4  ,-2.5  ,4.6
9776  ,1.361e+09   ,2.4  ,0.063638  ,5
9780  ,2.223e+09   ,0.65491  ,2.5  ,4.9
9781  ,1.204e+08   ,2.4  ,2.5  ,0.19855
9782  ,6.319e+08   ,-2.3  ,-2.5  ,2.9838
9786  ,1.390e+08   ,-1.2085  ,-2.5  ,0.2
9787  ,1.093e+08   ,-1.4531  ,-2.5  ,0.2
9790  ,4.746e+08   ,2.3  ,-2.4  ,0
9793  ,1.663e+10   ,2.0345  ,2.4  ,5
9797  ,4.117e+08   ,2.3  ,-2.5  ,1.5364
9798  ,2.475e+09   ,2.4  ,1.0491  ,5
9809  ,2.735e+09   ,2.4  ,2.5  ,3.352
