Date:  12:55, Monday, July 10, 2023
Model name: Hollow_DropBox
Study name: DropTest_300fts(-Default-)
Plot type:  Stress1
Plot step: 20   time : 104.945 Microseconds
Result Type: von Mises 


Node  ,Value (N/m^2)  ,X (in)  ,Y (in)  ,Z (in)
1  ,1.041e+10   ,2.5  ,2.1331  ,4.9
2  ,2.578e+10   ,2.4577  ,2.1908  ,4.9577
3  ,2.651e+10   ,2.4894  ,2.1331  ,4.9447
4  ,2.882e+10   ,2.1331  ,2.5  ,4.9
5  ,5.057e+10   ,2.1331  ,2.4894  ,4.9447
6  ,2.333e+10   ,2.1908  ,2.4577  ,4.9577
7  ,3.549e+08   ,-2.4  ,2.4  ,5
8  ,3.251e+09   ,-2.4  ,-2.4  ,5
9  ,5.024e+09   ,2.4  ,-2.4  ,5
10  ,9.210e+09   ,2.4  ,2.1331  ,5
11  ,2.267e+10   ,2.1331  ,2.4  ,5
12  ,5.450e+09   ,2.5  ,-2.4  ,4.9
13  ,2.967e+09   ,2.5  ,-2.4  ,0.1
14  ,3.700e+08   ,2.5  ,2.4  ,0.1
15  ,2.299e+10   ,2.5  ,2.4  ,4.6331
16  ,3.798e+08   ,2.4  ,2.5  ,0.1
17  ,5.615e+08   ,-2.4  ,2.5  ,0.1
18  ,2.528e+08   ,-2.4  ,2.5  ,4.9
19  ,2.895e+10   ,2.4  ,2.5  ,4.6331
20  ,2.598e+08   ,-2.5  ,2.4  ,0.1
21  ,2.129e+08   ,-2.5  ,-2.4  ,0.1
22  ,2.063e+09   ,-2.5  ,-2.4  ,4.9
23  ,4.159e+08   ,-2.5  ,2.4  ,4.9
24  ,6.486e+08   ,-2.3  ,-2.5  ,0.2
25  ,2.345e+09   ,-2.3  ,-2.5  ,4.8
26  ,4.829e+09   ,2.3  ,-2.5  ,4.8
27  ,2.119e+09   ,2.3  ,-2.5  ,0.2
28  ,2.845e+09   ,-2.4  ,-2.5  ,4.9
29  ,5.125e+09   ,2.4  ,-2.5  ,4.9
30  ,2.919e+08   ,-2.4  ,-2.5  ,0.1
31  ,2.853e+09   ,2.4  ,-2.5  ,0.1
32  ,2.218e+09   ,2.4  ,-2.4  ,0
33  ,4.840e+08   ,2.4  ,2.4  ,0
34  ,1.783e+08   ,-2.4  ,-2.4  ,0
35  ,3.419e+08   ,-2.4  ,2.4  ,0
36  ,3.027e+10   ,2.4577  ,2.4577  ,4.6908
37  ,8.942e+08   ,-2.3  ,2.3  ,4.8
38  ,1.361e+10   ,2.1599  ,2.3  ,4.8
39  ,1.301e+10   ,2.3  ,2.1599  ,4.8
40  ,1.372e+10   ,2.3  ,2.3  ,4.6599
41  ,9.875e+08   ,2.3  ,2.3  ,0.2
42  ,4.505e+08   ,-2.3  ,2.3  ,0.2
43  ,8.767e+08   ,-2.4  ,2.2  ,5
44  ,1.227e+09   ,-2.4  ,2  ,5
45  ,1.225e+09   ,-2.4  ,1.8  ,5
46  ,1.120e+09   ,-2.4  ,1.6  ,5
47  ,1.021e+09   ,-2.4  ,1.4  ,5
48  ,1.210e+09   ,-2.4  ,1.2  ,5
49  ,1.491e+09   ,-2.4  ,1  ,5
50  ,1.824e+09   ,-2.4  ,0.8  ,5
51  ,1.176e+09   ,-2.4  ,0.6  ,5
52  ,9.466e+08   ,-2.4  ,0.4  ,5
53  ,9.067e+08   ,-2.4  ,0.2  ,5
54  ,9.095e+08   ,-2.4  ,5.8879E-16  ,5
55  ,7.487e+08   ,-2.4  ,-0.2  ,5
56  ,5.996e+08   ,-2.4  ,-0.4  ,5
57  ,4.411e+08   ,-2.4  ,-0.6  ,5
58  ,3.608e+08   ,-2.4  ,-0.8  ,5
59  ,7.198e+08   ,-2.4  ,-1  ,5
60  ,6.778e+08   ,-2.4  ,-1.2  ,5
61  ,1.387e+09   ,-2.4  ,-1.4  ,5
62  ,1.241e+09   ,-2.4  ,-1.6  ,5
63  ,1.302e+09   ,-2.4  ,-1.8  ,5
64  ,1.950e+09   ,-2.4  ,-2  ,5
65  ,1.806e+09   ,-2.4  ,-2.2  ,5
66  ,4.214e+09   ,-2.2  ,-2.4  ,5
67  ,3.227e+09   ,-2  ,-2.4  ,5
68  ,2.661e+09   ,-1.8  ,-2.4  ,5
69  ,1.734e+09   ,-1.6  ,-2.4  ,5
70  ,9.208e+08   ,-1.4  ,-2.4  ,5
71  ,4.133e+08   ,-1.2  ,-2.4  ,5
72  ,3.106e+08   ,-1  ,-2.4  ,5
73  ,7.141e+08   ,-0.8  ,-2.4  ,5
74  ,9.269e+08   ,-0.6  ,-2.4  ,5
75  ,1.336e+09   ,-0.4  ,-2.4  ,5
76  ,1.864e+09   ,-0.2  ,-2.4  ,5
77  ,2.508e+09   ,-5.8879E-16  ,-2.4  ,5
78  ,2.983e+09   ,0.2  ,-2.4  ,5
79  ,3.495e+09   ,0.4  ,-2.4  ,5
80  ,4.537e+09   ,0.6  ,-2.4  ,5
81  ,4.573e+09   ,0.8  ,-2.4  ,5
82  ,4.354e+09   ,1  ,-2.4  ,5
83  ,3.996e+09   ,1.2  ,-2.4  ,5
84  ,3.392e+09   ,1.4  ,-2.4  ,5
85  ,1.825e+09   ,1.6  ,-2.4  ,5
86  ,1.840e+09   ,1.8  ,-2.4  ,5
87  ,3.300e+09   ,2  ,-2.4  ,5
88  ,8.149e+09   ,2.2  ,-2.4  ,5
89  ,4.499e+09   ,2.4  ,-2.2029  ,5
90  ,4.929e+09   ,2.4  ,-2.0058  ,5
91  ,3.738e+09   ,2.4  ,-1.8087  ,5
92  ,3.521e+09   ,2.4  ,-1.6116  ,5
93  ,3.823e+09   ,2.4  ,-1.4145  ,5
94  ,3.317e+09   ,2.4  ,-1.2175  ,5
95  ,3.549e+09   ,2.4  ,-1.0204  ,5
96  ,3.544e+09   ,2.4  ,-0.82327  ,5
97  ,3.473e+09   ,2.4  ,-0.62618  ,5
98  ,3.034e+09   ,2.4  ,-0.42909  ,5
99  ,2.758e+09   ,2.4  ,-0.232  ,5
100  ,2.445e+09   ,2.4  ,-0.034907  ,5
101  ,2.183e+09   ,2.4  ,0.16218  ,5
102  ,2.105e+09   ,2.4  ,0.35927  ,5
103  ,2.595e+09   ,2.4  ,0.55637  ,5
104  ,2.302e+09   ,2.4  ,0.75346  ,5
105  ,1.912e+09   ,2.4  ,0.95055  ,5
106  ,2.202e+09   ,2.4  ,1.1476  ,5
107  ,3.204e+09   ,2.4  ,1.3447  ,5
108  ,4.415e+09   ,2.4  ,1.5418  ,5
109  ,5.704e+09   ,2.4  ,1.7389  ,5
110  ,8.764e+09   ,2.4  ,1.936  ,5
111  ,1.242e+10   ,2.2665  ,2.2665  ,5
112  ,1.183e+10   ,1.936  ,2.4  ,5
113  ,6.499e+09   ,1.7389  ,2.4  ,5
114  ,5.224e+09   ,1.5418  ,2.4  ,5
115  ,3.763e+09   ,1.3447  ,2.4  ,5
116  ,3.045e+09   ,1.1476  ,2.4  ,5
117  ,2.872e+09   ,0.95055  ,2.4  ,5
118  ,2.890e+09   ,0.75346  ,2.4  ,5
119  ,2.932e+09   ,0.55637  ,2.4  ,5
120  ,2.637e+09   ,0.35927  ,2.4  ,5
121  ,2.570e+09   ,0.16218  ,2.4  ,5
122  ,2.634e+09   ,-0.034907  ,2.4  ,5
123  ,2.921e+09   ,-0.232  ,2.4  ,5
124  ,2.854e+09   ,-0.42909  ,2.4  ,5
125  ,2.537e+09   ,-0.62618  ,2.4  ,5
126  ,3.426e+09   ,-0.82327  ,2.4  ,5
127  ,3.323e+09   ,-1.0204  ,2.4  ,5
128  ,3.048e+09   ,-1.2175  ,2.4  ,5
129  ,2.536e+09   ,-1.4145  ,2.4  ,5
130  ,1.757e+09   ,-1.6116  ,2.4  ,5
131  ,1.128e+09   ,-1.8087  ,2.4  ,5
132  ,7.704e+08   ,-2.0058  ,2.4  ,5
133  ,5.006e+08   ,-2.2029  ,2.4  ,5
294  ,3.868e+09   ,2.5  ,-2.2029  ,4.9
295  ,4.745e+09   ,2.5  ,-2.0058  ,4.9
296  ,3.736e+09   ,2.5  ,-1.8087  ,4.9
297  ,3.875e+09   ,2.5  ,-1.6116  ,4.9
298  ,3.271e+09   ,2.5  ,-1.4145  ,4.9
299  ,3.231e+09   ,2.5  ,-1.2175  ,4.9
300  ,3.674e+09   ,2.5  ,-1.0204  ,4.9
301  ,2.854e+09   ,2.5  ,-0.82327  ,4.9
302  ,3.307e+09   ,2.5  ,-0.62618  ,4.9
303  ,3.071e+09   ,2.5  ,-0.42909  ,4.9
304  ,3.468e+09   ,2.5  ,-0.232  ,4.9
305  ,3.758e+09   ,2.5  ,-0.034907  ,4.9
306  ,2.796e+09   ,2.5  ,0.16218  ,4.9
307  ,2.380e+09   ,2.5  ,0.35927  ,4.9
308  ,2.458e+09   ,2.5  ,0.55637  ,4.9
309  ,2.203e+09   ,2.5  ,0.75346  ,4.9
310  ,2.385e+09   ,2.5  ,0.95055  ,4.9
311  ,2.907e+09   ,2.5  ,1.1476  ,4.9
312  ,3.523e+09   ,2.5  ,1.3447  ,4.9
313  ,4.309e+09   ,2.5  ,1.5418  ,4.9
314  ,6.472e+09   ,2.5  ,1.7389  ,4.9
315  ,9.206e+09   ,2.5  ,1.936  ,4.9
316  ,8.296e+09   ,2.5  ,-2.4  ,4.7
317  ,3.309e+09   ,2.5  ,-2.4  ,4.5
318  ,1.926e+09   ,2.5  ,-2.4  ,4.3
319  ,1.885e+09   ,2.5  ,-2.4  ,4.1
320  ,3.129e+09   ,2.5  ,-2.4  ,3.9
321  ,3.917e+09   ,2.5  ,-2.4  ,3.7
322  ,4.327e+09   ,2.5  ,-2.4  ,3.5
323  ,4.413e+09   ,2.5  ,-2.4  ,3.3
324  ,4.151e+09   ,2.5  ,-2.4  ,3.1
325  ,3.420e+09   ,2.5  ,-2.4  ,2.9
326  ,3.110e+09   ,2.5  ,-2.4  ,2.7
327  ,2.778e+09   ,2.5  ,-2.4  ,2.5
328  ,2.024e+09   ,2.5  ,-2.4  ,2.3
329  ,1.362e+09   ,2.5  ,-2.4  ,2.1
330  ,6.176e+08   ,2.5  ,-2.4  ,1.9
331  ,5.518e+08   ,2.5  ,-2.4  ,1.7
332  ,5.674e+08   ,2.5  ,-2.4  ,1.5
333  ,5.352e+08   ,2.5  ,-2.4  ,1.3
334  ,7.657e+08   ,2.5  ,-2.4  ,1.1
335  ,1.553e+09   ,2.5  ,-2.4  ,0.9
336  ,2.892e+09   ,2.5  ,-2.4  ,0.7
337  ,3.397e+09   ,2.5  ,-2.4  ,0.5
338  ,4.041e+09   ,2.5  ,-2.4  ,0.3
339  ,1.832e+09   ,2.5  ,-2.2  ,0.1
340  ,2.018e+09   ,2.5  ,-2  ,0.1
341  ,1.330e+09   ,2.5  ,-1.8  ,0.1
342  ,1.241e+09   ,2.5  ,-1.6  ,0.1
343  ,8.318e+08   ,2.5  ,-1.4  ,0.1
344  ,7.866e+08   ,2.5  ,-1.2  ,0.1
345  ,7.384e+08   ,2.5  ,-1  ,0.1
346  ,4.125e+08   ,2.5  ,-0.8  ,0.1
347  ,4.564e+08   ,2.5  ,-0.6  ,0.1
348  ,5.468e+08   ,2.5  ,-0.4  ,0.1
349  ,5.113e+08   ,2.5  ,-0.2  ,0.1
350  ,5.664e+08   ,2.5  ,-1.7664E-15  ,0.1
351  ,6.712e+08   ,2.5  ,0.2  ,0.1
352  ,9.874e+08   ,2.5  ,0.4  ,0.1
353  ,1.627e+09   ,2.5  ,0.6  ,0.1
354  ,2.231e+09   ,2.5  ,0.8  ,0.1
355  ,1.617e+09   ,2.5  ,1  ,0.1
356  ,1.469e+09   ,2.5  ,1.2  ,0.1
357  ,1.186e+09   ,2.5  ,1.4  ,0.1
358  ,1.123e+09   ,2.5  ,1.6  ,0.1
359  ,8.860e+08   ,2.5  ,1.8  ,0.1
360  ,8.779e+08   ,2.5  ,2  ,0.1
361  ,8.768e+08   ,2.5  ,2.2  ,0.1
362  ,1.292e+10   ,2.5  ,2.4  ,4.436
363  ,7.996e+09   ,2.5  ,2.4  ,4.2389
364  ,4.861e+09   ,2.5  ,2.4  ,4.0418
365  ,3.916e+09   ,2.5  ,2.4  ,3.8447
366  ,3.164e+09   ,2.5  ,2.4  ,3.6476
367  ,2.828e+09   ,2.5  ,2.4  ,3.4505
368  ,2.727e+09   ,2.5  ,2.4  ,3.2535
369  ,2.941e+09   ,2.5  ,2.4  ,3.0564
370  ,2.703e+09   ,2.5  ,2.4  ,2.8593
371  ,2.444e+09   ,2.5  ,2.4  ,2.6622
372  ,2.888e+09   ,2.5  ,2.4  ,2.4651
373  ,2.679e+09   ,2.5  ,2.4  ,2.268
374  ,2.937e+09   ,2.5  ,2.4  ,2.0709
375  ,2.933e+09   ,2.5  ,2.4  ,1.8738
376  ,3.321e+09   ,2.5  ,2.4  ,1.6767
377  ,2.452e+09   ,2.5  ,2.4  ,1.4796
378  ,2.623e+09   ,2.5  ,2.4  ,1.2825
379  ,2.473e+09   ,2.5  ,2.4  ,1.0855
380  ,2.268e+09   ,2.5  ,2.4  ,0.88836
381  ,1.824e+09   ,2.5  ,2.4  ,0.69127
382  ,1.080e+09   ,2.5  ,2.4  ,0.49418
383  ,6.859e+08   ,2.5  ,2.4  ,0.29709
384  ,1.244e+10   ,2.5  ,2.2665  ,4.7665
544  ,8.614e+08   ,2.2  ,2.5  ,0.1
545  ,1.198e+09   ,2  ,2.5  ,0.1
546  ,1.219e+09   ,1.8  ,2.5  ,0.1
547  ,1.332e+09   ,1.6  ,2.5  ,0.1
548  ,1.072e+09   ,1.4  ,2.5  ,0.1
549  ,1.383e+09   ,1.2  ,2.5  ,0.1
550  ,1.766e+09   ,1  ,2.5  ,0.1
551  ,2.408e+09   ,0.8  ,2.5  ,0.1
552  ,2.035e+09   ,0.6  ,2.5  ,0.1
553  ,1.724e+09   ,0.4  ,2.5  ,0.1
554  ,1.645e+09   ,0.2  ,2.5  ,0.1
555  ,1.282e+09   ,5.8879E-16  ,2.5  ,0.1
556  ,1.445e+09   ,-0.2  ,2.5  ,0.1
557  ,1.416e+09   ,-0.4  ,2.5  ,0.1
558  ,1.539e+09   ,-0.6  ,2.5  ,0.1
559  ,2.209e+09   ,-0.8  ,2.5  ,0.1
560  ,2.144e+09   ,-1  ,2.5  ,0.1
561  ,2.230e+09   ,-1.2  ,2.5  ,0.1
562  ,1.959e+09   ,-1.4  ,2.5  ,0.1
563  ,1.949e+09   ,-1.6  ,2.5  ,0.1
564  ,1.832e+09   ,-1.8  ,2.5  ,0.1
565  ,1.713e+09   ,-2  ,2.5  ,0.1
566  ,1.298e+09   ,-2.2  ,2.5  ,0.1
567  ,7.764e+08   ,-2.4  ,2.5  ,4.7
568  ,1.164e+09   ,-2.4  ,2.5  ,4.5
569  ,1.182e+09   ,-2.4  ,2.5  ,4.3
570  ,1.320e+09   ,-2.4  ,2.5  ,4.1
571  ,1.054e+09   ,-2.4  ,2.5  ,3.9
572  ,1.083e+09   ,-2.4  ,2.5  ,3.7
573  ,1.408e+09   ,-2.4  ,2.5  ,3.5
574  ,2.300e+09   ,-2.4  ,2.5  ,3.3
575  ,1.808e+09   ,-2.4  ,2.5  ,3.1
576  ,1.425e+09   ,-2.4  ,2.5  ,2.9
577  ,1.410e+09   ,-2.4  ,2.5  ,2.7
578  ,1.136e+09   ,-2.4  ,2.5  ,2.5
579  ,1.248e+09   ,-2.4  ,2.5  ,2.3
580  ,1.469e+09   ,-2.4  ,2.5  ,2.1
581  ,1.572e+09   ,-2.4  ,2.5  ,1.9
582  ,2.090e+09   ,-2.4  ,2.5  ,1.7
583  ,2.070e+09   ,-2.4  ,2.5  ,1.5
584  ,2.104e+09   ,-2.4  ,2.5  ,1.3
585  ,2.086e+09   ,-2.4  ,2.5  ,1.1
586  ,2.084e+09   ,-2.4  ,2.5  ,0.9
587  ,1.890e+09   ,-2.4  ,2.5  ,0.7
588  ,1.693e+09   ,-2.4  ,2.5  ,0.5
589  ,1.349e+09   ,-2.4  ,2.5  ,0.3
590  ,1.393e+10   ,1.936  ,2.5  ,4.9
591  ,5.901e+09   ,1.7389  ,2.5  ,4.9
592  ,4.536e+09   ,1.5418  ,2.5  ,4.9
593  ,3.652e+09   ,1.3447  ,2.5  ,4.9
594  ,2.923e+09   ,1.1476  ,2.5  ,4.9
595  ,2.892e+09   ,0.95055  ,2.5  ,4.9
596  ,3.149e+09   ,0.75346  ,2.5  ,4.9
597  ,2.936e+09   ,0.55637  ,2.5  ,4.9
598  ,2.722e+09   ,0.35927  ,2.5  ,4.9
599  ,2.509e+09   ,0.16218  ,2.5  ,4.9
600  ,2.382e+09   ,-0.034907  ,2.5  ,4.9
601  ,2.352e+09   ,-0.232  ,2.5  ,4.9
602  ,3.562e+09   ,-0.42909  ,2.5  ,4.9
603  ,3.715e+09   ,-0.62618  ,2.5  ,4.9
604  ,3.509e+09   ,-0.82327  ,2.5  ,4.9
605  ,4.024e+09   ,-1.0204  ,2.5  ,4.9
606  ,3.624e+09   ,-1.2175  ,2.5  ,4.9
607  ,2.739e+09   ,-1.4145  ,2.5  ,4.9
608  ,2.084e+09   ,-1.6116  ,2.5  ,4.9
609  ,1.366e+09   ,-1.8087  ,2.5  ,4.9
610  ,9.536e+08   ,-2.0058  ,2.5  ,4.9
611  ,6.234e+08   ,-2.2029  ,2.5  ,4.9
612  ,1.803e+10   ,2.2665  ,2.5  ,4.7665
613  ,1.200e+10   ,2.4  ,2.5  ,4.436
614  ,7.287e+09   ,2.4  ,2.5  ,4.2389
615  ,4.911e+09   ,2.4  ,2.5  ,4.0418
616  ,3.619e+09   ,2.4  ,2.5  ,3.8447
617  ,3.168e+09   ,2.4  ,2.5  ,3.6476
618  ,2.697e+09   ,2.4  ,2.5  ,3.4505
619  ,2.858e+09   ,2.4  ,2.5  ,3.2535
620  ,3.034e+09   ,2.4  ,2.5  ,3.0564
621  ,2.522e+09   ,2.4  ,2.5  ,2.8593
622  ,2.420e+09   ,2.4  ,2.5  ,2.6622
623  ,2.322e+09   ,2.4  ,2.5  ,2.4651
624  ,2.350e+09   ,2.4  ,2.5  ,2.268
625  ,2.633e+09   ,2.4  ,2.5  ,2.0709
626  ,2.955e+09   ,2.4  ,2.5  ,1.8738
627  ,3.210e+09   ,2.4  ,2.5  ,1.6767
628  ,3.599e+09   ,2.4  ,2.5  ,1.4796
629  ,3.733e+09   ,2.4  ,2.5  ,1.2825
630  ,2.593e+09   ,2.4  ,2.5  ,1.0855
631  ,2.010e+09   ,2.4  ,2.5  ,0.88836
632  ,1.463e+09   ,2.4  ,2.5  ,0.69127
633  ,1.163e+09   ,2.4  ,2.5  ,0.49418
634  ,6.858e+08   ,2.4  ,2.5  ,0.29709
796  ,7.283e+08   ,-2.5  ,2.2  ,0.1
797  ,1.074e+09   ,-2.5  ,2  ,0.1
798  ,1.319e+09   ,-2.5  ,1.8  ,0.1
799  ,1.449e+09   ,-2.5  ,1.6  ,0.1
800  ,1.676e+09   ,-2.5  ,1.4  ,0.1
801  ,1.817e+09   ,-2.5  ,1.2  ,0.1
802  ,1.855e+09   ,-2.5  ,1  ,0.1
803  ,1.955e+09   ,-2.5  ,0.8  ,0.1
804  ,2.092e+09   ,-2.5  ,0.6  ,0.1
805  ,2.225e+09   ,-2.5  ,0.4  ,0.1
806  ,2.104e+09   ,-2.5  ,0.2  ,0.1
807  ,2.026e+09   ,-2.5  ,5.8879E-16  ,0.1
808  ,2.028e+09   ,-2.5  ,-0.2  ,0.1
809  ,1.982e+09   ,-2.5  ,-0.4  ,0.1
810  ,1.774e+09   ,-2.5  ,-0.6  ,0.1
811  ,1.443e+09   ,-2.5  ,-0.8  ,0.1
812  ,1.373e+09   ,-2.5  ,-1  ,0.1
813  ,1.067e+09   ,-2.5  ,-1.2  ,0.1
814  ,1.029e+09   ,-2.5  ,-1.4  ,0.1
815  ,8.824e+08   ,-2.5  ,-1.6  ,0.1
816  ,7.099e+08   ,-2.5  ,-1.8  ,0.1
817  ,6.487e+08   ,-2.5  ,-2  ,0.1
818  ,3.312e+08   ,-2.5  ,-2.2  ,0.1
819  ,2.883e+09   ,-2.5  ,-2.4  ,4.7
820  ,1.456e+09   ,-2.5  ,-2.4  ,4.5
821  ,1.579e+09   ,-2.5  ,-2.4  ,4.3
822  ,2.766e+09   ,-2.5  ,-2.4  ,4.1
823  ,3.260e+09   ,-2.5  ,-2.4  ,3.9
824  ,3.727e+09   ,-2.5  ,-2.4  ,3.7
825  ,4.531e+09   ,-2.5  ,-2.4  ,3.5
826  ,3.965e+09   ,-2.5  ,-2.4  ,3.3
827  ,3.799e+09   ,-2.5  ,-2.4  ,3.1
828  ,3.112e+09   ,-2.5  ,-2.4  ,2.9
829  ,2.461e+09   ,-2.5  ,-2.4  ,2.7
830  ,2.203e+09   ,-2.5  ,-2.4  ,2.5
831  ,1.629e+09   ,-2.5  ,-2.4  ,2.3
832  ,1.231e+09   ,-2.5  ,-2.4  ,2.1
833  ,7.824e+08   ,-2.5  ,-2.4  ,1.9
834  ,4.685e+08   ,-2.5  ,-2.4  ,1.7
835  ,2.250e+08   ,-2.5  ,-2.4  ,1.5
836  ,6.122e+08   ,-2.5  ,-2.4  ,1.3
837  ,1.032e+09   ,-2.5  ,-2.4  ,1.1
838  ,1.311e+09   ,-2.5  ,-2.4  ,0.9
839  ,1.468e+09   ,-2.5  ,-2.4  ,0.7
840  ,1.441e+09   ,-2.5  ,-2.4  ,0.5
841  ,9.128e+08   ,-2.5  ,-2.4  ,0.3
842  ,7.282e+08   ,-2.5  ,2.2  ,4.9
843  ,1.207e+09   ,-2.5  ,2  ,4.9
844  ,1.191e+09   ,-2.5  ,1.8  ,4.9
845  ,1.151e+09   ,-2.5  ,1.6  ,4.9
846  ,1.095e+09   ,-2.5  ,1.4  ,4.9
847  ,1.179e+09   ,-2.5  ,1.2  ,4.9
848  ,1.259e+09   ,-2.5  ,1  ,4.9
849  ,1.598e+09   ,-2.5  ,0.8  ,4.9
850  ,1.389e+09   ,-2.5  ,0.6  ,4.9
851  ,1.197e+09   ,-2.5  ,0.4  ,4.9
852  ,1.026e+09   ,-2.5  ,0.2  ,4.9
853  ,7.358e+08   ,-2.5  ,5.8879E-16  ,4.9
854  ,6.330e+08   ,-2.5  ,-0.2  ,4.9
855  ,3.936e+08   ,-2.5  ,-0.4  ,4.9
856  ,3.492e+08   ,-2.5  ,-0.6  ,4.9
857  ,3.949e+08   ,-2.5  ,-0.8  ,4.9
858  ,6.158e+08   ,-2.5  ,-1  ,4.9
859  ,7.514e+08   ,-2.5  ,-1.2  ,4.9
860  ,9.717e+08   ,-2.5  ,-1.4  ,4.9
861  ,9.556e+08   ,-2.5  ,-1.6  ,4.9
862  ,1.111e+09   ,-2.5  ,-1.8  ,4.9
863  ,1.527e+09   ,-2.5  ,-2  ,4.9
864  ,1.605e+09   ,-2.5  ,-2.2  ,4.9
865  ,6.714e+08   ,-2.5  ,2.4  ,4.7
866  ,1.123e+09   ,-2.5  ,2.4  ,4.5
867  ,1.314e+09   ,-2.5  ,2.4  ,4.3
868  ,1.008e+09   ,-2.5  ,2.4  ,4.1
869  ,1.189e+09   ,-2.5  ,2.4  ,3.9
870  ,1.241e+09   ,-2.5  ,2.4  ,3.7
871  ,1.539e+09   ,-2.5  ,2.4  ,3.5
872  ,2.068e+09   ,-2.5  ,2.4  ,3.3
873  ,1.738e+09   ,-2.5  ,2.4  ,3.1
874  ,1.108e+09   ,-2.5  ,2.4  ,2.9
875  ,1.075e+09   ,-2.5  ,2.4  ,2.7
876  ,1.102e+09   ,-2.5  ,2.4  ,2.5
877  ,1.114e+09   ,-2.5  ,2.4  ,2.3
878  ,1.284e+09   ,-2.5  ,2.4  ,2.1
879  ,1.069e+09   ,-2.5  ,2.4  ,1.9
880  ,1.563e+09   ,-2.5  ,2.4  ,1.7
881  ,1.940e+09   ,-2.5  ,2.4  ,1.5
882  ,2.120e+09   ,-2.5  ,2.4  ,1.3
883  ,2.002e+09   ,-2.5  ,2.4  ,1.1
884  ,1.950e+09   ,-2.5  ,2.4  ,0.9
885  ,1.708e+09   ,-2.5  ,2.4  ,0.7
886  ,1.589e+09   ,-2.5  ,2.4  ,0.5
887  ,1.115e+09   ,-2.5  ,2.4  ,0.3
1044  ,6.475e+08   ,-2.3  ,-2.5  ,0.44697
1045  ,1.035e+09   ,-2.3  ,-2.5  ,0.68705
1046  ,9.312e+08   ,-2.3  ,-2.5  ,0.92554
1047  ,6.138e+08   ,-2.3  ,-2.5  ,1.1682
1048  ,2.143e+08   ,-2.3  ,-2.5  ,1.4148
1049  ,2.485e+08   ,-2.3  ,-2.5  ,1.6581
1050  ,2.741e+08   ,-2.3  ,-2.5  ,1.8967
1051  ,3.711e+08   ,-2.3  ,-2.5  ,2.1357
1052  ,4.558e+08   ,-2.3  ,-2.5  ,2.3794
1053  ,7.120e+08   ,-2.3  ,-2.5  ,2.6206
1054  ,1.192e+09   ,-2.3  ,-2.5  ,2.8643
1055  ,1.683e+09   ,-2.3  ,-2.5  ,3.1033
1056  ,2.371e+09   ,-2.3  ,-2.5  ,3.342
1057  ,2.491e+09   ,-2.3  ,-2.5  ,3.5852
1058  ,1.976e+09   ,-2.3  ,-2.5  ,3.8318
1059  ,1.794e+09   ,-2.3  ,-2.5  ,4.0745
1060  ,1.120e+09   ,-2.3  ,-2.5  ,4.3129
1061  ,1.529e+09   ,-2.3  ,-2.5  ,4.553
1062  ,4.299e+09   ,-2.053  ,-2.5  ,4.8
1063  ,2.721e+09   ,-1.8129  ,-2.5  ,4.8
1064  ,1.541e+09   ,-1.5745  ,-2.5  ,4.8
1065  ,4.895e+08   ,-1.3318  ,-2.5  ,4.8
1066  ,1.364e+08   ,-1.0852  ,-2.5  ,4.8
1067  ,9.551e+07   ,-0.84195  ,-2.5  ,4.8
1068  ,4.871e+07   ,-0.60329  ,-2.5  ,4.8
1069  ,4.543e+08   ,-0.3643  ,-2.5  ,4.8
1070  ,8.099e+08   ,-0.12055  ,-2.5  ,4.8
1071  ,7.458e+08   ,0.12056  ,-2.5  ,4.8
1072  ,1.158e+09   ,0.3643  ,-2.5  ,4.8
1073  ,1.570e+09   ,0.6033  ,-2.5  ,4.8
1074  ,1.417e+09   ,0.84195  ,-2.5  ,4.8
1075  ,8.762e+08   ,1.0852  ,-2.5  ,4.8
1076  ,8.217e+08   ,1.3318  ,-2.5  ,4.8
1077  ,1.613e+09   ,1.5745  ,-2.5  ,4.8
1078  ,3.458e+09   ,1.8129  ,-2.5  ,4.8
1079  ,7.129e+09   ,2.053  ,-2.5  ,4.8
1080  ,7.198e+09   ,2.3  ,-2.5  ,4.553
1081  ,3.522e+09   ,2.3  ,-2.5  ,4.3129
1082  ,1.597e+09   ,2.3  ,-2.5  ,4.0745
1083  ,5.401e+08   ,2.3  ,-2.5  ,3.8318
1084  ,7.166e+08   ,2.3  ,-2.5  ,3.5852
1085  ,1.304e+09   ,2.3  ,-2.5  ,3.3419
1086  ,1.409e+09   ,2.3  ,-2.5  ,3.1033
1087  ,1.066e+09   ,2.3  ,-2.5  ,2.8643
1088  ,9.840e+08   ,2.3  ,-2.5  ,2.6206
1089  ,9.995e+08   ,2.3  ,-2.5  ,2.3794
1090  ,6.515e+08   ,2.3  ,-2.5  ,2.1357
1091  ,2.276e+08   ,2.3  ,-2.5  ,1.8967
1092  ,2.194e+08   ,2.3  ,-2.5  ,1.658
1093  ,4.350e+08   ,2.3  ,-2.5  ,1.4148
1094  ,5.783e+08   ,2.3  ,-2.5  ,1.1682
1095  ,1.301e+09   ,2.3  ,-2.5  ,0.92554
1096  ,2.745e+09   ,2.3  ,-2.5  ,0.68705
1097  ,4.065e+09   ,2.3  ,-2.5  ,0.44697
1098  ,7.444e+08   ,-2.053  ,-2.5  ,0.2
1099  ,1.057e+09   ,-1.8129  ,-2.5  ,0.2
1100  ,1.265e+09   ,-1.5745  ,-2.5  ,0.2
1101  ,1.061e+09   ,-1.3318  ,-2.5  ,0.2
1102  ,4.425e+08   ,-1.0852  ,-2.5  ,0.2
1103  ,2.877e+08   ,-0.84195  ,-2.5  ,0.2
1104  ,3.482e+08   ,-0.60329  ,-2.5  ,0.2
1105  ,2.623e+08   ,-0.3643  ,-2.5  ,0.2
1106  ,2.582e+08   ,-0.12055  ,-2.5  ,0.2
1107  ,6.253e+08   ,0.12056  ,-2.5  ,0.2
1108  ,1.294e+09   ,0.3643  ,-2.5  ,0.2
1109  ,1.785e+09   ,0.6033  ,-2.5  ,0.2
1110  ,2.309e+09   ,0.84195  ,-2.5  ,0.2
1111  ,2.411e+09   ,1.0852  ,-2.5  ,0.2
1112  ,2.013e+09   ,1.3318  ,-2.5  ,0.2
1113  ,1.816e+09   ,1.5745  ,-2.5  ,0.2
1114  ,1.207e+09   ,1.8129  ,-2.5  ,0.2
1115  ,2.105e+09   ,2.053  ,-2.5  ,0.2
1116  ,1.448e+09   ,-2.2  ,-2.5  ,4.9
1117  ,9.727e+08   ,-2  ,-2.5  ,4.9
1118  ,1.229e+09   ,-1.8  ,-2.5  ,4.9
1119  ,1.105e+09   ,-1.6  ,-2.5  ,4.9
1120  ,8.108e+08   ,-1.4  ,-2.5  ,4.9
1121  ,4.589e+08   ,-1.2  ,-2.5  ,4.9
1122  ,1.562e+08   ,-1  ,-2.5  ,4.9
1123  ,3.299e+08   ,-0.8  ,-2.5  ,4.9
1124  ,5.023e+08   ,-0.6  ,-2.5  ,4.9
1125  ,6.526e+08   ,-0.4  ,-2.5  ,4.9
1126  ,1.045e+09   ,-0.2  ,-2.5  ,4.9
1127  ,1.239e+09   ,-1.7664E-15  ,-2.5  ,4.9
1128  ,1.589e+09   ,0.2  ,-2.5  ,4.9
1129  ,1.985e+09   ,0.4  ,-2.5  ,4.9
1130  ,1.736e+09   ,0.6  ,-2.5  ,4.9
1131  ,1.862e+09   ,0.8  ,-2.5  ,4.9
1132  ,2.069e+09   ,1  ,-2.5  ,4.9
1133  ,2.512e+09   ,1.2  ,-2.5  ,4.9
1134  ,2.257e+09   ,1.4  ,-2.5  ,4.9
1135  ,2.284e+09   ,1.6  ,-2.5  ,4.9
1136  ,2.367e+09   ,1.8  ,-2.5  ,4.9
1137  ,2.112e+09   ,2  ,-2.5  ,4.9
1138  ,1.617e+09   ,2.2  ,-2.5  ,4.9
1139  ,2.113e+09   ,-2.4  ,-2.5  ,4.7
1140  ,1.794e+09   ,-2.4  ,-2.5  ,4.5
1141  ,1.405e+09   ,-2.4  ,-2.5  ,4.3
1142  ,8.376e+08   ,-2.4  ,-2.5  ,4.1
1143  ,9.163e+08   ,-2.4  ,-2.5  ,3.9
1144  ,1.389e+09   ,-2.4  ,-2.5  ,3.7
1145  ,8.947e+08   ,-2.4  ,-2.5  ,3.5
1146  ,1.307e+09   ,-2.4  ,-2.5  ,3.3
1147  ,9.735e+08   ,-2.4  ,-2.5  ,3.1
1148  ,1.245e+09   ,-2.4  ,-2.5  ,2.9
1149  ,1.241e+09   ,-2.4  ,-2.5  ,2.7
1150  ,1.034e+09   ,-2.4  ,-2.5  ,2.5
1151  ,1.041e+09   ,-2.4  ,-2.5  ,2.3
1152  ,7.391e+08   ,-2.4  ,-2.5  ,2.1
1153  ,4.836e+08   ,-2.4  ,-2.5  ,1.9
1154  ,3.124e+08   ,-2.4  ,-2.5  ,1.7
1155  ,3.340e+08   ,-2.4  ,-2.5  ,1.5
1156  ,4.080e+08   ,-2.4  ,-2.5  ,1.3
1157  ,3.171e+08   ,-2.4  ,-2.5  ,1.1
1158  ,5.520e+08   ,-2.4  ,-2.5  ,0.9
1159  ,6.419e+08   ,-2.4  ,-2.5  ,0.7
1160  ,6.328e+08   ,-2.4  ,-2.5  ,0.5
1161  ,8.410e+08   ,-2.4  ,-2.5  ,0.3
1162  ,7.985e+08   ,-2.2  ,-2.5  ,0.1
1163  ,6.466e+08   ,-2  ,-2.5  ,0.1
1164  ,7.007e+08   ,-1.8  ,-2.5  ,0.1
1165  ,6.877e+08   ,-1.6  ,-2.5  ,0.1
1166  ,2.537e+08   ,-1.4  ,-2.5  ,0.1
1167  ,3.384e+08   ,-1.2  ,-2.5  ,0.1
1168  ,3.821e+08   ,-1  ,-2.5  ,0.1
1169  ,4.028e+08   ,-0.8  ,-2.5  ,0.1
1170  ,5.015e+08   ,-0.6  ,-2.5  ,0.1
1171  ,7.164e+08   ,-0.4  ,-2.5  ,0.1
1172  ,9.118e+08   ,-0.2  ,-2.5  ,0.1
1173  ,1.029e+09   ,-1.7664E-15  ,-2.5  ,0.1
1174  ,1.175e+09   ,0.2  ,-2.5  ,0.1
1175  ,1.258e+09   ,0.4  ,-2.5  ,0.1
1176  ,1.411e+09   ,0.6  ,-2.5  ,0.1
1177  ,8.804e+08   ,0.8  ,-2.5  ,0.1
1178  ,1.121e+09   ,1  ,-2.5  ,0.1
1179  ,1.225e+09   ,1.2  ,-2.5  ,0.1
1180  ,9.278e+08   ,1.4  ,-2.5  ,0.1
1181  ,1.089e+09   ,1.6  ,-2.5  ,0.1
1182  ,1.584e+09   ,1.8  ,-2.5  ,0.1
1183  ,1.953e+09   ,2  ,-2.5  ,0.1
1184  ,2.003e+09   ,2.2  ,-2.5  ,0.1
1185  ,1.760e+09   ,2.4  ,-2.5  ,4.7
1186  ,2.100e+09   ,2.4  ,-2.5  ,4.5
1187  ,2.355e+09   ,2.4  ,-2.5  ,4.3
1188  ,2.433e+09   ,2.4  ,-2.5  ,4.1
1189  ,2.220e+09   ,2.4  ,-2.5  ,3.9
1190  ,2.203e+09   ,2.4  ,-2.5  ,3.7
1191  ,1.819e+09   ,2.4  ,-2.5  ,3.5
1192  ,1.800e+09   ,2.4  ,-2.5  ,3.3
1193  ,1.758e+09   ,2.4  ,-2.5  ,3.1
1194  ,1.731e+09   ,2.4  ,-2.5  ,2.9
1195  ,1.442e+09   ,2.4  ,-2.5  ,2.7
1196  ,1.344e+09   ,2.4  ,-2.5  ,2.5
1197  ,1.339e+09   ,2.4  ,-2.5  ,2.3
1198  ,9.131e+08   ,2.4  ,-2.5  ,2.1
1199  ,4.584e+08   ,2.4  ,-2.5  ,1.9
1200  ,2.484e+08   ,2.4  ,-2.5  ,1.7
1201  ,2.788e+08   ,2.4  ,-2.5  ,1.5
1202  ,4.352e+08   ,2.4  ,-2.5  ,1.3
1203  ,6.843e+08   ,2.4  ,-2.5  ,1.1
1204  ,1.183e+09   ,2.4  ,-2.5  ,0.9
1205  ,1.161e+09   ,2.4  ,-2.5  ,0.7
1206  ,1.013e+09   ,2.4  ,-2.5  ,0.5
1207  ,1.222e+09   ,2.4  ,-2.5  ,0.3
1208  ,1.631e+09   ,2.4  ,-2.2  ,0
1209  ,1.630e+09   ,2.4  ,-2  ,0
1210  ,1.184e+09   ,2.4  ,-1.8  ,0
1211  ,9.903e+08   ,2.4  ,-1.6  ,0
1212  ,9.125e+08   ,2.4  ,-1.4  ,0
1213  ,7.506e+08   ,2.4  ,-1.2  ,0
1214  ,7.109e+08   ,2.4  ,-1  ,0
1215  ,5.691e+08   ,2.4  ,-0.8  ,0
1216  ,3.874e+08   ,2.4  ,-0.6  ,0
1217  ,3.166e+08   ,2.4  ,-0.4  ,0
1218  ,3.484e+08   ,2.4  ,-0.2  ,0
1219  ,4.528e+08   ,2.4  ,-1.7664E-15  ,0
1220  ,6.551e+08   ,2.4  ,0.2  ,0
1221  ,1.000e+09   ,2.4  ,0.4  ,0
1222  ,1.441e+09   ,2.4  ,0.6  ,0
1223  ,1.749e+09   ,2.4  ,0.8  ,0
1224  ,1.401e+09   ,2.4  ,1  ,0
1225  ,1.265e+09   ,2.4  ,1.2  ,0
1226  ,1.166e+09   ,2.4  ,1.4  ,0
1227  ,1.100e+09   ,2.4  ,1.6  ,0
1228  ,1.295e+09   ,2.4  ,1.8  ,0
1229  ,1.171e+09   ,2.4  ,2  ,0
1230  ,7.574e+08   ,2.4  ,2.2  ,0
1231  ,8.127e+08   ,-2.2  ,-2.4  ,0
1232  ,1.159e+09   ,-2  ,-2.4  ,0
1233  ,1.275e+09   ,-1.8  ,-2.4  ,0
1234  ,1.221e+09   ,-1.6  ,-2.4  ,0
1235  ,9.279e+08   ,-1.4  ,-2.4  ,0
1236  ,5.403e+08   ,-1.2  ,-2.4  ,0
1237  ,2.682e+08   ,-1  ,-2.4  ,0
1238  ,5.816e+08   ,-0.8  ,-2.4  ,0
1239  ,9.134e+08   ,-0.6  ,-2.4  ,0
1240  ,1.337e+09   ,-0.4  ,-2.4  ,0
1241  ,1.668e+09   ,-0.2  ,-2.4  ,0
1242  ,1.968e+09   ,5.8879E-16  ,-2.4  ,0
1243  ,2.484e+09   ,0.2  ,-2.4  ,0
1244  ,3.130e+09   ,0.4  ,-2.4  ,0
1245  ,3.463e+09   ,0.6  ,-2.4  ,0
1246  ,4.287e+09   ,0.8  ,-2.4  ,0
1247  ,4.313e+09   ,1  ,-2.4  ,0
1248  ,4.062e+09   ,1.2  ,-2.4  ,0
1249  ,3.382e+09   ,1.4  ,-2.4  ,0
1250  ,2.792e+09   ,1.6  ,-2.4  ,0
1251  ,1.755e+09   ,1.8  ,-2.4  ,0
1252  ,1.609e+09   ,2  ,-2.4  ,0
1253  ,3.334e+09   ,2.2  ,-2.4  ,0
1254  ,7.346e+08   ,-2.4  ,2.2  ,0
1255  ,1.120e+09   ,-2.4  ,2  ,0
1256  ,1.272e+09   ,-2.4  ,1.8  ,0
1257  ,1.463e+09   ,-2.4  ,1.6  ,0
1258  ,1.699e+09   ,-2.4  ,1.4  ,0
1259  ,1.895e+09   ,-2.4  ,1.2  ,0
1260  ,1.908e+09   ,-2.4  ,1  ,0
1261  ,2.011e+09   ,-2.4  ,0.8  ,0
1262  ,1.997e+09   ,-2.4  ,0.6  ,0
1263  ,2.020e+09   ,-2.4  ,0.4  ,0
1264  ,2.039e+09   ,-2.4  ,0.2  ,0
1265  ,2.144e+09   ,-2.4  ,5.8879E-16  ,0
1266  ,2.259e+09   ,-2.4  ,-0.2  ,0
1267  ,1.929e+09   ,-2.4  ,-0.4  ,0
1268  ,1.712e+09   ,-2.4  ,-0.6  ,0
1269  ,1.368e+09   ,-2.4  ,-0.8  ,0
1270  ,1.377e+09   ,-2.4  ,-1  ,0
1271  ,1.240e+09   ,-2.4  ,-1.2  ,0
1272  ,1.045e+09   ,-2.4  ,-1.4  ,0
1273  ,9.981e+08   ,-2.4  ,-1.6  ,0
1274  ,7.766e+08   ,-2.4  ,-1.8  ,0
1275  ,6.557e+08   ,-2.4  ,-2  ,0
1276  ,2.733e+08   ,-2.4  ,-2.2  ,0
1277  ,6.037e+08   ,2.2  ,2.4  ,0
1278  ,1.054e+09   ,2  ,2.4  ,0
1279  ,1.233e+09   ,1.8  ,2.4  ,0
1280  ,9.699e+08   ,1.6  ,2.4  ,0
1281  ,8.379e+08   ,1.4  ,2.4  ,0
1282  ,1.198e+09   ,1.2  ,2.4  ,0
1283  ,1.590e+09   ,1  ,2.4  ,0
1284  ,2.072e+09   ,0.8  ,2.4  ,0
1285  ,1.657e+09   ,0.6  ,2.4  ,0
1286  ,1.154e+09   ,0.4  ,2.4  ,0
1287  ,1.002e+09   ,0.2  ,2.4  ,0
1288  ,6.698e+08   ,5.8879E-16  ,2.4  ,0
1289  ,8.730e+08   ,-0.2  ,2.4  ,0
1290  ,1.056e+09   ,-0.4  ,2.4  ,0
1291  ,1.037e+09   ,-0.6  ,2.4  ,0
1292  ,1.766e+09   ,-0.8  ,2.4  ,0
1293  ,1.985e+09   ,-1  ,2.4  ,0
1294  ,2.049e+09   ,-1.2  ,2.4  ,0
1295  ,1.920e+09   ,-1.4  ,2.4  ,0
1296  ,1.783e+09   ,-1.6  ,2.4  ,0
1297  ,1.619e+09   ,-1.8  ,2.4  ,0
1298  ,1.387e+09   ,-2  ,2.4  ,0
1299  ,1.113e+09   ,-2.2  ,2.4  ,0
1460  ,1.390e+10   ,2.3243  ,2.3243  ,4.9577
1461  ,1.285e+10   ,2.4577  ,2.3243  ,4.8243
1462  ,8.375e+09   ,2.3243  ,2.4577  ,4.8243
1463  ,1.513e+09   ,-2.3  ,-2.1759  ,4.8
1464  ,1.293e+09   ,-2.3  ,-1.7631  ,4.8
1465  ,1.760e+09   ,-2.3  ,-1.1827  ,4.8
1466  ,2.580e+09   ,-2.3  ,-0.34986  ,4.8
1467  ,2.963e+09   ,-2.3  ,0.80545  ,4.8
1468  ,3.040e+09   ,-0.81337  ,2.3  ,4.8
1469  ,4.392e+09   ,0.67326  ,2.3  ,4.8
1470  ,3.829e+09   ,2.3  ,-2.1824  ,4.8
1471  ,2.648e+09   ,2.3  ,-1.7784  ,4.8
1472  ,3.143e+09   ,2.3  ,-1.2138  ,4.8
1473  ,3.378e+09   ,2.3  ,-0.40752  ,4.8
1474  ,3.468e+09   ,2.3  ,0.70532  ,4.8
1516  ,3.032e+09   ,2.3  ,2.3  ,1.6866
1517  ,4.271e+09   ,2.3  ,2.3  ,3.1733
1518  ,1.544e+09   ,2.3  ,-2.1759  ,0.2
1519  ,1.293e+09   ,2.3  ,-1.7631  ,0.2
1520  ,1.603e+09   ,2.3  ,-1.1827  ,0.2
1521  ,2.296e+09   ,2.3  ,-0.34986  ,0.2
1522  ,3.156e+09   ,2.3  ,0.80545  ,0.2
1564  ,1.794e+09   ,-0.76667  ,2.3  ,0.2
1565  ,3.329e+09   ,0.76667  ,2.3  ,0.2
1566  ,1.739e+09   ,-2.3  ,2.3  ,1.7333
1567  ,3.432e+09   ,-2.3  ,2.3  ,3.2667
1574  ,3.808e+08   ,-2.3  ,-2.1759  ,0.2
1575  ,3.612e+08   ,-2.3  ,-1.7631  ,0.2
1576  ,4.125e+08   ,-2.3  ,-1.1827  ,0.2
1577  ,7.655e+08   ,-2.3  ,-0.34986  ,0.2
1578  ,5.216e+08   ,-2.3  ,0.80545  ,0.2
1777  ,3.745e+09   ,-0.52764  ,2.5  ,4.9
1801  ,1.645e+09   ,-2.3  ,1.5527  ,0.2
1825  ,1.174e+09   ,-1.5333  ,2.3  ,0.2
1841  ,2.496e+09   ,0.063638  ,2.5  ,4.9
1876  ,1.055e+09   ,-0.5  ,2.4  ,0
1894  ,2.752e+09   ,2.3  ,1.5527  ,0.2
1907  ,1.014e+09   ,2.1  ,2.5  ,0.1
1928  ,1.103e+09   ,1.9  ,2.4  ,0
1974  ,1.272e+09   ,2.4  ,1.1  ,0
1981  ,1.353e+09   ,2.4  ,2.5  ,0.59273
1987  ,1.141e+09   ,-2.5  ,2.4  ,4
2004  ,1.013e+09   ,-2.4  ,2.5  ,4.6
2009  ,1.145e+09   ,2.4  ,1.3  ,0
2020  ,1.407e+09   ,2.5  ,1.1  ,0.1
2035  ,1.530e+09   ,-2.3  ,-0.76628  ,0.2
2070  ,5.742e+09   ,1.6404  ,2.4  ,5
2081  ,2.777e+09   ,2.4  ,2.5  ,1.9724
2095  ,1.845e+09   ,2.4  ,2.5  ,0.78982
2138  ,2.015e+09   ,-2.4  ,-0.1  ,0
2146  ,3.281e+09   ,-0.92182  ,2.4  ,5
2174  ,2.965e+09   ,2.4  ,2.5  ,1.184
2190  ,2.349e+09   ,2.5  ,2.4  ,0.98691
2203  ,3.933e+09   ,2.5  ,-0.13345  ,4.9
2232  ,5.429e+09   ,2.3  ,0.1489  ,4.8
2242  ,2.806e+09   ,2.4  ,2.5  ,2.9578
2293  ,2.259e+09   ,-2.5  ,0.5  ,0.1
2311  ,5.569e+09   ,2.3  ,2.3  ,2.4299
2313  ,2.198e+09   ,2.5  ,2.4  ,0.78982
2329  ,2.370e+09   ,2.4  ,2.5  ,2.1695
2355  ,1.148e+09   ,-2.4  ,2.5  ,4.4
2380  ,9.239e+08   ,-2.5  ,-1.5  ,0.1
2383  ,2.781e+09   ,0.45782  ,2.5  ,4.9
2408  ,4.344e+09   ,2.3  ,-1.4961  ,4.8
2445  ,3.362e+09   ,2.5  ,-1.5131  ,4.9
2484  ,2.652e+08   ,-2.5  ,-2.4  ,1.6
2495  ,1.135e+09   ,-2.4  ,1.7  ,5
2508  ,8.382e+08   ,2.4  ,0.3  ,0
2514  ,3.436e+09   ,2.3  ,0.2278  ,0.2
2570  ,1.035e+09   ,-2.4  ,1.5  ,5
2580  ,5.451e+09   ,1.6404  ,2.5  ,4.9
2603  ,3.985e+09   ,-1.1189  ,2.5  ,4.9
2695  ,2.431e+09   ,2.3  ,2.3  ,0.94331
2705  ,3.841e+09   ,2.4  ,2.5  ,1.3811
2714  ,2.380e+09   ,2.5  ,0.45782  ,4.9
2734  ,6.248e+08   ,2.4  ,-0.9  ,0
2775  ,5.057e+08   ,2.5  ,-0.1  ,0.1
2779  ,3.733e+08   ,2.4  ,-0.1  ,0
2801  ,7.235e+09   ,1.4166  ,2.3  ,4.8
2814  ,4.031e+09   ,1.4433  ,2.5  ,4.9
2863  ,1.717e+09   ,-2.4  ,2.5  ,0.6
2884  ,1.977e+09   ,-2.4  ,2.5  ,0.8
2886  ,2.072e+09   ,-2.4  ,2.5  ,1.2
2967  ,1.109e+09   ,2.4  ,1.7  ,0
2973  ,1.125e+09   ,2.5  ,1.5  ,0.1
2987  ,1.311e+09   ,-0.3  ,2.5  ,0.1
3008  ,1.160e+09   ,-2.3  ,2.3  ,0.96667
3012  ,1.064e+09   ,-2.5  ,2.4  ,2.6
3021  ,1.086e+09   ,-2.5  ,2.4  ,2.8
3025  ,1.106e+09   ,-2.5  ,2.4  ,2.4
3030  ,1.149e+09   ,-2.4  ,2.5  ,2.4
3033  ,1.174e+09   ,-2.4  ,2.5  ,2.2
3047  ,2.343e+09   ,2.4  ,2.5  ,2.3665
3052  ,2.614e+09   ,2.5  ,2.4  ,2.5636
3061  ,2.406e+09   ,2.4  ,2.5  ,2.5636
3081  ,1.084e+09   ,-2.4  ,1.3  ,5
3088  ,9.041e+08   ,-1.9073  ,2.4  ,5
3099  ,1.225e+09   ,-2.4  ,1.9  ,5
3107  ,1.039e+09   ,-2.4  ,2.5  ,3.8
3139  ,2.150e+09   ,-1.5131  ,2.4  ,5
3145  ,2.370e+09   ,-1.5131  ,2.5  ,4.9
3148  ,1.738e+09   ,-1.7102  ,2.5  ,4.9
3168  ,1.545e+09   ,-2.4  ,1.5  ,0
3188  ,1.215e+09   ,-2.5  ,-2.4  ,1
3202  ,2.412e+09   ,0.26073  ,2.5  ,4.9
3212  ,5.107e+09   ,2.5  ,1.6404  ,4.9
3247  ,7.438e+09   ,2.5  ,1.8375  ,4.9
3265  ,7.099e+09   ,2.3  ,1.4326  ,4.8
3271  ,1.323e+10   ,2.2299  ,2.2299  ,4.8
3284  ,3.738e+09   ,2.4  ,1.4433  ,5
3291  ,3.806e+09   ,2.5  ,1.4433  ,4.9
3296  ,2.328e+09   ,-2.3  ,-0.76628  ,4.8
3303  ,5.852e+08   ,-2.4  ,-0.9  ,5
3311  ,3.623e+08   ,-2.4  ,-0.7  ,5
3315  ,1.183e+09   ,1.9  ,2.5  ,0.1
3336  ,2.003e+09   ,-2.4  ,0.3  ,0
3340  ,2.022e+09   ,-2.5  ,0.1  ,0.1
3344  ,2.060e+09   ,-2.4  ,0.1  ,0
3356  ,9.381e+08   ,-0.3  ,2.4  ,0
3361  ,2.648e+09   ,-0.33054  ,2.5  ,4.9
3364  ,2.399e+09   ,-0.13345  ,2.5  ,4.9
3383  ,3.031e+09   ,2.4  ,2.5  ,3.5491
3402  ,1.485e+10   ,2.4  ,2.5  ,4.5345
3421  ,3.145e+09   ,-1.316  ,2.5  ,4.9
3439  ,3.957e+09   ,2.5  ,2.4  ,3.9433
3447  ,4.315e+09   ,2.4  ,2.5  ,3.9433
3451  ,3.302e+09   ,2.4  ,2.5  ,3.7462
3468  ,4.300e+09   ,1.4433  ,2.4  ,5
3480  ,2.959e+09   ,1.0491  ,2.4  ,5
3519  ,9.336e+08   ,1.5  ,2.4  ,0
3527  ,1.697e+09   ,2.3  ,-1.4729  ,0.2
3550  ,1.674e+09   ,-1.7  ,2.4  ,0
3554  ,1.814e+09   ,-1.7  ,2.5  ,0.1
3558  ,1.876e+09   ,-1.5  ,2.4  ,0
3562  ,1.908e+09   ,-1.5  ,2.5  ,0.1
3574  ,1.003e+09   ,-2.4  ,2.1  ,5
3581  ,1.341e+09   ,-2.5  ,1.7  ,0.1
3583  ,1.203e+09   ,-2.5  ,1.9  ,0.1
3584  ,1.068e+09   ,-1.9073  ,2.5  ,4.9
3591  ,8.669e+08   ,2.5  ,0.3  ,0.1
3595  ,5.788e+08   ,2.5  ,0.1  ,0.1
3603  ,2.127e+10   ,2.4577  ,2.391  ,4.7576
3663  ,8.975e+08   ,-1.933  ,-2.5  ,0.2
3669  ,4.792e+08   ,-2.1765  ,-2.5  ,0.2
3672  ,3.596e+08   ,-2.3  ,-2.3379  ,0.2
3682  ,1.150e+09   ,-1.9  ,-2.4  ,0
3700  ,1.017e+09   ,2.3  ,-2.5  ,2.7424
3712  ,7.159e+08   ,-2.1  ,-2.5  ,4.9
3715  ,9.123e+08   ,-1.9  ,-2.5  ,4.9
3740  ,5.018e+08   ,-1.3  ,-2.4  ,5
3746  ,2.501e+08   ,-1.2085  ,-2.5  ,4.8
3755  ,1.131e+09   ,-1.5  ,-2.4  ,5
3760  ,1.070e+09   ,-1.7  ,-2.5  ,4.9
3786  ,3.220e+09   ,2.4  ,2.5  ,1.5782
3813  ,2.710e+09   ,0.26073  ,2.4  ,5
3858  ,4.798e+08   ,-0.9  ,-2.4  ,5
3863  ,1.395e+09   ,-2.5  ,0.9  ,4.9
3875  ,2.624e+09   ,-1.9  ,-2.4  ,5
3885  ,3.363e+09   ,2.4  ,-0.72473  ,5
3910  ,1.029e+09   ,-2.4  ,-2.5  ,3.4
3959  ,6.095e+09   ,2.5  ,2.4  ,4.1404
3969  ,2.639e+09   ,2.5  ,1.0491  ,4.9
3992  ,1.932e+10   ,2.391  ,2.2576  ,4.9577
3993  ,1.907e+10   ,2.4577  ,2.2576  ,4.891
4016  ,3.596e+08   ,-2.3015  ,2.5  ,4.9
4018  ,4.343e+08   ,-2.4  ,2.5  ,4.8
4021  ,3.351e+09   ,1.2462  ,2.4  ,5
4042  ,7.487e+08   ,2.4  ,-1.1  ,0
4046  ,1.872e+09   ,-0.9  ,2.4  ,0
4055  ,2.211e+09   ,1.7  ,-2.5  ,4.9
4087  ,1.184e+09   ,1.7  ,2.4  ,0
4114  ,3.210e+09   ,2.5  ,-0.33054  ,4.9
4120  ,2.295e+08   ,2.4  ,-2.5  ,1.8
4125  ,1.881e+09   ,2.4  ,2.5  ,0.98691
4144  ,9.879e+09   ,2.4  ,2.5  ,4.3375
4161  ,9.197e+08   ,-2.4  ,0.3  ,5
4201  ,1.031e+09   ,1.933  ,-2.5  ,0.2
4225  ,3.937e+08   ,-2.3  ,-2.4  ,0
4230  ,9.404e+08   ,-2.3  ,-2.5  ,0.56701
4269  ,2.708e+08   ,-0.9  ,-2.5  ,4.9
4277  ,3.282e+08   ,-1.1  ,-2.4  ,5
4288  ,4.624e+09   ,-0.070055  ,2.3  ,4.8
4328  ,1.994e+09   ,-2.5  ,-2.4  ,4.2
4336  ,1.236e+09   ,-2.5  ,-2.4  ,4.4
4342  ,1.937e+09   ,-2.5  ,-2.4  ,4.6
4348  ,3.073e+09   ,-2.4  ,-2.4707  ,4.9707
4352  ,1.452e+09   ,-2.3  ,-2.5  ,4.9
4354  ,4.860e+09   ,-2.1765  ,-2.5  ,4.8
4355  ,2.337e+09   ,-2.3  ,-2.3379  ,4.8
4362  ,1.261e+09   ,2.5  ,2.4  ,0.59273
4364  ,2.251e+09   ,2.5  ,-2.4  ,2.4
4366  ,1.679e+09   ,2.5  ,-2.4  ,2.2
4372  ,1.161e+09   ,2.4  ,-2.5  ,2.2
4385  ,7.004e+08   ,-2.5  ,-1.9  ,0.1
4399  ,8.847e+08   ,-2.5  ,2.1  ,0.1
4407  ,6.915e+08   ,-0.7  ,-2.4  ,0
4436  ,2.004e+09   ,-2.5  ,-0.1  ,0.1
4462  ,2.270e+09   ,-2.3  ,2.3  ,4.0333
4491  ,2.964e+09   ,2.5  ,-0.52764  ,4.9
4494  ,5.497e+08   ,2.5  ,-2.4  ,1.4
4503  ,3.202e+08   ,2.4  ,-2.5  ,1.4
4508  ,5.405e+08   ,2.4  ,-2.5  ,1.2
4515  ,4.488e+08   ,2.5  ,-2.4  ,1.8
4517  ,2.801e+08   ,2.4  ,-2.5  ,1.6
4522  ,3.809e+09   ,0.7  ,-2.4  ,0
4538  ,3.139e+09   ,-1.1189  ,2.4  ,5
4546  ,5.236e+09   ,2.4  ,2.5  ,4.1404
4559  ,2.182e+09   ,1.7  ,-2.4  ,0
4590  ,3.302e+09   ,0.5  ,-2.4  ,0
4631  ,1.332e+09   ,2.4  ,-2.5  ,2.6
4634  ,3.238e+09   ,2.5  ,-2.4  ,2.8
4657  ,9.170e+08   ,-2.5  ,-2.4  ,2
4660  ,6.203e+08   ,-2.5  ,-2.4  ,1.8
4664  ,1.443e+09   ,-0.3  ,-2.4  ,0
4675  ,1.657e+09   ,-2.4  ,-2.5  ,4.8
4681  ,1.983e+09   ,-2.5  ,-0.3  ,0.1
4684  ,1.139e+09   ,1.7  ,-2.4  ,5
4703  ,1.537e+09   ,-2.4  ,0.7  ,5
4707  ,1.046e+09   ,-2.5  ,0.3  ,4.9
4714  ,2.878e+09   ,2.4  ,-0.33054  ,5
4723  ,3.375e+09   ,-1.5567  ,2.3  ,4.8
4739  ,7.421e+08   ,-2.1044  ,2.5  ,4.9
4763  ,1.540e+09   ,-1.9  ,2.4  ,0
4780  ,2.982e+08   ,-2.3  ,-1.9695  ,0.2
4782  ,1.742e+08   ,-2.4707  ,-2.4  ,0.029289
4784  ,6.921e+08   ,-2.4  ,-1.9  ,0
4791  ,3.395e+08   ,-2.4  ,-2.5  ,1.8
4796  ,4.812e+09   ,2.4707  ,-2.4707  ,4.9
4799  ,6.005e+09   ,2.5  ,-2.4  ,4.8
4806  ,3.134e+09   ,2.3  ,-2.5  ,4.9
4809  ,7.309e+09   ,2.3  ,2.3  ,3.9166
4833  ,1.444e+09   ,-2.4  ,2.5  ,0.4
4841  ,1.203e+09   ,-2.4  ,2.5  ,2.6
4846  ,9.307e+08   ,-2.5  ,2.1  ,4.9
4848  ,5.292e+08   ,-2.5  ,2.3  ,4.9
4849  ,5.158e+08   ,-2.5  ,2.4  ,4.8
4893  ,1.211e+09   ,-2.4  ,2.5  ,4.2
4897  ,9.759e+09   ,2.3333  ,2.1998  ,5
4900  ,1.757e+10   ,2.391  ,2.4577  ,4.7576
4908  ,2.061e+10   ,2.2576  ,2.391  ,4.9577
4911  ,1.796e+10   ,2.2576  ,2.4577  ,4.891
4926  ,1.956e+09   ,-2.5  ,2.4  ,1
4932  ,2.088e+09   ,-2.4  ,2.5  ,1.6
4937  ,2.277e+09   ,-1.1  ,2.5  ,0.1
4939  ,1.301e+10   ,2.3  ,2.2299  ,4.7299
4944  ,4.079e+09   ,2.5  ,-1.9073  ,4.9
4987  ,2.456e+09   ,-2.3  ,1.5527  ,4.8
5010  ,2.004e+10   ,2.4973  ,2.1331  ,4.923
5013  ,9.115e+09   ,2.5  ,2.0345  ,4.9
5017  ,9.953e+09   ,2.4  ,2.0345  ,5
5035  ,3.544e+09   ,1.3  ,-2.4  ,0
5038  ,2.192e+09   ,1.2085  ,-2.5  ,0.2
5092  ,3.680e+08   ,-2.4  ,-2.5  ,1.2
5123  ,3.132e+09   ,2.5  ,-2.4  ,0.6
5151  ,1.840e+09   ,-2.5  ,-0.5  ,0.1
5160  ,1.555e+09   ,-2.5  ,-0.7  ,0.1
5164  ,1.628e+09   ,-2.4  ,0.9  ,5
5168  ,1.019e+09   ,-2.4  ,0.5  ,5
5176  ,3.757e+08   ,2.5  ,-0.7  ,0.1
5179  ,2.639e+08   ,2.4  ,-0.5  ,0
5189  ,1.391e+09   ,2.4  ,-2.5  ,2.4
5194  ,8.624e+08   ,2.3  ,-2.5  ,2.2576
5198  ,5.484e+08   ,-2.3  ,-2.5  ,0.32348
5205  ,5.622e+08   ,-2.4  ,-2.5  ,0.2
5207  ,7.151e+08   ,-2.1  ,-2.5  ,0.1
5246  ,1.930e+09   ,-2.5  ,2.4  ,3.2
5257  ,1.059e+09   ,-2.5  ,1.5  ,4.9
5263  ,1.752e+09   ,-2.3  ,0.2278  ,0.2
5272  ,2.030e+09   ,-2.5  ,0.3  ,0.1
5275  ,1.182e+09   ,-2.5  ,0.5  ,4.9
5281  ,7.049e+09   ,1.8375  ,2.5  ,4.9
5297  ,2.187e+09   ,-0.9  ,2.5  ,0.1
5306  ,1.345e+09   ,-0.7  ,2.4  ,0
5309  ,1.434e+09   ,-0.5  ,2.5  ,0.1
5324  ,2.391e+09   ,2.4  ,2.5  ,2.7607
5332  ,2.006e+09   ,2.5  ,-2.4  ,0.8
5334  ,9.716e+08   ,2.4  ,-2.5  ,1
5360  ,3.631e+09   ,2.4  ,-1.7102  ,5
5362  ,3.634e+09   ,2.4  ,-1.5131  ,5
5368  ,6.693e+09   ,2.4  ,1.8375  ,5
5371  ,3.885e+10   ,2.4325  ,2.4888  ,4.6656
5372  ,2.366e+10   ,2.3333  ,2.5  ,4.6998
5376  ,2.816e+10   ,2.4707  ,2.4707  ,4.6331
5377  ,1.628e+10   ,2.5  ,2.4  ,4.5345
5379  ,9.505e+08   ,-1.5  ,-2.5  ,4.9
5406  ,4.278e+09   ,-2.5  ,-2.4  ,3.4
5420  ,2.016e+09   ,-2.3  ,-2.5  ,3.2226
5423  ,2.961e+09   ,1.5  ,-2.4  ,0
5502  ,2.360e+08   ,-2.5  ,-2.3  ,0.1
5504  ,5.027e+08   ,-2.5  ,-2.4  ,0.2
5506  ,1.584e+08   ,-2.4  ,-2.3  ,0
5511  ,4.398e+08   ,-2.5  ,-2.1  ,0.1
5513  ,1.946e+09   ,-2.4  ,0.5  ,0
5517  ,4.283e+08   ,-0.9  ,-2.5  ,0.1
5532  ,2.402e+08   ,-2.4707  ,2.4707  ,4.9
5534  ,4.630e+08   ,2.4  ,-0.7  ,0
5551  ,3.573e+09   ,2.5  ,-2.4  ,3.8
5566  ,2.619e+09   ,2.5  ,2.4  ,1.3811
5603  ,3.094e+08   ,2.4  ,-0.3  ,0
5617  ,1.482e+09   ,-2.1  ,2.5  ,0.1
5637  ,1.271e+09   ,-2.3  ,-1.9695  ,4.8
5641  ,1.024e+09   ,2.3  ,-2.5  ,3.4636
5645  ,6.079e+08   ,-2.4  ,-2.5  ,2
5649  ,8.826e+08   ,-2.4  ,-2.5  ,2.2
5659  ,2.871e+08   ,-2.3  ,-2.5  ,1.7774
5662  ,8.135e+09   ,2.1765  ,-2.5  ,4.8
5666  ,3.094e+09   ,2.4  ,-2.5  ,4.8
5669  ,4.755e+09   ,2.3  ,-2.3412  ,4.8
5695  ,1.942e+09   ,-2.4  ,0.7  ,0
5701  ,1.769e+09   ,-2.5  ,2.4  ,1.6
5715  ,1.768e+09   ,-2.4  ,2.5  ,1.8
5726  ,1.781e+09   ,-0.7  ,2.5  ,0.1
5727  ,1.949e+09   ,-1.1  ,2.4  ,0
5730  ,1.215e+08   ,2.3  ,-2.5  ,1.7774
5746  ,3.104e+09   ,2.5  ,2.4  ,1.7753
5755  ,2.467e+09   ,2.5  ,-2.4  ,4.4
5763  ,2.078e+09   ,2.4  ,-2.5  ,4.4
5773  ,2.984e+09   ,1.0491  ,2.5  ,4.9
5791  ,3.018e+09   ,-0.72473  ,2.4  ,5
5795  ,7.896e+09   ,1.8375  ,2.4  ,5
5803  ,1.568e+09   ,-0.3  ,-2.4  ,5
5810  ,5.019e+09   ,2.4  ,1.6404  ,5
5836  ,1.078e+09   ,-2.5  ,1.3  ,4.9
5860  ,5.488e+08   ,2.5  ,-2.4  ,1.6
5866  ,9.229e+08   ,1.5  ,-2.5  ,0.1
5884  ,6.574e+08   ,-2.4  ,-0.3  ,5
5888  ,2.845e+08   ,-2.5  ,-0.5  ,4.9
5901  ,1.037e+09   ,2.3  ,-2.5  ,2.5
5908  ,5.857e+08   ,2.5  ,-2.4  ,1.2
5909  ,8.373e+08   ,2.5  ,-2.4  ,2
5934  ,2.107e+09   ,1.9  ,-2.5  ,4.9
5938  ,4.851e+09   ,1.933  ,-2.5  ,4.8
5948  ,1.976e+09   ,-2.4  ,-2.5  ,4.6
5950  ,2.318e+09   ,-2.4707  ,-2.4707  ,4.9
5951  ,2.359e+09   ,-2.5  ,-2.4  ,4.8
5952  ,1.706e+09   ,-2.5  ,-2.3  ,4.9
5986  ,5.665e+08   ,2.3  ,-2.5  ,3.7085
5990  ,3.488e+09   ,-0.92182  ,2.5  ,4.9
6019  ,8.470e+08   ,2.5  ,1.9  ,0.1
6025  ,7.280e+08   ,2.4  ,-1.3  ,0
6035  ,1.186e+09   ,-2.5  ,1.9  ,4.9
6044  ,1.630e+09   ,0.1  ,2.5  ,0.1
6054  ,5.319e+08   ,2.4  ,0.1  ,0
6070  ,4.668e+08   ,-2.4  ,2.3  ,0
6071  ,6.781e+08   ,-2.3  ,2.4  ,0
6076  ,9.456e+08   ,-2.4  ,2.1  ,0
6083  ,2.427e+09   ,2.1  ,-2.4  ,0
6084  ,5.824e+08   ,2.4  ,2.3  ,0
6087  ,5.043e+08   ,2.3  ,2.4  ,0
6092  ,6.194e+08   ,-2.4  ,-2.5  ,0.4
6096  ,5.129e+08   ,-2.3  ,-2.5  ,0.1
6099  ,1.164e+09   ,0.7  ,-2.5  ,0.1
6149  ,1.375e+09   ,-2.4  ,-0.9  ,0
6159  ,2.284e+09   ,-2.5  ,-2.4  ,2.6
6183  ,3.224e+09   ,1.2462  ,2.5  ,4.9
6224  ,2.632e+09   ,2.5  ,-2.4  ,4
6228  ,2.230e+09   ,2.4  ,-2.5  ,3.8
6237  ,1.900e+09   ,2.5  ,0.7  ,0.1
6241  ,1.551e+10   ,2.5  ,2.3333  ,4.6998
6245  ,2.713e+09   ,2.5  ,2.4  ,1.5782
6259  ,4.299e+09   ,2.5  ,-2.1044  ,4.9
6265  ,3.554e+09   ,2.3  ,-1.9804  ,4.8
6267  ,4.560e+09   ,2.5  ,-2.3015  ,4.9
6268  ,4.141e+09   ,2.4707  ,-2.4  ,4.9707
6270  ,4.380e+09   ,2.4  ,-2.1044  ,5
6317  ,2.966e+09   ,-2.3  ,0.2278  ,4.8
6349  ,3.184e+09   ,-0.52764  ,2.4  ,5
6391  ,3.095e+09   ,2.4  ,2.5  ,1.7753
6440  ,1.162e+09   ,-2.5  ,2.4  ,3.8
6471  ,3.270e+09   ,2.5  ,-0.92182  ,4.9
6489  ,3.108e+09   ,2.5  ,1.2462  ,4.9
6523  ,3.182e+08   ,-1.1  ,-2.4  ,0
6528  ,4.423e+08   ,-1.1  ,-2.5  ,0.1
6535  ,4.191e+08   ,-0.9  ,-2.4  ,0
6538  ,2.595e+09   ,1.5  ,-2.4  ,5
6541  ,2.403e+09   ,1.5  ,-2.5  ,4.9
6551  ,3.148e+09   ,2.5  ,-0.72473  ,4.9
6564  ,4.563e+10   ,2.1331  ,2.4973  ,4.923
6565  ,1.491e+10   ,2.0345  ,2.5  ,4.9
6572  ,1.048e+09   ,2.4  ,-1.7  ,0
6581  ,3.780e+09   ,0  ,2.3  ,0.2
6592  ,1.238e+09   ,2.3  ,-1.9695  ,0.2
6594  ,1.039e+09   ,0.3  ,2.4  ,0
6601  ,1.811e+09   ,0.5  ,2.5  ,0.1
6605  ,1.082e+09   ,-2.4  ,-1.3  ,0
6606  ,1.191e+09   ,-2.4  ,-1.1  ,0
6615  ,2.198e+09   ,-2.4  ,-0.3  ,0
6634  ,2.627e+09   ,2.1  ,-2.5  ,4.9
6635  ,4.800e+09   ,2.4  ,-2.4707  ,4.9707
6636  ,5.859e+09   ,2.3  ,-2.4  ,5
6647  ,1.102e+09   ,0.5  ,-2.5  ,0.1
6704  ,3.209e+08   ,-2.4707  ,2.4707  ,0.1
6708  ,6.642e+08   ,-2.5  ,2.4  ,0.2
6712  ,1.224e+09   ,-2.4  ,2.5  ,3.6
6715  ,1.750e+09   ,-2.4  ,2.5  ,3.4
6728  ,1.444e+09   ,-2.5  ,0.7  ,4.9
6753  ,6.205e+08   ,-2.1044  ,2.4  ,5
6788  ,9.556e+09   ,2.5  ,2.4  ,4.3375
6791  ,3.502e+09   ,-1.933  ,-2.5  ,4.8
6795  ,2.376e+10   ,2.1998  ,2.5  ,4.8333
6837  ,1.027e+09   ,-2.3  ,-2.5  ,0.8063
6869  ,3.737e+09   ,2.5  ,-1.7102  ,4.9
6873  ,4.416e+09   ,2.4  ,-1.9073  ,5
6880  ,3.404e+09   ,2.4  ,-0.92182  ,5
6885  ,3.185e+09   ,2.4  ,-0.52764  ,5
6893  ,2.932e+09   ,2.4  ,1.2462  ,5
6914  ,2.123e+09   ,0.7  ,2.5  ,0.1
6920  ,1.897e+09   ,0.9  ,2.4  ,0
6923  ,1.815e+09   ,0.7  ,2.4  ,0
6936  ,1.749e+09   ,2.4  ,-2.5  ,3.4
6939  ,1.552e+09   ,2.3  ,-2.5  ,3.2226
6961  ,1.139e+09   ,-0.1  ,-2.5  ,4.9
6967  ,1.141e+09   ,-2.5  ,-1.5  ,4.9
6975  ,1.279e+09   ,-2.4  ,1.1  ,5
6978  ,9.054e+08   ,-2.4  ,2.5  ,0.2
6987  ,3.493e+09   ,2.4  ,-1.316  ,5
6994  ,1.038e+09   ,2.4  ,-1.5  ,0
7004  ,2.082e+09   ,2.4  ,-2.5  ,3.6
7011  ,2.440e+09   ,2.4  ,0.65491  ,5
7016  ,2.442e+09   ,2.4  ,0.45782  ,5
7019  ,2.665e+09   ,2.5  ,2.4  ,2.1695
7021  ,2.849e+09   ,2.5  ,2.4  ,1.9724
7052  ,1.956e+09   ,-1.3  ,2.5  ,0.1
7054  ,5.165e+08   ,-2.4  ,-2.5  ,0.8
7057  ,1.157e+09   ,0.3  ,-2.5  ,0.1
7065  ,9.900e+08   ,0.24243  ,-2.5  ,0.2
7075  ,3.518e+10   ,2.4888  ,2.4325  ,4.6656
7113  ,1.072e+09   ,-2.4  ,-2.5  ,2.6
7121  ,1.222e+09   ,-2.4  ,-2.5  ,2.8
7126  ,2.812e+09   ,-2.5  ,-2.4  ,2.8
7128  ,1.867e+08   ,-2.4707  ,-2.4707  ,0.1
7129  ,1.805e+08   ,-2.4  ,-2.4707  ,0.029289
7141  ,2.009e+09   ,-1.7  ,-2.4  ,5
7145  ,1.301e+09   ,1.1  ,2.4  ,0
7163  ,1.269e+09   ,-1.7102  ,2.4  ,5
7172  ,4.163e+09   ,2.5  ,-2.4  ,3.2
7174  ,1.303e+09   ,-2.5  ,2.4  ,3.6
7183  ,9.980e+08   ,-1.4531  ,-2.5  ,4.8
7204  ,7.131e+09   ,2.3  ,-0.81068  ,4.8
7220  ,2.886e+09   ,2.5  ,0.063638  ,4.9
7227  ,1.632e+09   ,2.5  ,-1.9  ,0.1
7256  ,2.010e+09   ,-0.1  ,-2.4  ,5
7280  ,2.787e+09   ,-0.33054  ,2.4  ,5
7299  ,3.365e+09   ,2.5  ,-1.1189  ,4.9
7316  ,1.337e+09   ,-2.5  ,-2.4  ,0.8
7323  ,3.934e+08   ,-2.4  ,-2.5  ,1
7396  ,4.210e+09   ,1.1  ,-2.4  ,5
7400  ,1.980e+09   ,-2.5  ,0.7  ,0.1
7409  ,3.737e+09   ,1.3  ,-2.4  ,5
7420  ,9.387e+08   ,2.5  ,2.1  ,0.1
7429  ,1.203e+09   ,2.4  ,1.9  ,0
7436  ,1.276e+09   ,2.5  ,-1.7  ,0.1
7438  ,1.453e+09   ,2.4  ,-2.5  ,2.8
7445  ,2.479e+10   ,2.4325  ,2.1656  ,4.9888
7464  ,8.232e+08   ,2.5  ,-1.5  ,0.1
7480  ,2.986e+09   ,2.5  ,-2.4  ,0.2
7482  ,1.671e+09   ,1.9  ,-2.5  ,0.1
7483  ,1.292e+09   ,1.7  ,-2.5  ,0.1
7486  ,2.401e+09   ,1.9  ,-2.4  ,5
7488  ,2.753e+09   ,1.6937  ,-2.5  ,4.8
7492  ,6.283e+09   ,2.1  ,-2.4  ,5
7495  ,1.021e+09   ,0.1  ,-2.5  ,0.1
7504  ,2.687e+09   ,0.3  ,-2.4  ,0
7507  ,9.298e+08   ,0.9  ,-2.5  ,0.1
7533  ,1.887e+09   ,-2.5  ,0.9  ,0.1
7536  ,9.434e+08   ,-2.4  ,-2.5  ,3.2
7540  ,1.179e+09   ,-2.4  ,-2.5  ,3
7545  ,3.322e+09   ,-2.5  ,-2.4  ,3
7582  ,1.063e+09   ,1.3  ,2.5  ,0.1
7588  ,2.818e+09   ,2.5  ,2.4  ,2.3665
7598  ,1.254e+09   ,-2.5  ,2.4  ,4.2
7607  ,2.367e+09   ,1.5333  ,2.3  ,0.2
7627  ,1.132e+09   ,-2.5  ,1.1  ,4.9
7651  ,1.416e+09   ,2.4  ,-1.9  ,0
7656  ,8.994e+08   ,2.5  ,2.4  ,0.39564
7660  ,1.283e+10   ,2.2299  ,2.3  ,4.7299
7668  ,1.076e+09   ,1.4531  ,-2.5  ,4.8
7676  ,1.388e+09   ,0.1  ,-2.5  ,4.9
7683  ,2.616e+09   ,0.1  ,-2.4  ,5
7686  ,6.966e+08   ,-2.4  ,-1.1  ,5
7702  ,8.757e+08   ,-2.3  ,-2.5  ,4.433
7710  ,2.594e+09   ,-2.3  ,-2.5  ,4.6765
7752  ,4.497e+09   ,0.9  ,-2.4  ,5
7763  ,9.274e+08   ,0.24243  ,-2.5  ,4.8
7767  ,3.786e+09   ,-2.5  ,-2.4  ,3.2
7768  ,4.638e+08   ,-2.4  ,-2.1  ,0
7776  ,1.934e+09   ,-2.4  ,0.9  ,0
7786  ,1.780e+08   ,-0.4838  ,-2.5  ,4.8
7800  ,6.388e+09   ,2.5  ,-2.4  ,4.6
7805  ,7.938e+08   ,-2.5  ,-1.3  ,4.9
7811  ,7.068e+08   ,-2.5  ,-1.1  ,4.9
7820  ,1.896e+09   ,2.5  ,-2.1  ,0.1
7824  ,1.543e+09   ,2.4  ,-2.1  ,0
7828  ,2.337e+09   ,2.4  ,-2.5  ,4.2
7831  ,2.353e+09   ,2.4  ,-2.5  ,4
7838  ,1.197e+09   ,2.5  ,-2.4  ,4.2
7839  ,2.498e+09   ,2.5  ,2.4  ,2.7607
7840  ,2.795e+09   ,2.5  ,2.4  ,2.9578
7863  ,1.059e+09   ,-2.4  ,-1.5  ,0
7890  ,1.551e+09   ,2.4  ,0.9  ,0
7897  ,1.485e+09   ,-2.4  ,-0.7  ,0
7912  ,1.090e+09   ,-1.5  ,-2.4  ,0
7917  ,2.275e+08   ,-1.3  ,-2.5  ,0.1
7931  ,1.286e+09   ,0.5  ,2.4  ,0
7934  ,4.171e+09   ,1.1  ,-2.4  ,0
7937  ,1.359e+09   ,2.4  ,-2.5  ,0.8
7941  ,5.626e+08   ,-2.4  ,-2.5  ,0.6
7969  ,4.713e+08   ,-2.5  ,2.3  ,0.1
7971  ,1.182e+09   ,-2.4  ,1.9  ,0
7972  ,1.767e+09   ,-1.9  ,2.5  ,0.1
7978  ,1.804e+09   ,-2.4  ,1.1  ,0
7996  ,5.051e+08   ,-2.4  ,-0.5  ,5
8000  ,1.374e+09   ,-2.5  ,-2.4  ,0.6
8003  ,1.138e+09   ,-2.5  ,-2.4  ,0.4
8025  ,2.022e+09   ,0.9  ,2.5  ,0.1
8035  ,1.674e+09   ,0.3  ,2.5  ,0.1
8039  ,4.483e+09   ,2.3  ,-2.5  ,0.32348
8041  ,2.234e+09   ,2.3  ,-2.3379  ,0.2
8043  ,2.891e+09   ,2.1765  ,-2.5  ,0.2
8045  ,2.833e+08   ,-0.96359  ,-2.5  ,0.2
8054  ,9.463e+08   ,1.3  ,2.4  ,0
8058  ,1.535e+09   ,1.1  ,2.5  ,0.1
8062  ,2.014e+09   ,-2.5  ,2.4  ,1.4
8067  ,1.764e+09   ,-2.5  ,2.4  ,0.8
8087  ,1.549e+09   ,-2.5  ,1.5  ,0.1
8132  ,2.747e+09   ,-0.13345  ,2.4  ,5
8183  ,6.381e+08   ,2.5  ,-0.9  ,0.1
8184  ,1.739e+09   ,1.6937  ,-2.5  ,0.2
8214  ,1.885e+09   ,-2.4707  ,-2.4  ,4.9707
8217  ,3.736e+09   ,-2.1  ,-2.4  ,5
8219  ,1.570e+09   ,-2.4  ,-2.5  ,4.4
8227  ,2.834e+09   ,2.5  ,2.4  ,3.1549
8242  ,1.794e+09   ,0.7  ,-2.5  ,4.9
8248  ,4.022e+09   ,2.5  ,-2.4  ,3.6
8254  ,5.653e+08   ,2.5  ,-0.3  ,0.1
8256  ,4.192e+08   ,2.5  ,-0.5  ,0.1
8258  ,8.091e+08   ,-0.3  ,-2.5  ,4.9
8263  ,4.941e+08   ,-0.5  ,-2.5  ,4.9
8268  ,2.200e+09   ,-2.3  ,-2.5  ,3.7085
8277  ,9.069e+08   ,-0.1  ,-2.5  ,0.1
8285  ,2.232e+09   ,1.1  ,-2.5  ,4.9
8307  ,8.009e+08   ,0.1  ,2.4  ,0
8308  ,1.709e+09   ,-0.1  ,2.5  ,0.1
8309  ,7.182e+08   ,-0.1  ,2.4  ,0
8313  ,1.933e+09   ,2.5  ,-2.3  ,0.1
8318  ,3.688e+09   ,2.5  ,-2.4  ,3
8338  ,2.709e+09   ,2.5  ,2.4  ,3.352
8339  ,2.932e+09   ,2.4  ,2.5  ,3.1549
8344  ,1.804e+09   ,-2.5  ,2.4  ,3.4
8357  ,2.455e+10   ,2.4888  ,2.1656  ,4.9325
8358  ,9.937e+09   ,2.5  ,2.1998  ,4.8333
8383  ,1.171e+09   ,-1.7  ,-2.4  ,0
8396  ,1.080e+09   ,1.1  ,-2.5  ,0.1
8399  ,1.778e+10   ,2.4526  ,2.1331  ,4.9851
8405  ,1.067e+09   ,2.5  ,-2.4  ,1
8412  ,2.023e+09   ,2.3  ,-2.5  ,0.8063
8417  ,5.485e+08   ,-2.3  ,-2.5  ,2.5
8434  ,1.120e+09   ,0.9636  ,-2.5  ,4.8
8438  ,7.893e+08   ,-0.3  ,-2.5  ,0.1
8452  ,8.028e+08   ,-2.4  ,-0.1  ,5
8468  ,3.509e+09   ,2.5  ,2.4  ,3.7462
8471  ,6.399e+08   ,-1.3  ,-2.5  ,4.9
8493  ,2.051e+08   ,-1.1  ,-2.5  ,4.9
8509  ,8.132e+08   ,-2.5  ,-1.7  ,0.1
8517  ,1.617e+09   ,-2.4  ,2.5  ,3
8531  ,1.338e+09   ,-2.4  ,1.7  ,0
8556  ,3.084e+09   ,2.5  ,2.4  ,3.5491
8573  ,2.606e+09   ,-1.316  ,2.4  ,5
8576  ,1.708e+09   ,-2.4  ,1.3  ,0
8611  ,5.127e+08   ,2.3  ,-2.5  ,1.2915
8618  ,1.123e+09   ,-2.4  ,2.5  ,4
8646  ,1.879e+09   ,-2.5  ,1.1  ,0.1
8656  ,9.987e+08   ,2.5  ,-1.3  ,0.1
8657  ,9.303e+08   ,2.4  ,2.1  ,0
8673  ,1.904e+09   ,-1.3  ,2.4  ,0
8692  ,1.662e+09   ,0.72263  ,-2.5  ,4.8
8696  ,9.012e+08   ,2.3  ,-2.5  ,1.0469
8706  ,2.337e+09   ,2.5  ,0.65491  ,4.9
8721  ,3.537e+08   ,-2.4  ,-2.5  ,1.6
8725  ,2.869e+09   ,0.65491  ,2.4  ,5
8739  ,3.305e+10   ,2.1656  ,2.4325  ,4.9888
8741  ,1.619e+10   ,2.1998  ,2.3333  ,5
8746  ,9.721e+08   ,-2.1  ,-2.4  ,0
8748  ,8.526e+08   ,-2.5  ,-2.4  ,1.2
8752  ,4.129e+10   ,2.1331  ,2.4526  ,4.9851
8759  ,8.155e+08   ,-2.3  ,-2.5  ,1.0469
8787  ,1.727e+09   ,-0.1  ,-2.4  ,0
8793  ,4.176e+08   ,-2.3  ,-2.5  ,2.2576
8795  ,1.040e+09   ,-2.4  ,-2.5  ,2.4
8798  ,1.606e+09   ,-2.3  ,-2.5  ,4.1937
8808  ,1.869e+09   ,-2.3  ,-2.5  ,3.9531
8814  ,1.383e+09   ,-2.4  ,-1.5  ,5
8849  ,1.411e+09   ,0.4838  ,-2.5  ,4.8
8851  ,1.201e+09   ,-2.4  ,-2.5  ,4.2
8868  ,1.585e+09   ,2.4  ,-2.5  ,3
8874  ,2.987e+09   ,0.852  ,2.4  ,5
8883  ,9.600e+08   ,-0.5  ,-2.4  ,5
8886  ,1.198e+08   ,-0.72262  ,-2.5  ,4.8
8893  ,4.049e+08   ,-0.7  ,-2.5  ,4.9
8897  ,4.027e+09   ,-2.5  ,-2.4  ,3.6
8899  ,2.517e+09   ,-2.3  ,-2.5  ,3.4636
8900  ,6.873e+08   ,-2.3  ,-1.4729  ,0.2
8906  ,1.036e+09   ,-2.5  ,-1.3  ,0.1
8910  ,2.944e+09   ,0.852  ,2.5  ,4.9
8925  ,2.000e+09   ,-2.4  ,2.5  ,1.4
8941  ,3.772e+08   ,2.4707  ,2.4  ,0.029289
8942  ,6.409e+08   ,2.5  ,2.3  ,0.1
8945  ,9.683e+08   ,-2.5  ,0.1  ,4.9
8950  ,3.359e+08   ,2.4707  ,2.4707  ,0.1
8951  ,2.575e+08   ,2.4  ,2.4707  ,0.029289
8959  ,1.960e+09   ,2.4  ,0.26073  ,5
8965  ,2.823e+09   ,0.45782  ,2.4  ,5
8978  ,2.062e+09   ,2.4  ,0.852  ,5
8983  ,7.536e+08   ,2.5  ,-1.1  ,0.1
8991  ,1.597e+09   ,-2.5  ,2.4  ,0.6
9008  ,2.208e+09   ,2.5  ,0.852  ,4.9
9011  ,1.769e+09   ,-2.4  ,-0.5  ,0
9025  ,4.547e+08   ,-1.5  ,-2.5  ,0.1
9038  ,6.646e+08   ,2.4  ,-2.5  ,2
9041  ,1.918e+09   ,2.5  ,0.9  ,0.1
9050  ,1.272e+09   ,2.5  ,0.5  ,0.1
9054  ,4.131e+09   ,0.9  ,-2.4  ,0
9060  ,1.001e+09   ,2.4  ,-2.5  ,0.4
9062  ,3.426e+09   ,2.3  ,-2.5  ,0.56701
9064  ,3.590e+09   ,2.5  ,-2.4  ,0.4
9069  ,8.588e+08   ,2.4  ,-2.5  ,0.6
9071  ,1.937e+09   ,1.4531  ,-2.5  ,0.2
9082  ,3.814e+08   ,-2.3  ,-2.5  ,1.2915
9086  ,3.863e+08   ,-2.4  ,-2.5  ,1.4
9091  ,4.002e+08   ,-2.5  ,-2.4  ,1.4
9094  ,2.344e+09   ,1.3  ,-2.5  ,4.9
9097  ,4.349e+08   ,-0.7  ,-2.5  ,0.1
9137  ,3.884e+08   ,-2.5  ,-0.7  ,4.9
9143  ,6.438e+08   ,-2.5  ,-0.1  ,4.9
9146  ,1.238e+09   ,-2.1  ,2.4  ,0
9148  ,1.120e+09   ,-2.5  ,1.7  ,4.9
9173  ,1.381e+09   ,-2.5  ,2.4  ,3
9192  ,8.506e+08   ,-0.7  ,-2.4  ,5
9195  ,2.066e+09   ,0.72263  ,-2.5  ,0.2
9209  ,4.187e+09   ,2.5  ,-2.4  ,3.4
9215  ,2.413e+09   ,0.9636  ,-2.5  ,0.2
9217  ,1.633e+09   ,2.4  ,-2.5  ,3.2
9218  ,3.907e+07   ,-0.96359  ,-2.5  ,4.8
9229  ,1.477e+09   ,-2.4  ,2.5  ,2.8
9248  ,4.923e+09   ,2.3  ,-2.5  ,4.433
9255  ,1.308e+09   ,2.5  ,1.3  ,0.1
9257  ,1.033e+09   ,2.4  ,1.5  ,0
9262  ,3.816e+09   ,0.5  ,-2.4  ,5
9264  ,2.439e+09   ,2.4  ,-0.13345  ,5
9272  ,2.416e+09   ,0.063638  ,2.4  ,5
9277  ,2.025e+09   ,-2.5  ,2.4  ,1.2
9279  ,2.544e+09   ,2.5  ,0.26073  ,4.9
9282  ,7.949e+08   ,1.2085  ,-2.5  ,4.8
9286  ,1.972e+09   ,0.9  ,-2.5  ,4.9
9292  ,2.800e+08   ,-2.4  ,2.4707  ,4.9707
9293  ,3.900e+08   ,-2.3015  ,2.4  ,5
9296  ,1.775e+09   ,-2.4  ,-2.1  ,5
9303  ,1.705e+09   ,-2.4  ,-1.9  ,5
9311  ,5.899e+08   ,-2.4  ,2.3  ,5
9313  ,8.460e+08   ,-2.4  ,0.1  ,5
9319  ,1.051e+09   ,-0.5  ,-2.4  ,0
9328  ,2.033e+08   ,-2.3  ,-2.5  ,1.5364
9334  ,9.436e+08   ,-2.3  ,2.5  ,0.1
9338  ,1.828e+09   ,-2.5  ,-2.4  ,2.4
9339  ,1.681e+09   ,-2.5  ,1.3  ,0.1
9341  ,9.780e+08   ,-2.3  ,-2.5  ,2.7424
9344  ,1.377e+09   ,-2.5  ,-2.4  ,2.2
9358  ,5.651e+09   ,-2.3  ,2.3  ,2.5
9364  ,1.567e+09   ,-2.5  ,-2.1  ,4.9
9367  ,2.166e+09   ,-2.4  ,-2.3  ,5
9374  ,9.475e+08   ,-2.4  ,-1.3  ,5
9378  ,1.260e+09   ,-2.5  ,2.4  ,1.8
9384  ,4.339e+08   ,2.3  ,-2.5  ,2.0162
9385  ,1.165e+09   ,-2.5  ,2.4  ,4.4
9389  ,1.210e+09   ,-2.5  ,2.4  ,2
9395  ,4.240e+09   ,2.4  ,-2.3015  ,5
9396  ,8.557e+08   ,-2.4  ,-1.7  ,0
9407  ,1.538e+09   ,-2.3  ,-1.4729  ,4.8
9411  ,9.884e+08   ,-2.5  ,-1.7  ,4.9
9423  ,1.064e+09   ,-2.4  ,-2.5  ,3.6
9432  ,4.460e+09   ,0.7  ,-2.4  ,5
9438  ,4.766e+08   ,-2.5  ,-0.9  ,4.9
9443  ,5.216e+08   ,-2.5  ,-0.3  ,4.9
9445  ,2.505e+08   ,-2.4707  ,2.4  ,4.9707
9448  ,3.271e+09   ,2.4  ,-1.1189  ,5
9453  ,1.590e+09   ,2.4  ,0.7  ,0
9455  ,2.818e+09   ,2.5  ,-2.4  ,2.6
9457  ,1.234e+09   ,2.3  ,-2.5  ,2.9838
9494  ,2.013e+09   ,-2.4  ,2.5  ,1
9500  ,1.697e+09   ,0.3  ,-2.5  ,4.9
9504  ,3.197e+09   ,0.3  ,-2.4  ,5
9506  ,1.718e+09   ,2.1  ,-2.5  ,0.1
9518  ,5.885e+08   ,-1.9  ,-2.5  ,0.1
9528  ,1.739e+09   ,2.3  ,-2.5  ,0.1
9531  ,3.033e+09   ,2.4707  ,-2.4707  ,0.1
9533  ,1.897e+09   ,2.4707  ,-2.4  ,0.029289
9534  ,2.357e+09   ,2.4  ,-2.4707  ,0.029289
9541  ,1.867e+09   ,0.5  ,-2.5  ,4.9
9544  ,5.615e+08   ,-0.5  ,-2.5  ,0.1
9559  ,1.233e+09   ,-2.5  ,-1.9  ,4.9
9562  ,8.848e+08   ,-2.5  ,2.4  ,4.6
9565  ,1.631e+09   ,-2.4  ,2.5  ,2
9571  ,3.484e+09   ,-2.5  ,-2.4  ,3.8
9574  ,9.661e+08   ,-2.4  ,-2.5  ,3.8
9577  ,1.026e+09   ,1.3  ,-2.5  ,0.1
9582  ,1.375e+09   ,-2.5  ,-0.9  ,0.1
9596  ,7.945e+08   ,2.1  ,2.4  ,0
9598  ,2.059e+09   ,-2.4  ,2.5  ,3.2
9602  ,1.143e+09   ,1.5  ,2.5  ,0.1
9610  ,8.416e+08   ,2.4  ,2.5  ,0.39564
9612  ,3.466e+09   ,-0.72473  ,2.5  ,4.9
9614  ,1.197e+09   ,1.7  ,2.5  ,0.1
9635  ,1.100e+09   ,2.5  ,1.7  ,0.1
9646  ,5.237e+08   ,2.3  ,2.5  ,0.1
9651  ,3.434e+10   ,2.1656  ,2.4888  ,4.9325
9653  ,3.270e+09   ,2.5  ,-1.316  ,4.9
9656  ,1.283e+09   ,-2.4  ,-1.7  ,5
9659  ,8.104e+09   ,2.3  ,-2.5  ,4.6765
9661  ,9.837e+08   ,2.3  ,-2.5  ,3.9531
9664  ,3.033e+09   ,-2.3  ,-2.4  ,5
9666  ,1.445e+09   ,1.9  ,-2.4  ,0
9677  ,1.288e+09   ,2.4  ,0.5  ,0
9678  ,1.199e+09   ,-2.5  ,-1.1  ,0.1
9680  ,2.481e+09   ,2.5  ,2.4  ,1.184
9681  ,4.313e+08   ,2.5  ,2.4  ,0.19855
9696  ,3.131e+08   ,-2.3  ,-2.5  ,2.0162
9698  ,1.907e+09   ,2.4  ,-2.3  ,0
9699  ,2.233e+08   ,-0.24243  ,-2.5  ,0.2
9701  ,2.091e+09   ,0.1  ,-2.4  ,0
9704  ,3.340e+08   ,-0.4838  ,-2.5  ,0.2
9718  ,3.608e+08   ,-0.72262  ,-2.5  ,0.2
9726  ,2.296e+09   ,2.3  ,-0.76628  ,0.2
9727  ,1.396e+09   ,-2.5  ,2.4  ,0.4
9730  ,8.018e+08   ,1.9433E-06  ,-2.5  ,4.8
9731  ,6.912e+08   ,-0.24243  ,-2.5  ,4.8
9732  ,1.202e+09   ,-2.5  ,2.4  ,2.2
9738  ,2.920e+09   ,-2.5  ,-2.4  ,4
9743  ,2.204e+09   ,-1.6937  ,-2.5  ,4.8
9744  ,7.685e+08   ,-2.4  ,-2.5  ,4
9750  ,6.513e+08   ,-1.7  ,-2.5  ,0.1
9752  ,1.160e+09   ,-1.6937  ,-2.5  ,0.2
9754  ,7.608e+08   ,-1.3  ,-2.4  ,0
9759  ,2.250e+08   ,-2.4707  ,2.4  ,0.029289
9760  ,2.659e+08   ,-2.4  ,2.4707  ,0.029289
9768  ,2.750e+09   ,2.3  ,-2.5  ,4.1937
9770  ,3.892e+08   ,1.9433E-06  ,-2.5  ,0.2
9771  ,1.594e+09   ,0.4838  ,-2.5  ,0.2
9772  ,1.525e+09   ,2.4  ,-2.5  ,0.2
9773  ,2.662e+09   ,2.4  ,-2.5  ,4.6
9776  ,2.324e+09   ,2.4  ,0.063638  ,5
9780  ,3.002e+09   ,0.65491  ,2.5  ,4.9
9781  ,5.254e+08   ,2.4  ,2.5  ,0.19855
9782  ,1.437e+09   ,-2.3  ,-2.5  ,2.9838
9786  ,7.546e+08   ,-1.2085  ,-2.5  ,0.2
9787  ,1.247e+09   ,-1.4531  ,-2.5  ,0.2
9790  ,2.424e+09   ,2.3  ,-2.4  ,0
9793  ,1.472e+10   ,2.0345  ,2.4  ,5
9797  ,3.522e+08   ,2.3  ,-2.5  ,1.5364
9798  ,2.259e+09   ,2.4  ,1.0491  ,5
9809  ,2.667e+09   ,2.4  ,2.5  ,3.352
