Date:  12:46, Monday, July 10, 2023
Model name: Hollow_DropBox
Study name: DropTest_300fts(-Default-)
Plot type:  Stress1
Plot step: 3   time : 15.7393 Microseconds
Result Type: von Mises 


Node  ,Value (N/m^2)  ,X (in)  ,Y (in)  ,Z (in)
1  ,8.446e+09   ,2.5  ,2.1331  ,4.9
2  ,2.390e+10   ,2.4577  ,2.1908  ,4.9577
3  ,2.014e+10   ,2.4894  ,2.1331  ,4.9447
4  ,8.204e+09   ,2.1331  ,2.5  ,4.9
5  ,2.020e+10   ,2.1331  ,2.4894  ,4.9447
6  ,2.231e+10   ,2.1908  ,2.4577  ,4.9577
7  ,1.618e+07   ,-2.4  ,2.4  ,5
8  ,1.689e+05   ,-2.4  ,-2.4  ,5
9  ,6.064e+06   ,2.4  ,-2.4  ,5
10  ,7.042e+09   ,2.4  ,2.1331  ,5
11  ,7.641e+09   ,2.1331  ,2.4  ,5
12  ,5.384e+06   ,2.5  ,-2.4  ,4.9
13  ,1.515e+05   ,2.5  ,-2.4  ,0.1
14  ,2.199e+07   ,2.5  ,2.4  ,0.1
15  ,7.855e+09   ,2.5  ,2.4  ,4.6331
16  ,1.794e+07   ,2.4  ,2.5  ,0.1
17  ,8.624e+06   ,-2.4  ,2.5  ,0.1
18  ,1.380e+07   ,-2.4  ,2.5  ,4.9
19  ,7.595e+09   ,2.4  ,2.5  ,4.6331
20  ,4.466e+06   ,-2.5  ,2.4  ,0.1
21  ,6.254e+02   ,-2.5  ,-2.4  ,0.1
22  ,1.404e+05   ,-2.5  ,-2.4  ,4.9
23  ,1.115e+07   ,-2.5  ,2.4  ,4.9
24  ,8.080e+02   ,-2.3  ,-2.5  ,0.2
25  ,1.372e+05   ,-2.3  ,-2.5  ,4.8
26  ,2.751e+06   ,2.3  ,-2.5  ,4.8
27  ,1.067e+05   ,2.3  ,-2.5  ,0.2
28  ,1.746e+05   ,-2.4  ,-2.5  ,4.9
29  ,2.638e+06   ,2.4  ,-2.5  ,4.9
30  ,4.500e+02   ,-2.4  ,-2.5  ,0.1
31  ,5.604e+04   ,2.4  ,-2.5  ,0.1
32  ,7.396e+04   ,2.4  ,-2.4  ,0
33  ,1.497e+07   ,2.4  ,2.4  ,0
34  ,6.404e+02   ,-2.4  ,-2.4  ,0
35  ,5.448e+06   ,-2.4  ,2.4  ,0
36  ,3.017e+10   ,2.4577  ,2.4577  ,4.6908
37  ,3.239e+07   ,-2.3  ,2.3  ,4.8
38  ,9.060e+09   ,2.1599  ,2.3  ,4.8
39  ,8.795e+09   ,2.3  ,2.1599  ,4.8
40  ,8.704e+09   ,2.3  ,2.3  ,4.6599
41  ,1.835e+07   ,2.3  ,2.3  ,0.2
42  ,3.167e+06   ,-2.3  ,2.3  ,0.2
43  ,2.030e+07   ,-2.4  ,2.2  ,5
44  ,7.177e+06   ,-2.4  ,2  ,5
45  ,6.483e+06   ,-2.4  ,1.8  ,5
46  ,1.103e+07   ,-2.4  ,1.6  ,5
47  ,1.062e+07   ,-2.4  ,1.4  ,5
48  ,8.150e+06   ,-2.4  ,1.2  ,5
49  ,1.728e+07   ,-2.4  ,1  ,5
50  ,2.476e+07   ,-2.4  ,0.8  ,5
51  ,2.221e+07   ,-2.4  ,0.6  ,5
52  ,2.343e+07   ,-2.4  ,0.4  ,5
53  ,2.344e+07   ,-2.4  ,0.2  ,5
54  ,2.178e+07   ,-2.4  ,5.8879E-16  ,5
55  ,5.892e+06   ,-2.4  ,-0.2  ,5
56  ,9.893e+06   ,-2.4  ,-0.4  ,5
57  ,1.090e+07   ,-2.4  ,-0.6  ,5
58  ,1.188e+07   ,-2.4  ,-0.8  ,5
59  ,4.196e+06   ,-2.4  ,-1  ,5
60  ,1.134e+07   ,-2.4  ,-1.2  ,5
61  ,3.620e+06   ,-2.4  ,-1.4  ,5
62  ,2.748e+06   ,-2.4  ,-1.6  ,5
63  ,2.906e+06   ,-2.4  ,-1.8  ,5
64  ,9.925e+05   ,-2.4  ,-2  ,5
65  ,2.639e+05   ,-2.4  ,-2.2  ,5
66  ,2.658e+05   ,-2.2  ,-2.4  ,5
67  ,4.693e+05   ,-2  ,-2.4  ,5
68  ,7.342e+05   ,-1.8  ,-2.4  ,5
69  ,1.203e+06   ,-1.6  ,-2.4  ,5
70  ,1.586e+06   ,-1.4  ,-2.4  ,5
71  ,1.377e+06   ,-1.2  ,-2.4  ,5
72  ,1.046e+06   ,-1  ,-2.4  ,5
73  ,4.627e+06   ,-0.8  ,-2.4  ,5
74  ,6.486e+06   ,-0.6  ,-2.4  ,5
75  ,4.971e+06   ,-0.4  ,-2.4  ,5
76  ,8.729e+05   ,-0.2  ,-2.4  ,5
77  ,2.960e+06   ,-5.8879E-16  ,-2.4  ,5
78  ,3.533e+06   ,0.2  ,-2.4  ,5
79  ,2.978e+06   ,0.4  ,-2.4  ,5
80  ,7.350e+06   ,0.6  ,-2.4  ,5
81  ,1.274e+07   ,0.8  ,-2.4  ,5
82  ,1.266e+07   ,1  ,-2.4  ,5
83  ,1.061e+07   ,1.2  ,-2.4  ,5
84  ,5.120e+06   ,1.4  ,-2.4  ,5
85  ,3.878e+06   ,1.6  ,-2.4  ,5
86  ,9.105e+06   ,1.8  ,-2.4  ,5
87  ,1.157e+07   ,2  ,-2.4  ,5
88  ,7.196e+06   ,2.2  ,-2.4  ,5
89  ,1.640e+07   ,2.4  ,-2.2029  ,5
90  ,1.277e+07   ,2.4  ,-2.0058  ,5
91  ,2.416e+07   ,2.4  ,-1.8087  ,5
92  ,2.182e+07   ,2.4  ,-1.6116  ,5
93  ,6.039e+07   ,2.4  ,-1.4145  ,5
94  ,1.248e+08   ,2.4  ,-1.2175  ,5
95  ,1.556e+08   ,2.4  ,-1.0204  ,5
96  ,3.017e+08   ,2.4  ,-0.82327  ,5
97  ,6.303e+08   ,2.4  ,-0.62618  ,5
98  ,1.132e+09   ,2.4  ,-0.42909  ,5
99  ,8.449e+08   ,2.4  ,-0.232  ,5
100  ,4.762e+08   ,2.4  ,-0.034907  ,5
101  ,6.756e+08   ,2.4  ,0.16218  ,5
102  ,3.839e+08   ,2.4  ,0.35927  ,5
103  ,4.154e+08   ,2.4  ,0.55637  ,5
104  ,3.173e+08   ,2.4  ,0.75346  ,5
105  ,4.095e+08   ,2.4  ,0.95055  ,5
106  ,6.656e+08   ,2.4  ,1.1476  ,5
107  ,1.504e+09   ,2.4  ,1.3447  ,5
108  ,2.341e+09   ,2.4  ,1.5418  ,5
109  ,3.505e+09   ,2.4  ,1.7389  ,5
110  ,5.530e+09   ,2.4  ,1.936  ,5
111  ,7.752e+09   ,2.2665  ,2.2665  ,5
112  ,5.556e+09   ,1.936  ,2.4  ,5
113  ,3.231e+09   ,1.7389  ,2.4  ,5
114  ,2.566e+09   ,1.5418  ,2.4  ,5
115  ,1.880e+09   ,1.3447  ,2.4  ,5
116  ,9.994e+08   ,1.1476  ,2.4  ,5
117  ,5.244e+08   ,0.95055  ,2.4  ,5
118  ,1.940e+08   ,0.75346  ,2.4  ,5
119  ,2.306e+08   ,0.55637  ,2.4  ,5
120  ,4.573e+08   ,0.35927  ,2.4  ,5
121  ,7.862e+08   ,0.16218  ,2.4  ,5
122  ,8.145e+08   ,-0.034907  ,2.4  ,5
123  ,8.043e+08   ,-0.232  ,2.4  ,5
124  ,9.023e+08   ,-0.42909  ,2.4  ,5
125  ,6.834e+08   ,-0.62618  ,2.4  ,5
126  ,3.585e+08   ,-0.82327  ,2.4  ,5
127  ,1.513e+08   ,-1.0204  ,2.4  ,5
128  ,8.375e+07   ,-1.2175  ,2.4  ,5
129  ,5.058e+07   ,-1.4145  ,2.4  ,5
130  ,2.110e+07   ,-1.6116  ,2.4  ,5
131  ,2.794e+07   ,-1.8087  ,2.4  ,5
132  ,3.982e+07   ,-2.0058  ,2.4  ,5
133  ,3.627e+07   ,-2.2029  ,2.4  ,5
294  ,1.397e+07   ,2.5  ,-2.2029  ,4.9
295  ,1.362e+07   ,2.5  ,-2.0058  ,4.9
296  ,1.947e+07   ,2.5  ,-1.8087  ,4.9
297  ,2.982e+07   ,2.5  ,-1.6116  ,4.9
298  ,5.618e+07   ,2.5  ,-1.4145  ,4.9
299  ,1.359e+08   ,2.5  ,-1.2175  ,4.9
300  ,1.766e+08   ,2.5  ,-1.0204  ,4.9
301  ,2.689e+08   ,2.5  ,-0.82327  ,4.9
302  ,6.310e+08   ,2.5  ,-0.62618  ,4.9
303  ,1.104e+09   ,2.5  ,-0.42909  ,4.9
304  ,8.557e+08   ,2.5  ,-0.232  ,4.9
305  ,6.792e+08   ,2.5  ,-0.034907  ,4.9
306  ,5.983e+08   ,2.5  ,0.16218  ,4.9
307  ,3.892e+08   ,2.5  ,0.35927  ,4.9
308  ,1.976e+08   ,2.5  ,0.55637  ,4.9
309  ,1.907e+08   ,2.5  ,0.75346  ,4.9
310  ,2.471e+08   ,2.5  ,0.95055  ,4.9
311  ,8.499e+08   ,2.5  ,1.1476  ,4.9
312  ,1.564e+09   ,2.5  ,1.3447  ,4.9
313  ,2.525e+09   ,2.5  ,1.5418  ,4.9
314  ,4.170e+09   ,2.5  ,1.7389  ,4.9
315  ,6.261e+09   ,2.5  ,1.936  ,4.9
316  ,5.184e+06   ,2.5  ,-2.4  ,4.7
317  ,5.248e+06   ,2.5  ,-2.4  ,4.5
318  ,3.170e+06   ,2.5  ,-2.4  ,4.3
319  ,9.614e+06   ,2.5  ,-2.4  ,4.1
320  ,1.692e+07   ,2.5  ,-2.4  ,3.9
321  ,1.860e+07   ,2.5  ,-2.4  ,3.7
322  ,1.719e+07   ,2.5  ,-2.4  ,3.5
323  ,1.394e+07   ,2.5  ,-2.4  ,3.3
324  ,7.351e+06   ,2.5  ,-2.4  ,3.1
325  ,4.220e+06   ,2.5  ,-2.4  ,2.9
326  ,3.353e+06   ,2.5  ,-2.4  ,2.7
327  ,1.591e+06   ,2.5  ,-2.4  ,2.5
328  ,2.283e+06   ,2.5  ,-2.4  ,2.3
329  ,5.900e+06   ,2.5  ,-2.4  ,2.1
330  ,4.452e+06   ,2.5  ,-2.4  ,1.9
331  ,8.193e+05   ,2.5  ,-2.4  ,1.7
332  ,1.755e+06   ,2.5  ,-2.4  ,1.5
333  ,2.472e+06   ,2.5  ,-2.4  ,1.3
334  ,2.145e+06   ,2.5  ,-2.4  ,1.1
335  ,1.520e+06   ,2.5  ,-2.4  ,0.9
336  ,9.106e+05   ,2.5  ,-2.4  ,0.7
337  ,2.758e+05   ,2.5  ,-2.4  ,0.5
338  ,1.839e+05   ,2.5  ,-2.4  ,0.3
339  ,3.101e+05   ,2.5  ,-2.2  ,0.1
340  ,5.864e+05   ,2.5  ,-2  ,0.1
341  ,2.993e+06   ,2.5  ,-1.8  ,0.1
342  ,3.974e+06   ,2.5  ,-1.6  ,0.1
343  ,4.923e+06   ,2.5  ,-1.4  ,0.1
344  ,1.291e+07   ,2.5  ,-1.2  ,0.1
345  ,7.509e+06   ,2.5  ,-1  ,0.1
346  ,1.496e+07   ,2.5  ,-0.8  ,0.1
347  ,9.466e+06   ,2.5  ,-0.6  ,0.1
348  ,7.033e+06   ,2.5  ,-0.4  ,0.1
349  ,1.136e+07   ,2.5  ,-0.2  ,0.1
350  ,1.837e+07   ,2.5  ,-1.7664E-15  ,0.1
351  ,1.904e+07   ,2.5  ,0.2  ,0.1
352  ,1.825e+07   ,2.5  ,0.4  ,0.1
353  ,1.913e+07   ,2.5  ,0.6  ,0.1
354  ,4.465e+07   ,2.5  ,0.8  ,0.1
355  ,2.552e+07   ,2.5  ,1  ,0.1
356  ,1.923e+07   ,2.5  ,1.2  ,0.1
357  ,1.164e+07   ,2.5  ,1.4  ,0.1
358  ,1.593e+07   ,2.5  ,1.6  ,0.1
359  ,9.812e+06   ,2.5  ,1.8  ,0.1
360  ,4.842e+06   ,2.5  ,2  ,0.1
361  ,1.758e+07   ,2.5  ,2.2  ,0.1
362  ,5.606e+09   ,2.5  ,2.4  ,4.436
363  ,3.916e+09   ,2.5  ,2.4  ,4.2389
364  ,2.509e+09   ,2.5  ,2.4  ,4.0418
365  ,1.974e+09   ,2.5  ,2.4  ,3.8447
366  ,8.239e+08   ,2.5  ,2.4  ,3.6476
367  ,3.857e+08   ,2.5  ,2.4  ,3.4505
368  ,2.851e+08   ,2.5  ,2.4  ,3.2535
369  ,2.926e+08   ,2.5  ,2.4  ,3.0564
370  ,3.775e+08   ,2.5  ,2.4  ,2.8593
371  ,7.864e+08   ,2.5  ,2.4  ,2.6622
372  ,8.230e+08   ,2.5  ,2.4  ,2.4651
373  ,8.368e+08   ,2.5  ,2.4  ,2.268
374  ,8.876e+08   ,2.5  ,2.4  ,2.0709
375  ,7.186e+08   ,2.5  ,2.4  ,1.8738
376  ,4.275e+08   ,2.5  ,2.4  ,1.6767
377  ,1.664e+08   ,2.5  ,2.4  ,1.4796
378  ,5.426e+07   ,2.5  ,2.4  ,1.2825
379  ,1.742e+07   ,2.5  ,2.4  ,1.0855
380  ,1.805e+07   ,2.5  ,2.4  ,0.88836
381  ,3.063e+07   ,2.5  ,2.4  ,0.69127
382  ,3.018e+07   ,2.5  ,2.4  ,0.49418
383  ,2.146e+07   ,2.5  ,2.4  ,0.29709
384  ,7.727e+09   ,2.5  ,2.2665  ,4.7665
544  ,7.170e+06   ,2.2  ,2.5  ,0.1
545  ,1.339e+07   ,2  ,2.5  ,0.1
546  ,1.948e+07   ,1.8  ,2.5  ,0.1
547  ,2.453e+07   ,1.6  ,2.5  ,0.1
548  ,2.286e+07   ,1.4  ,2.5  ,0.1
549  ,2.761e+07   ,1.2  ,2.5  ,0.1
550  ,2.298e+07   ,1  ,2.5  ,0.1
551  ,6.415e+07   ,0.8  ,2.5  ,0.1
552  ,3.914e+07   ,0.6  ,2.5  ,0.1
553  ,2.055e+07   ,0.4  ,2.5  ,0.1
554  ,1.755e+07   ,0.2  ,2.5  ,0.1
555  ,1.270e+07   ,5.8879E-16  ,2.5  ,0.1
556  ,1.419e+07   ,-0.2  ,2.5  ,0.1
557  ,2.099e+07   ,-0.4  ,2.5  ,0.1
558  ,1.570e+07   ,-0.6  ,2.5  ,0.1
559  ,1.240e+07   ,-0.8  ,2.5  ,0.1
560  ,5.470e+06   ,-1  ,2.5  ,0.1
561  ,7.622e+06   ,-1.2  ,2.5  ,0.1
562  ,7.497e+06   ,-1.4  ,2.5  ,0.1
563  ,6.487e+06   ,-1.6  ,2.5  ,0.1
564  ,2.250e+06   ,-1.8  ,2.5  ,0.1
565  ,4.960e+06   ,-2  ,2.5  ,0.1
566  ,1.503e+07   ,-2.2  ,2.5  ,0.1
567  ,1.717e+07   ,-2.4  ,2.5  ,4.7
568  ,1.056e+07   ,-2.4  ,2.5  ,4.5
569  ,1.504e+07   ,-2.4  ,2.5  ,4.3
570  ,2.273e+07   ,-2.4  ,2.5  ,4.1
571  ,2.807e+07   ,-2.4  ,2.5  ,3.9
572  ,2.562e+07   ,-2.4  ,2.5  ,3.7
573  ,2.097e+07   ,-2.4  ,2.5  ,3.5
574  ,3.474e+07   ,-2.4  ,2.5  ,3.3
575  ,2.301e+07   ,-2.4  ,2.5  ,3.1
576  ,1.997e+07   ,-2.4  ,2.5  ,2.9
577  ,1.609e+07   ,-2.4  ,2.5  ,2.7
578  ,1.269e+07   ,-2.4  ,2.5  ,2.5
579  ,1.583e+07   ,-2.4  ,2.5  ,2.3
580  ,1.380e+07   ,-2.4  ,2.5  ,2.1
581  ,6.196e+06   ,-2.4  ,2.5  ,1.9
582  ,8.909e+06   ,-2.4  ,2.5  ,1.7
583  ,6.921e+06   ,-2.4  ,2.5  ,1.5
584  ,4.879e+06   ,-2.4  ,2.5  ,1.3
585  ,4.176e+06   ,-2.4  ,2.5  ,1.1
586  ,3.322e+06   ,-2.4  ,2.5  ,0.9
587  ,5.604e+06   ,-2.4  ,2.5  ,0.7
588  ,9.157e+06   ,-2.4  ,2.5  ,0.5
589  ,1.451e+07   ,-2.4  ,2.5  ,0.3
590  ,5.878e+09   ,1.936  ,2.5  ,4.9
591  ,3.207e+09   ,1.7389  ,2.5  ,4.9
592  ,2.425e+09   ,1.5418  ,2.5  ,4.9
593  ,1.779e+09   ,1.3447  ,2.5  ,4.9
594  ,9.328e+08   ,1.1476  ,2.5  ,4.9
595  ,5.171e+08   ,0.95055  ,2.5  ,4.9
596  ,3.506e+08   ,0.75346  ,2.5  ,4.9
597  ,2.918e+08   ,0.55637  ,2.5  ,4.9
598  ,4.651e+08   ,0.35927  ,2.5  ,4.9
599  ,8.423e+08   ,0.16218  ,2.5  ,4.9
600  ,7.677e+08   ,-0.034907  ,2.5  ,4.9
601  ,8.300e+08   ,-0.232  ,2.5  ,4.9
602  ,9.138e+08   ,-0.42909  ,2.5  ,4.9
603  ,6.991e+08   ,-0.62618  ,2.5  ,4.9
604  ,3.289e+08   ,-0.82327  ,2.5  ,4.9
605  ,1.600e+08   ,-1.0204  ,2.5  ,4.9
606  ,8.481e+07   ,-1.2175  ,2.5  ,4.9
607  ,5.164e+07   ,-1.4145  ,2.5  ,4.9
608  ,1.982e+07   ,-1.6116  ,2.5  ,4.9
609  ,2.204e+07   ,-1.8087  ,2.5  ,4.9
610  ,3.664e+07   ,-2.0058  ,2.5  ,4.9
611  ,3.313e+07   ,-2.2029  ,2.5  ,4.9
612  ,7.956e+09   ,2.2665  ,2.5  ,4.7665
613  ,5.153e+09   ,2.4  ,2.5  ,4.436
614  ,3.478e+09   ,2.4  ,2.5  ,4.2389
615  ,2.101e+09   ,2.4  ,2.5  ,4.0418
616  ,1.785e+09   ,2.4  ,2.5  ,3.8447
617  ,8.798e+08   ,2.4  ,2.5  ,3.6476
618  ,4.555e+08   ,2.4  ,2.5  ,3.4505
619  ,3.215e+08   ,2.4  ,2.5  ,3.2535
620  ,1.904e+08   ,2.4  ,2.5  ,3.0564
621  ,4.258e+08   ,2.4  ,2.5  ,2.8593
622  ,8.208e+08   ,2.4  ,2.5  ,2.6622
623  ,7.744e+08   ,2.4  ,2.5  ,2.4651
624  ,8.469e+08   ,2.4  ,2.5  ,2.268
625  ,8.711e+08   ,2.4  ,2.5  ,2.0709
626  ,7.005e+08   ,2.4  ,2.5  ,1.8738
627  ,4.407e+08   ,2.4  ,2.5  ,1.6767
628  ,1.578e+08   ,2.4  ,2.5  ,1.4796
629  ,5.870e+07   ,2.4  ,2.5  ,1.2825
630  ,2.179e+07   ,2.4  ,2.5  ,1.0855
631  ,3.455e+07   ,2.4  ,2.5  ,0.88836
632  ,3.663e+07   ,2.4  ,2.5  ,0.69127
633  ,3.481e+07   ,2.4  ,2.5  ,0.49418
634  ,2.347e+07   ,2.4  ,2.5  ,0.29709
796  ,5.025e+06   ,-2.5  ,2.2  ,0.1
797  ,1.954e+06   ,-2.5  ,2  ,0.1
798  ,2.102e+06   ,-2.5  ,1.8  ,0.1
799  ,1.644e+06   ,-2.5  ,1.6  ,0.1
800  ,7.398e+05   ,-2.5  ,1.4  ,0.1
801  ,1.424e+06   ,-2.5  ,1.2  ,0.1
802  ,1.912e+06   ,-2.5  ,1  ,0.1
803  ,1.025e+06   ,-2.5  ,0.8  ,0.1
804  ,6.272e+05   ,-2.5  ,0.6  ,0.1
805  ,3.018e+05   ,-2.5  ,0.4  ,0.1
806  ,3.190e+05   ,-2.5  ,0.2  ,0.1
807  ,2.277e+05   ,-2.5  ,5.8879E-16  ,0.1
808  ,5.058e+05   ,-2.5  ,-0.2  ,0.1
809  ,4.786e+05   ,-2.5  ,-0.4  ,0.1
810  ,1.728e+05   ,-2.5  ,-0.6  ,0.1
811  ,2.509e+05   ,-2.5  ,-0.8  ,0.1
812  ,1.676e+05   ,-2.5  ,-1  ,0.1
813  ,1.850e+05   ,-2.5  ,-1.2  ,0.1
814  ,5.744e+04   ,-2.5  ,-1.4  ,0.1
815  ,4.893e+04   ,-2.5  ,-1.6  ,0.1
816  ,2.373e+04   ,-2.5  ,-1.8  ,0.1
817  ,7.690e+03   ,-2.5  ,-2  ,0.1
818  ,2.740e+03   ,-2.5  ,-2.2  ,0.1
819  ,1.701e+05   ,-2.5  ,-2.4  ,4.7
820  ,1.585e+05   ,-2.5  ,-2.4  ,4.5
821  ,1.483e+05   ,-2.5  ,-2.4  ,4.3
822  ,8.794e+04   ,-2.5  ,-2.4  ,4.1
823  ,2.392e+04   ,-2.5  ,-2.4  ,3.9
824  ,5.059e+04   ,-2.5  ,-2.4  ,3.7
825  ,2.709e+04   ,-2.5  ,-2.4  ,3.5
826  ,1.308e+04   ,-2.5  ,-2.4  ,3.3
827  ,1.087e+04   ,-2.5  ,-2.4  ,3.1
828  ,6.543e+03   ,-2.5  ,-2.4  ,2.9
829  ,7.892e+03   ,-2.5  ,-2.4  ,2.7
830  ,5.255e+03   ,-2.5  ,-2.4  ,2.5
831  ,6.179e+03   ,-2.5  ,-2.4  ,2.3
832  ,8.216e+03   ,-2.5  ,-2.4  ,2.1
833  ,7.175e+03   ,-2.5  ,-2.4  ,1.9
834  ,3.748e+03   ,-2.5  ,-2.4  ,1.7
835  ,3.553e+03   ,-2.5  ,-2.4  ,1.5
836  ,7.088e+03   ,-2.5  ,-2.4  ,1.3
837  ,6.815e+03   ,-2.5  ,-2.4  ,1.1
838  ,5.255e+03   ,-2.5  ,-2.4  ,0.9
839  ,1.001e+03   ,-2.5  ,-2.4  ,0.7
840  ,2.913e+03   ,-2.5  ,-2.4  ,0.5
841  ,6.907e+02   ,-2.5  ,-2.4  ,0.3
842  ,1.648e+07   ,-2.5  ,2.2  ,4.9
843  ,6.326e+06   ,-2.5  ,2  ,4.9
844  ,7.407e+06   ,-2.5  ,1.8  ,4.9
845  ,6.994e+06   ,-2.5  ,1.6  ,4.9
846  ,3.149e+06   ,-2.5  ,1.4  ,4.9
847  ,1.066e+07   ,-2.5  ,1.2  ,4.9
848  ,1.864e+07   ,-2.5  ,1  ,4.9
849  ,1.823e+07   ,-2.5  ,0.8  ,4.9
850  ,1.970e+07   ,-2.5  ,0.6  ,4.9
851  ,1.597e+07   ,-2.5  ,0.4  ,4.9
852  ,1.431e+07   ,-2.5  ,0.2  ,4.9
853  ,1.431e+07   ,-2.5  ,5.8879E-16  ,4.9
854  ,1.109e+07   ,-2.5  ,-0.2  ,4.9
855  ,1.021e+07   ,-2.5  ,-0.4  ,4.9
856  ,9.344e+06   ,-2.5  ,-0.6  ,4.9
857  ,8.599e+06   ,-2.5  ,-0.8  ,4.9
858  ,4.989e+06   ,-2.5  ,-1  ,4.9
859  ,6.860e+06   ,-2.5  ,-1.2  ,4.9
860  ,4.662e+06   ,-2.5  ,-1.4  ,4.9
861  ,1.749e+06   ,-2.5  ,-1.6  ,4.9
862  ,3.348e+06   ,-2.5  ,-1.8  ,4.9
863  ,6.911e+05   ,-2.5  ,-2  ,4.9
864  ,6.677e+05   ,-2.5  ,-2.2  ,4.9
865  ,1.249e+07   ,-2.5  ,2.4  ,4.7
866  ,6.557e+06   ,-2.5  ,2.4  ,4.5
867  ,1.183e+07   ,-2.5  ,2.4  ,4.3
868  ,1.792e+07   ,-2.5  ,2.4  ,4.1
869  ,1.549e+07   ,-2.5  ,2.4  ,3.9
870  ,1.248e+07   ,-2.5  ,2.4  ,3.7
871  ,1.317e+07   ,-2.5  ,2.4  ,3.5
872  ,2.530e+07   ,-2.5  ,2.4  ,3.3
873  ,3.623e+07   ,-2.5  ,2.4  ,3.1
874  ,3.129e+07   ,-2.5  ,2.4  ,2.9
875  ,2.257e+07   ,-2.5  ,2.4  ,2.7
876  ,1.335e+07   ,-2.5  ,2.4  ,2.5
877  ,1.060e+07   ,-2.5  ,2.4  ,2.3
878  ,1.106e+07   ,-2.5  ,2.4  ,2.1
879  ,7.689e+06   ,-2.5  ,2.4  ,1.9
880  ,7.335e+06   ,-2.5  ,2.4  ,1.7
881  ,8.367e+06   ,-2.5  ,2.4  ,1.5
882  ,6.297e+06   ,-2.5  ,2.4  ,1.3
883  ,6.300e+06   ,-2.5  ,2.4  ,1.1
884  ,7.149e+06   ,-2.5  ,2.4  ,0.9
885  ,5.760e+06   ,-2.5  ,2.4  ,0.7
886  ,5.353e+06   ,-2.5  ,2.4  ,0.5
887  ,5.248e+06   ,-2.5  ,2.4  ,0.3
1044  ,1.844e+03   ,-2.3  ,-2.5  ,0.44697
1045  ,1.408e+03   ,-2.3  ,-2.5  ,0.68705
1046  ,3.212e+03   ,-2.3  ,-2.5  ,0.92554
1047  ,5.413e+03   ,-2.3  ,-2.5  ,1.1682
1048  ,5.820e+03   ,-2.3  ,-2.5  ,1.4148
1049  ,3.288e+03   ,-2.3  ,-2.5  ,1.6581
1050  ,1.479e+03   ,-2.3  ,-2.5  ,1.8967
1051  ,2.931e+03   ,-2.3  ,-2.5  ,2.1357
1052  ,1.798e+03   ,-2.3  ,-2.5  ,2.3794
1053  ,2.508e+03   ,-2.3  ,-2.5  ,2.6206
1054  ,4.729e+03   ,-2.3  ,-2.5  ,2.8643
1055  ,8.706e+03   ,-2.3  ,-2.5  ,3.1033
1056  ,1.369e+04   ,-2.3  ,-2.5  ,3.342
1057  ,3.142e+04   ,-2.3  ,-2.5  ,3.5852
1058  ,4.051e+04   ,-2.3  ,-2.5  ,3.8318
1059  ,1.564e+04   ,-2.3  ,-2.5  ,4.0745
1060  ,7.824e+04   ,-2.3  ,-2.5  ,4.3129
1061  ,8.769e+04   ,-2.3  ,-2.5  ,4.553
1062  ,3.325e+05   ,-2.053  ,-2.5  ,4.8
1063  ,6.412e+05   ,-1.8129  ,-2.5  ,4.8
1064  ,6.125e+05   ,-1.5745  ,-2.5  ,4.8
1065  ,1.091e+06   ,-1.3318  ,-2.5  ,4.8
1066  ,1.071e+06   ,-1.0852  ,-2.5  ,4.8
1067  ,9.705e+05   ,-0.84195  ,-2.5  ,4.8
1068  ,3.644e+06   ,-0.60329  ,-2.5  ,4.8
1069  ,3.188e+06   ,-0.3643  ,-2.5  ,4.8
1070  ,1.792e+06   ,-0.12055  ,-2.5  ,4.8
1071  ,2.342e+06   ,0.12056  ,-2.5  ,4.8
1072  ,1.194e+06   ,0.3643  ,-2.5  ,4.8
1073  ,2.716e+06   ,0.6033  ,-2.5  ,4.8
1074  ,6.094e+06   ,0.84195  ,-2.5  ,4.8
1075  ,8.659e+06   ,1.0852  ,-2.5  ,4.8
1076  ,7.688e+06   ,1.3318  ,-2.5  ,4.8
1077  ,4.830e+06   ,1.5745  ,-2.5  ,4.8
1078  ,2.604e+06   ,1.8129  ,-2.5  ,4.8
1079  ,6.781e+06   ,2.053  ,-2.5  ,4.8
1080  ,5.627e+06   ,2.3  ,-2.5  ,4.553
1081  ,7.208e+06   ,2.3  ,-2.5  ,4.3129
1082  ,1.091e+07   ,2.3  ,-2.5  ,4.0745
1083  ,1.291e+07   ,2.3  ,-2.5  ,3.8318
1084  ,1.074e+07   ,2.3  ,-2.5  ,3.5852
1085  ,6.132e+06   ,2.3  ,-2.5  ,3.3419
1086  ,2.160e+06   ,2.3  ,-2.5  ,3.1033
1087  ,7.812e+05   ,2.3  ,-2.5  ,2.8643
1088  ,1.623e+06   ,2.3  ,-2.5  ,2.6206
1089  ,2.268e+06   ,2.3  ,-2.5  ,2.3794
1090  ,3.909e+06   ,2.3  ,-2.5  ,2.1357
1091  ,1.254e+06   ,2.3  ,-2.5  ,1.8967
1092  ,1.394e+06   ,2.3  ,-2.5  ,1.658
1093  ,1.679e+06   ,2.3  ,-2.5  ,1.4148
1094  ,1.223e+06   ,2.3  ,-2.5  ,1.1682
1095  ,7.568e+05   ,2.3  ,-2.5  ,0.92554
1096  ,1.875e+05   ,2.3  ,-2.5  ,0.68705
1097  ,2.029e+05   ,2.3  ,-2.5  ,0.44697
1098  ,1.331e+03   ,-2.053  ,-2.5  ,0.2
1099  ,1.558e+03   ,-1.8129  ,-2.5  ,0.2
1100  ,3.482e+03   ,-1.5745  ,-2.5  ,0.2
1101  ,2.106e+04   ,-1.3318  ,-2.5  ,0.2
1102  ,1.732e+04   ,-1.0852  ,-2.5  ,0.2
1103  ,5.040e+04   ,-0.84195  ,-2.5  ,0.2
1104  ,9.126e+04   ,-0.60329  ,-2.5  ,0.2
1105  ,2.774e+04   ,-0.3643  ,-2.5  ,0.2
1106  ,3.880e+04   ,-0.12055  ,-2.5  ,0.2
1107  ,4.150e+04   ,0.12056  ,-2.5  ,0.2
1108  ,2.088e+04   ,0.3643  ,-2.5  ,0.2
1109  ,4.248e+04   ,0.6033  ,-2.5  ,0.2
1110  ,4.132e+04   ,0.84195  ,-2.5  ,0.2
1111  ,8.542e+04   ,1.0852  ,-2.5  ,0.2
1112  ,3.788e+04   ,1.3318  ,-2.5  ,0.2
1113  ,6.578e+04   ,1.5745  ,-2.5  ,0.2
1114  ,2.029e+05   ,1.8129  ,-2.5  ,0.2
1115  ,1.003e+05   ,2.053  ,-2.5  ,0.2
1116  ,1.994e+05   ,-2.2  ,-2.5  ,4.9
1117  ,6.230e+05   ,-2  ,-2.5  ,4.9
1118  ,5.494e+05   ,-1.8  ,-2.5  ,4.9
1119  ,8.233e+05   ,-1.6  ,-2.5  ,4.9
1120  ,1.097e+06   ,-1.4  ,-2.5  ,4.9
1121  ,9.896e+05   ,-1.2  ,-2.5  ,4.9
1122  ,6.052e+05   ,-1  ,-2.5  ,4.9
1123  ,2.786e+06   ,-0.8  ,-2.5  ,4.9
1124  ,3.922e+06   ,-0.6  ,-2.5  ,4.9
1125  ,2.444e+06   ,-0.4  ,-2.5  ,4.9
1126  ,1.257e+06   ,-0.2  ,-2.5  ,4.9
1127  ,1.751e+06   ,-1.7664E-15  ,-2.5  ,4.9
1128  ,2.423e+06   ,0.2  ,-2.5  ,4.9
1129  ,2.010e+06   ,0.4  ,-2.5  ,4.9
1130  ,3.837e+06   ,0.6  ,-2.5  ,4.9
1131  ,7.007e+06   ,0.8  ,-2.5  ,4.9
1132  ,8.447e+06   ,1  ,-2.5  ,4.9
1133  ,8.457e+06   ,1.2  ,-2.5  ,4.9
1134  ,3.463e+06   ,1.4  ,-2.5  ,4.9
1135  ,3.223e+06   ,1.6  ,-2.5  ,4.9
1136  ,4.139e+06   ,1.8  ,-2.5  ,4.9
1137  ,6.658e+06   ,2  ,-2.5  ,4.9
1138  ,5.843e+06   ,2.2  ,-2.5  ,4.9
1139  ,1.440e+05   ,-2.4  ,-2.5  ,4.7
1140  ,8.475e+04   ,-2.4  ,-2.5  ,4.5
1141  ,9.376e+04   ,-2.4  ,-2.5  ,4.3
1142  ,7.055e+04   ,-2.4  ,-2.5  ,4.1
1143  ,2.529e+04   ,-2.4  ,-2.5  ,3.9
1144  ,2.533e+04   ,-2.4  ,-2.5  ,3.7
1145  ,2.270e+04   ,-2.4  ,-2.5  ,3.5
1146  ,8.994e+03   ,-2.4  ,-2.5  ,3.3
1147  ,8.864e+03   ,-2.4  ,-2.5  ,3.1
1148  ,4.047e+03   ,-2.4  ,-2.5  ,2.9
1149  ,5.719e+03   ,-2.4  ,-2.5  ,2.7
1150  ,3.377e+03   ,-2.4  ,-2.5  ,2.5
1151  ,3.803e+03   ,-2.4  ,-2.5  ,2.3
1152  ,4.336e+03   ,-2.4  ,-2.5  ,2.1
1153  ,3.426e+03   ,-2.4  ,-2.5  ,1.9
1154  ,2.185e+03   ,-2.4  ,-2.5  ,1.7
1155  ,1.777e+03   ,-2.4  ,-2.5  ,1.5
1156  ,4.785e+03   ,-2.4  ,-2.5  ,1.3
1157  ,4.728e+03   ,-2.4  ,-2.5  ,1.1
1158  ,2.780e+03   ,-2.4  ,-2.5  ,0.9
1159  ,1.363e+03   ,-2.4  ,-2.5  ,0.7
1160  ,2.184e+03   ,-2.4  ,-2.5  ,0.5
1161  ,1.130e+03   ,-2.4  ,-2.5  ,0.3
1162  ,7.190e+02   ,-2.2  ,-2.5  ,0.1
1163  ,6.565e+02   ,-2  ,-2.5  ,0.1
1164  ,1.088e+03   ,-1.8  ,-2.5  ,0.1
1165  ,3.690e+03   ,-1.6  ,-2.5  ,0.1
1166  ,1.144e+04   ,-1.4  ,-2.5  ,0.1
1167  ,1.210e+04   ,-1.2  ,-2.5  ,0.1
1168  ,2.952e+04   ,-1  ,-2.5  ,0.1
1169  ,6.506e+04   ,-0.8  ,-2.5  ,0.1
1170  ,4.974e+04   ,-0.6  ,-2.5  ,0.1
1171  ,1.604e+04   ,-0.4  ,-2.5  ,0.1
1172  ,7.678e+04   ,-0.2  ,-2.5  ,0.1
1173  ,7.807e+04   ,-1.7664E-15  ,-2.5  ,0.1
1174  ,5.853e+04   ,0.2  ,-2.5  ,0.1
1175  ,2.613e+04   ,0.4  ,-2.5  ,0.1
1176  ,3.030e+04   ,0.6  ,-2.5  ,0.1
1177  ,3.627e+04   ,0.8  ,-2.5  ,0.1
1178  ,5.573e+04   ,1  ,-2.5  ,0.1
1179  ,3.865e+04   ,1.2  ,-2.5  ,0.1
1180  ,1.057e+05   ,1.4  ,-2.5  ,0.1
1181  ,1.514e+05   ,1.6  ,-2.5  ,0.1
1182  ,1.430e+05   ,1.8  ,-2.5  ,0.1
1183  ,9.903e+04   ,2  ,-2.5  ,0.1
1184  ,9.350e+04   ,2.2  ,-2.5  ,0.1
1185  ,3.408e+06   ,2.4  ,-2.5  ,4.7
1186  ,3.451e+06   ,2.4  ,-2.5  ,4.5
1187  ,3.165e+06   ,2.4  ,-2.5  ,4.3
1188  ,7.898e+06   ,2.4  ,-2.5  ,4.1
1189  ,1.277e+07   ,2.4  ,-2.5  ,3.9
1190  ,1.428e+07   ,2.4  ,-2.5  ,3.7
1191  ,1.183e+07   ,2.4  ,-2.5  ,3.5
1192  ,8.469e+06   ,2.4  ,-2.5  ,3.3
1193  ,3.961e+06   ,2.4  ,-2.5  ,3.1
1194  ,2.737e+06   ,2.4  ,-2.5  ,2.9
1195  ,2.708e+06   ,2.4  ,-2.5  ,2.7
1196  ,9.048e+05   ,2.4  ,-2.5  ,2.5
1197  ,1.850e+06   ,2.4  ,-2.5  ,2.3
1198  ,2.772e+06   ,2.4  ,-2.5  ,2.1
1199  ,2.975e+06   ,2.4  ,-2.5  ,1.9
1200  ,7.332e+05   ,2.4  ,-2.5  ,1.7
1201  ,1.455e+06   ,2.4  ,-2.5  ,1.5
1202  ,1.619e+06   ,2.4  ,-2.5  ,1.3
1203  ,1.408e+06   ,2.4  ,-2.5  ,1.1
1204  ,8.845e+05   ,2.4  ,-2.5  ,0.9
1205  ,4.735e+05   ,2.4  ,-2.5  ,0.7
1206  ,2.447e+05   ,2.4  ,-2.5  ,0.5
1207  ,1.808e+05   ,2.4  ,-2.5  ,0.3
1208  ,3.909e+05   ,2.4  ,-2.2  ,0
1209  ,4.330e+05   ,2.4  ,-2  ,0
1210  ,2.330e+06   ,2.4  ,-1.8  ,0
1211  ,2.372e+06   ,2.4  ,-1.6  ,0
1212  ,6.730e+06   ,2.4  ,-1.4  ,0
1213  ,6.644e+06   ,2.4  ,-1.2  ,0
1214  ,1.036e+07   ,2.4  ,-1  ,0
1215  ,1.293e+07   ,2.4  ,-0.8  ,0
1216  ,7.777e+06   ,2.4  ,-0.6  ,0
1217  ,6.329e+06   ,2.4  ,-0.4  ,0
1218  ,9.865e+06   ,2.4  ,-0.2  ,0
1219  ,1.311e+07   ,2.4  ,-1.7664E-15  ,0
1220  ,1.785e+07   ,2.4  ,0.2  ,0
1221  ,2.643e+07   ,2.4  ,0.4  ,0
1222  ,3.329e+07   ,2.4  ,0.6  ,0
1223  ,3.073e+07   ,2.4  ,0.8  ,0
1224  ,1.640e+07   ,2.4  ,1  ,0
1225  ,1.753e+07   ,2.4  ,1.2  ,0
1226  ,1.648e+07   ,2.4  ,1.4  ,0
1227  ,1.681e+07   ,2.4  ,1.6  ,0
1228  ,1.188e+07   ,2.4  ,1.8  ,0
1229  ,1.104e+07   ,2.4  ,2  ,0
1230  ,2.145e+07   ,2.4  ,2.2  ,0
1231  ,2.838e+02   ,-2.2  ,-2.4  ,0
1232  ,6.204e+02   ,-2  ,-2.4  ,0
1233  ,1.256e+03   ,-1.8  ,-2.4  ,0
1234  ,6.097e+03   ,-1.6  ,-2.4  ,0
1235  ,1.100e+04   ,-1.4  ,-2.4  ,0
1236  ,1.881e+04   ,-1.2  ,-2.4  ,0
1237  ,6.591e+04   ,-1  ,-2.4  ,0
1238  ,9.615e+04   ,-0.8  ,-2.4  ,0
1239  ,6.700e+04   ,-0.6  ,-2.4  ,0
1240  ,4.604e+04   ,-0.4  ,-2.4  ,0
1241  ,9.754e+04   ,-0.2  ,-2.4  ,0
1242  ,1.264e+05   ,5.8879E-16  ,-2.4  ,0
1243  ,8.947e+04   ,0.2  ,-2.4  ,0
1244  ,3.752e+04   ,0.4  ,-2.4  ,0
1245  ,6.098e+04   ,0.6  ,-2.4  ,0
1246  ,5.399e+04   ,0.8  ,-2.4  ,0
1247  ,4.813e+04   ,1  ,-2.4  ,0
1248  ,8.115e+04   ,1.2  ,-2.4  ,0
1249  ,1.848e+05   ,1.4  ,-2.4  ,0
1250  ,2.455e+05   ,1.6  ,-2.4  ,0
1251  ,2.642e+05   ,1.8  ,-2.4  ,0
1252  ,1.877e+05   ,2  ,-2.4  ,0
1253  ,1.346e+05   ,2.2  ,-2.4  ,0
1254  ,4.026e+06   ,-2.4  ,2.2  ,0
1255  ,2.403e+06   ,-2.4  ,2  ,0
1256  ,2.724e+06   ,-2.4  ,1.8  ,0
1257  ,2.189e+06   ,-2.4  ,1.6  ,0
1258  ,1.129e+06   ,-2.4  ,1.4  ,0
1259  ,1.994e+06   ,-2.4  ,1.2  ,0
1260  ,2.968e+06   ,-2.4  ,1  ,0
1261  ,1.363e+06   ,-2.4  ,0.8  ,0
1262  ,8.457e+05   ,-2.4  ,0.6  ,0
1263  ,7.038e+05   ,-2.4  ,0.4  ,0
1264  ,5.828e+05   ,-2.4  ,0.2  ,0
1265  ,5.564e+05   ,-2.4  ,5.8879E-16  ,0
1266  ,7.242e+05   ,-2.4  ,-0.2  ,0
1267  ,5.451e+05   ,-2.4  ,-0.4  ,0
1268  ,3.344e+05   ,-2.4  ,-0.6  ,0
1269  ,2.662e+05   ,-2.4  ,-0.8  ,0
1270  ,1.213e+05   ,-2.4  ,-1  ,0
1271  ,2.016e+05   ,-2.4  ,-1.2  ,0
1272  ,2.037e+04   ,-2.4  ,-1.4  ,0
1273  ,4.184e+04   ,-2.4  ,-1.6  ,0
1274  ,1.816e+04   ,-2.4  ,-1.8  ,0
1275  ,9.022e+03   ,-2.4  ,-2  ,0
1276  ,3.383e+03   ,-2.4  ,-2.2  ,0
1277  ,1.613e+07   ,2.2  ,2.4  ,0
1278  ,1.246e+07   ,2  ,2.4  ,0
1279  ,1.762e+07   ,1.8  ,2.4  ,0
1280  ,2.074e+07   ,1.6  ,2.4  ,0
1281  ,1.619e+07   ,1.4  ,2.4  ,0
1282  ,1.722e+07   ,1.2  ,2.4  ,0
1283  ,1.729e+07   ,1  ,2.4  ,0
1284  ,2.665e+07   ,0.8  ,2.4  ,0
1285  ,4.120e+07   ,0.6  ,2.4  ,0
1286  ,2.629e+07   ,0.4  ,2.4  ,0
1287  ,1.303e+07   ,0.2  ,2.4  ,0
1288  ,4.169e+06   ,5.8879E-16  ,2.4  ,0
1289  ,6.325e+06   ,-0.2  ,2.4  ,0
1290  ,1.544e+07   ,-0.4  ,2.4  ,0
1291  ,1.331e+07   ,-0.6  ,2.4  ,0
1292  ,1.164e+07   ,-0.8  ,2.4  ,0
1293  ,9.719e+06   ,-1  ,2.4  ,0
1294  ,7.287e+06   ,-1.2  ,2.4  ,0
1295  ,5.734e+06   ,-1.4  ,2.4  ,0
1296  ,4.796e+06   ,-1.6  ,2.4  ,0
1297  ,4.611e+06   ,-1.8  ,2.4  ,0
1298  ,4.288e+06   ,-2  ,2.4  ,0
1299  ,5.197e+06   ,-2.2  ,2.4  ,0
1460  ,1.077e+10   ,2.3243  ,2.3243  ,4.9577
1461  ,1.057e+10   ,2.4577  ,2.3243  ,4.8243
1462  ,8.289e+09   ,2.3243  ,2.4577  ,4.8243
1463  ,7.067e+05   ,-2.3  ,-2.1759  ,4.8
1464  ,1.569e+06   ,-2.3  ,-1.7631  ,4.8
1465  ,4.301e+06   ,-2.3  ,-1.1827  ,4.8
1466  ,1.508e+07   ,-2.3  ,-0.34986  ,4.8
1467  ,1.542e+07   ,-2.3  ,0.80545  ,4.8
1468  ,4.143e+08   ,-0.81337  ,2.3  ,4.8
1469  ,1.225e+09   ,0.67326  ,2.3  ,4.8
1470  ,1.334e+07   ,2.3  ,-2.1824  ,4.8
1471  ,1.278e+07   ,2.3  ,-1.7784  ,4.8
1472  ,8.399e+07   ,2.3  ,-1.2138  ,4.8
1473  ,7.341e+08   ,2.3  ,-0.40752  ,4.8
1474  ,1.287e+09   ,2.3  ,0.70532  ,4.8
1516  ,4.001e+08   ,2.3  ,2.3  ,1.6866
1517  ,1.227e+09   ,2.3  ,2.3  ,3.1733
1518  ,4.453e+05   ,2.3  ,-2.1759  ,0.2
1519  ,1.191e+06   ,2.3  ,-1.7631  ,0.2
1520  ,6.216e+06   ,2.3  ,-1.1827  ,0.2
1521  ,1.800e+07   ,2.3  ,-0.34986  ,0.2
1522  ,2.824e+07   ,2.3  ,0.80545  ,0.2
1564  ,1.434e+07   ,-0.76667  ,2.3  ,0.2
1565  ,3.830e+07   ,0.76667  ,2.3  ,0.2
1566  ,8.183e+06   ,-2.3  ,2.3  ,1.7333
1567  ,2.951e+07   ,-2.3  ,2.3  ,3.2667
1574  ,3.380e+03   ,-2.3  ,-2.1759  ,0.2
1575  ,3.525e+04   ,-2.3  ,-1.7631  ,0.2
1576  ,9.562e+04   ,-2.3  ,-1.1827  ,0.2
1577  ,3.044e+05   ,-2.3  ,-0.34986  ,0.2
1578  ,2.695e+06   ,-2.3  ,0.80545  ,0.2
1777  ,8.481e+08   ,-0.52764  ,2.5  ,4.9
1801  ,2.859e+06   ,-2.3  ,1.5527  ,0.2
1825  ,5.719e+06   ,-1.5333  ,2.3  ,0.2
1841  ,8.086e+08   ,0.063638  ,2.5  ,4.9
1876  ,1.736e+07   ,-0.5  ,2.4  ,0
1894  ,3.295e+07   ,2.3  ,1.5527  ,0.2
1907  ,7.330e+06   ,2.1  ,2.5  ,0.1
1928  ,1.457e+07   ,1.9  ,2.4  ,0
1974  ,1.784e+07   ,2.4  ,1.1  ,0
1981  ,3.556e+07   ,2.4  ,2.5  ,0.59273
1987  ,1.744e+07   ,-2.5  ,2.4  ,4
2004  ,1.288e+07   ,-2.4  ,2.5  ,4.6
2009  ,1.784e+07   ,2.4  ,1.3  ,0
2020  ,2.240e+07   ,2.5  ,1.1  ,0.1
2035  ,1.625e+05   ,-2.3  ,-0.76628  ,0.2
2070  ,2.801e+09   ,1.6404  ,2.4  ,5
2081  ,8.265e+08   ,2.4  ,2.5  ,1.9724
2095  ,3.697e+07   ,2.4  ,2.5  ,0.78982
2138  ,5.719e+05   ,-2.4  ,-0.1  ,0
2146  ,2.378e+08   ,-0.92182  ,2.4  ,5
2174  ,3.157e+07   ,2.4  ,2.5  ,1.184
2190  ,1.526e+07   ,2.5  ,2.4  ,0.98691
2203  ,7.164e+08   ,2.5  ,-0.13345  ,4.9
2232  ,9.555e+08   ,2.3  ,0.1489  ,4.8
2242  ,2.375e+08   ,2.4  ,2.5  ,2.9578
2293  ,5.408e+05   ,-2.5  ,0.5  ,0.1
2311  ,8.226e+08   ,2.3  ,2.3  ,2.4299
2313  ,2.576e+07   ,2.5  ,2.4  ,0.78982
2329  ,8.947e+08   ,2.4  ,2.5  ,2.1695
2355  ,1.228e+07   ,-2.4  ,2.5  ,4.4
2380  ,5.307e+04   ,-2.5  ,-1.5  ,0.1
2383  ,2.201e+08   ,0.45782  ,2.5  ,4.9
2408  ,8.654e+07   ,2.3  ,-1.4961  ,4.8
2445  ,1.590e+07   ,2.5  ,-1.5131  ,4.9
2484  ,2.144e+03   ,-2.5  ,-2.4  ,1.6
2495  ,8.386e+06   ,-2.4  ,1.7  ,5
2508  ,2.191e+07   ,2.4  ,0.3  ,0
2514  ,2.041e+07   ,2.3  ,0.2278  ,0.2
2570  ,1.204e+07   ,-2.4  ,1.5  ,5
2580  ,2.853e+09   ,1.6404  ,2.5  ,4.9
2603  ,1.099e+08   ,-1.1189  ,2.5  ,4.9
2695  ,1.700e+07   ,2.3  ,2.3  ,0.94331
2705  ,9.631e+07   ,2.4  ,2.5  ,1.3811
2714  ,2.614e+08   ,2.5  ,0.45782  ,4.9
2734  ,1.213e+07   ,2.4  ,-0.9  ,0
2775  ,1.063e+07   ,2.5  ,-0.1  ,0.1
2779  ,1.012e+07   ,2.4  ,-0.1  ,0
2801  ,3.639e+09   ,1.4166  ,2.3  ,4.8
2814  ,2.182e+09   ,1.4433  ,2.5  ,4.9
2863  ,7.798e+06   ,-2.4  ,2.5  ,0.6
2884  ,4.091e+06   ,-2.4  ,2.5  ,0.8
2886  ,4.715e+06   ,-2.4  ,2.5  ,1.2
2967  ,1.665e+07   ,2.4  ,1.7  ,0
2973  ,1.169e+07   ,2.5  ,1.5  ,0.1
2987  ,1.705e+07   ,-0.3  ,2.5  ,0.1
3008  ,1.034e+07   ,-2.3  ,2.3  ,0.96667
3012  ,1.854e+07   ,-2.5  ,2.4  ,2.6
3021  ,2.660e+07   ,-2.5  ,2.4  ,2.8
3025  ,1.177e+07   ,-2.5  ,2.4  ,2.4
3030  ,1.485e+07   ,-2.4  ,2.5  ,2.4
3033  ,1.392e+07   ,-2.4  ,2.5  ,2.2
3047  ,7.834e+08   ,2.4  ,2.5  ,2.3665
3052  ,8.274e+08   ,2.5  ,2.4  ,2.5636
3061  ,8.071e+08   ,2.4  ,2.5  ,2.5636
3081  ,8.237e+06   ,-2.4  ,1.3  ,5
3088  ,3.610e+07   ,-1.9073  ,2.4  ,5
3099  ,6.121e+06   ,-2.4  ,1.9  ,5
3107  ,2.742e+07   ,-2.4  ,2.5  ,3.8
3139  ,3.685e+07   ,-1.5131  ,2.4  ,5
3145  ,3.787e+07   ,-1.5131  ,2.5  ,4.9
3148  ,1.048e+07   ,-1.7102  ,2.5  ,4.9
3168  ,1.793e+06   ,-2.4  ,1.5  ,0
3188  ,6.109e+03   ,-2.5  ,-2.4  ,1
3202  ,7.452e+08   ,0.26073  ,2.5  ,4.9
3212  ,2.878e+09   ,2.5  ,1.6404  ,4.9
3247  ,4.878e+09   ,2.5  ,1.8375  ,4.9
3265  ,3.885e+09   ,2.3  ,1.4326  ,4.8
3271  ,8.714e+09   ,2.2299  ,2.2299  ,4.8
3284  ,1.907e+09   ,2.4  ,1.4433  ,5
3291  ,2.107e+09   ,2.5  ,1.4433  ,4.9
3296  ,6.051e+06   ,-2.3  ,-0.76628  ,4.8
3303  ,9.306e+06   ,-2.4  ,-0.9  ,5
3311  ,1.156e+07   ,-2.4  ,-0.7  ,5
3315  ,1.751e+07   ,1.9  ,2.5  ,0.1
3336  ,5.498e+05   ,-2.4  ,0.3  ,0
3340  ,2.353e+05   ,-2.5  ,0.1  ,0.1
3344  ,5.244e+05   ,-2.4  ,0.1  ,0
3356  ,1.117e+07   ,-0.3  ,2.4  ,0
3361  ,8.933e+08   ,-0.33054  ,2.5  ,4.9
3364  ,7.706e+08   ,-0.13345  ,2.5  ,4.9
3383  ,6.111e+08   ,2.4  ,2.5  ,3.5491
3402  ,6.166e+09   ,2.4  ,2.5  ,4.5345
3421  ,7.096e+07   ,-1.316  ,2.5  ,4.9
3439  ,2.123e+09   ,2.5  ,2.4  ,3.9433
3447  ,2.078e+09   ,2.4  ,2.5  ,3.9433
3451  ,1.416e+09   ,2.4  ,2.5  ,3.7462
3468  ,2.273e+09   ,1.4433  ,2.4  ,5
3480  ,7.213e+08   ,1.0491  ,2.4  ,5
3519  ,1.992e+07   ,1.5  ,2.4  ,0
3527  ,4.286e+06   ,2.3  ,-1.4729  ,0.2
3550  ,4.748e+06   ,-1.7  ,2.4  ,0
3554  ,4.234e+06   ,-1.7  ,2.5  ,0.1
3558  ,5.915e+06   ,-1.5  ,2.4  ,0
3562  ,7.314e+06   ,-1.5  ,2.5  ,0.1
3574  ,1.597e+07   ,-2.4  ,2.1  ,5
3581  ,2.038e+06   ,-2.5  ,1.7  ,0.1
3583  ,1.783e+06   ,-2.5  ,1.9  ,0.1
3584  ,3.058e+07   ,-1.9073  ,2.5  ,4.9
3591  ,1.910e+07   ,2.5  ,0.3  ,0.1
3595  ,1.795e+07   ,2.5  ,0.1  ,0.1
3603  ,1.609e+10   ,2.4577  ,2.391  ,4.7576
3663  ,4.326e+02   ,-1.933  ,-2.5  ,0.2
3669  ,1.071e+03   ,-2.1765  ,-2.5  ,0.2
3672  ,1.455e+03   ,-2.3  ,-2.3379  ,0.2
3682  ,8.102e+02   ,-1.9  ,-2.4  ,0
3700  ,9.077e+05   ,2.3  ,-2.5  ,2.7424
3712  ,2.644e+05   ,-2.1  ,-2.5  ,4.9
3715  ,5.881e+05   ,-1.9  ,-2.5  ,4.9
3740  ,1.519e+06   ,-1.3  ,-2.4  ,5
3746  ,1.008e+06   ,-1.2085  ,-2.5  ,4.8
3755  ,1.427e+06   ,-1.5  ,-2.4  ,5
3760  ,6.809e+05   ,-1.7  ,-2.5  ,4.9
3786  ,2.947e+08   ,2.4  ,2.5  ,1.5782
3813  ,6.246e+08   ,0.26073  ,2.4  ,5
3858  ,2.190e+06   ,-0.9  ,-2.4  ,5
3863  ,1.716e+07   ,-2.5  ,0.9  ,4.9
3875  ,5.839e+05   ,-1.9  ,-2.4  ,5
3885  ,4.335e+08   ,2.4  ,-0.72473  ,5
3910  ,1.570e+04   ,-2.4  ,-2.5  ,3.4
3959  ,3.023e+09   ,2.5  ,2.4  ,4.1404
3969  ,4.850e+08   ,2.5  ,1.0491  ,4.9
3992  ,1.763e+10   ,2.391  ,2.2576  ,4.9577
3993  ,1.573e+10   ,2.4577  ,2.2576  ,4.891
4016  ,2.415e+07   ,-2.3015  ,2.5  ,4.9
4018  ,1.275e+07   ,-2.4  ,2.5  ,4.8
4021  ,1.341e+09   ,1.2462  ,2.4  ,5
4042  ,6.992e+06   ,2.4  ,-1.1  ,0
4046  ,1.161e+07   ,-0.9  ,2.4  ,0
4055  ,3.447e+06   ,1.7  ,-2.5  ,4.9
4087  ,1.960e+07   ,1.7  ,2.4  ,0
4114  ,1.031e+09   ,2.5  ,-0.33054  ,4.9
4120  ,1.465e+06   ,2.4  ,-2.5  ,1.8
4125  ,2.230e+07   ,2.4  ,2.5  ,0.98691
4144  ,4.391e+09   ,2.4  ,2.5  ,4.3375
4161  ,2.266e+07   ,-2.4  ,0.3  ,5
4201  ,1.810e+05   ,1.933  ,-2.5  ,0.2
4225  ,4.088e+02   ,-2.3  ,-2.4  ,0
4230  ,2.481e+03   ,-2.3  ,-2.5  ,0.56701
4269  ,1.540e+06   ,-0.9  ,-2.5  ,4.9
4277  ,6.907e+05   ,-1.1  ,-2.4  ,5
4288  ,7.963e+08   ,-0.070055  ,2.3  ,4.8
4328  ,1.182e+05   ,-2.5  ,-2.4  ,4.2
4336  ,1.473e+05   ,-2.5  ,-2.4  ,4.4
4342  ,1.727e+05   ,-2.5  ,-2.4  ,4.6
4348  ,1.312e+05   ,-2.4  ,-2.4707  ,4.9707
4352  ,1.501e+05   ,-2.3  ,-2.5  ,4.9
4354  ,3.065e+05   ,-2.1765  ,-2.5  ,4.8
4355  ,2.592e+05   ,-2.3  ,-2.3379  ,4.8
4362  ,3.122e+07   ,2.5  ,2.4  ,0.59273
4364  ,1.354e+06   ,2.5  ,-2.4  ,2.4
4366  ,4.458e+06   ,2.5  ,-2.4  ,2.2
4372  ,3.092e+06   ,2.4  ,-2.5  ,2.2
4385  ,1.624e+04   ,-2.5  ,-1.9  ,0.1
4399  ,3.802e+06   ,-2.5  ,2.1  ,0.1
4407  ,8.463e+04   ,-0.7  ,-2.4  ,0
4436  ,2.265e+05   ,-2.5  ,-0.1  ,0.1
4462  ,3.158e+07   ,-2.3  ,2.3  ,4.0333
4491  ,9.016e+08   ,2.5  ,-0.52764  ,4.9
4494  ,2.006e+06   ,2.5  ,-2.4  ,1.4
4503  ,1.479e+06   ,2.4  ,-2.5  ,1.4
4508  ,1.621e+06   ,2.4  ,-2.5  ,1.2
4515  ,2.018e+06   ,2.5  ,-2.4  ,1.8
4517  ,1.236e+06   ,2.4  ,-2.5  ,1.6
4522  ,6.056e+04   ,0.7  ,-2.4  ,0
4538  ,1.046e+08   ,-1.1189  ,2.4  ,5
4546  ,2.630e+09   ,2.4  ,2.5  ,4.1404
4559  ,2.587e+05   ,1.7  ,-2.4  ,0
4590  ,5.333e+04   ,0.5  ,-2.4  ,0
4631  ,1.337e+06   ,2.4  ,-2.5  ,2.6
4634  ,3.831e+06   ,2.5  ,-2.4  ,2.8
4657  ,7.189e+03   ,-2.5  ,-2.4  ,2
4660  ,4.521e+03   ,-2.5  ,-2.4  ,1.8
4664  ,6.920e+04   ,-0.3  ,-2.4  ,0
4675  ,1.487e+05   ,-2.4  ,-2.5  ,4.8
4681  ,4.538e+05   ,-2.5  ,-0.3  ,0.1
4684  ,5.517e+06   ,1.7  ,-2.4  ,5
4703  ,2.601e+07   ,-2.4  ,0.7  ,5
4707  ,1.418e+07   ,-2.5  ,0.3  ,4.9
4714  ,1.052e+09   ,2.4  ,-0.33054  ,5
4723  ,1.368e+07   ,-1.5567  ,2.3  ,4.8
4739  ,3.770e+07   ,-2.1044  ,2.5  ,4.9
4763  ,3.933e+06   ,-1.9  ,2.4  ,0
4780  ,9.169e+03   ,-2.3  ,-1.9695  ,0.2
4782  ,5.545e+02   ,-2.4707  ,-2.4  ,0.029289
4784  ,1.728e+04   ,-2.4  ,-1.9  ,0
4791  ,2.828e+03   ,-2.4  ,-2.5  ,1.8
4796  ,2.596e+06   ,2.4707  ,-2.4707  ,4.9
4799  ,5.046e+06   ,2.5  ,-2.4  ,4.8
4806  ,5.049e+06   ,2.3  ,-2.5  ,4.9
4809  ,3.807e+09   ,2.3  ,2.3  ,3.9166
4833  ,1.057e+07   ,-2.4  ,2.5  ,0.4
4841  ,1.463e+07   ,-2.4  ,2.5  ,2.6
4846  ,8.418e+06   ,-2.5  ,2.1  ,4.9
4848  ,1.627e+07   ,-2.5  ,2.3  ,4.9
4849  ,1.422e+07   ,-2.5  ,2.4  ,4.8
4893  ,1.702e+07   ,-2.4  ,2.5  ,4.2
4897  ,7.153e+09   ,2.3333  ,2.1998  ,5
4900  ,1.544e+10   ,2.391  ,2.4577  ,4.7576
4908  ,1.509e+10   ,2.2576  ,2.391  ,4.9577
4911  ,1.533e+10   ,2.2576  ,2.4577  ,4.891
4926  ,6.719e+06   ,-2.5  ,2.4  ,1
4932  ,8.902e+06   ,-2.4  ,2.5  ,1.6
4937  ,6.263e+06   ,-1.1  ,2.5  ,0.1
4939  ,8.704e+09   ,2.3  ,2.2299  ,4.7299
4944  ,9.981e+06   ,2.5  ,-1.9073  ,4.9
4987  ,9.573e+06   ,-2.3  ,1.5527  ,4.8
5010  ,1.557e+10   ,2.4973  ,2.1331  ,4.923
5013  ,6.735e+09   ,2.5  ,2.0345  ,4.9
5017  ,7.090e+09   ,2.4  ,2.0345  ,5
5035  ,1.022e+05   ,1.3  ,-2.4  ,0
5038  ,5.789e+04   ,1.2085  ,-2.5  ,0.2
5092  ,5.493e+03   ,-2.4  ,-2.5  ,1.2
5123  ,3.531e+05   ,2.5  ,-2.4  ,0.6
5151  ,1.717e+05   ,-2.5  ,-0.5  ,0.1
5160  ,2.134e+05   ,-2.5  ,-0.7  ,0.1
5164  ,2.284e+07   ,-2.4  ,0.9  ,5
5168  ,2.247e+07   ,-2.4  ,0.5  ,5
5176  ,1.327e+07   ,2.5  ,-0.7  ,0.1
5179  ,6.889e+06   ,2.4  ,-0.5  ,0
5189  ,1.627e+06   ,2.4  ,-2.5  ,2.4
5194  ,3.609e+06   ,2.3  ,-2.5  ,2.2576
5198  ,1.373e+03   ,-2.3  ,-2.5  ,0.32348
5205  ,1.057e+03   ,-2.4  ,-2.5  ,0.2
5207  ,7.575e+02   ,-2.1  ,-2.5  ,0.1
5246  ,3.018e+07   ,-2.5  ,2.4  ,3.2
5257  ,3.848e+06   ,-2.5  ,1.5  ,4.9
5263  ,8.365e+05   ,-2.3  ,0.2278  ,0.2
5272  ,3.411e+05   ,-2.5  ,0.3  ,0.1
5275  ,1.756e+07   ,-2.5  ,0.5  ,4.9
5281  ,3.696e+09   ,1.8375  ,2.5  ,4.9
5297  ,8.426e+06   ,-0.9  ,2.5  ,0.1
5306  ,9.279e+06   ,-0.7  ,2.4  ,0
5309  ,2.034e+07   ,-0.5  ,2.5  ,0.1
5324  ,6.557e+08   ,2.4  ,2.5  ,2.7607
5332  ,1.235e+06   ,2.5  ,-2.4  ,0.8
5334  ,1.266e+06   ,2.4  ,-2.5  ,1
5360  ,2.937e+07   ,2.4  ,-1.7102  ,5
5362  ,2.742e+07   ,2.4  ,-1.5131  ,5
5368  ,4.160e+09   ,2.4  ,1.8375  ,5
5371  ,2.683e+10   ,2.4325  ,2.4888  ,4.6656
5372  ,7.294e+09   ,2.3333  ,2.5  ,4.6998
5376  ,5.355e+09   ,2.4707  ,2.4707  ,4.6331
5377  ,6.644e+09   ,2.5  ,2.4  ,4.5345
5379  ,1.106e+06   ,-1.5  ,-2.5  ,4.9
5406  ,2.072e+04   ,-2.5  ,-2.4  ,3.4
5420  ,1.262e+04   ,-2.3  ,-2.5  ,3.2226
5423  ,1.992e+05   ,1.5  ,-2.4  ,0
5502  ,1.642e+03   ,-2.5  ,-2.3  ,0.1
5504  ,6.311e+02   ,-2.5  ,-2.4  ,0.2
5506  ,1.911e+03   ,-2.4  ,-2.3  ,0
5511  ,2.791e+03   ,-2.5  ,-2.1  ,0.1
5513  ,7.114e+05   ,-2.4  ,0.5  ,0
5517  ,4.436e+04   ,-0.9  ,-2.5  ,0.1
5532  ,8.043e+06   ,-2.4707  ,2.4707  ,4.9
5534  ,9.165e+06   ,2.4  ,-0.7  ,0
5551  ,1.681e+07   ,2.5  ,-2.4  ,3.8
5566  ,8.622e+07   ,2.5  ,2.4  ,1.3811
5603  ,6.645e+06   ,2.4  ,-0.3  ,0
5617  ,8.942e+06   ,-2.1  ,2.5  ,0.1
5637  ,1.492e+06   ,-2.3  ,-1.9695  ,4.8
5641  ,9.008e+06   ,2.3  ,-2.5  ,3.4636
5645  ,4.054e+03   ,-2.4  ,-2.5  ,2
5649  ,4.717e+03   ,-2.4  ,-2.5  ,2.2
5659  ,1.398e+03   ,-2.3  ,-2.5  ,1.7774
5662  ,6.314e+06   ,2.1765  ,-2.5  ,4.8
5666  ,2.706e+06   ,2.4  ,-2.5  ,4.8
5669  ,8.681e+06   ,2.3  ,-2.3412  ,4.8
5695  ,9.019e+05   ,-2.4  ,0.7  ,0
5701  ,9.300e+06   ,-2.5  ,2.4  ,1.6
5715  ,6.122e+06   ,-2.4  ,2.5  ,1.8
5726  ,1.260e+07   ,-0.7  ,2.5  ,0.1
5727  ,8.931e+06   ,-1.1  ,2.4  ,0
5730  ,1.220e+06   ,2.3  ,-2.5  ,1.7774
5746  ,5.596e+08   ,2.5  ,2.4  ,1.7753
5755  ,1.659e+06   ,2.5  ,-2.4  ,4.4
5763  ,1.791e+06   ,2.4  ,-2.5  ,4.4
5773  ,7.247e+08   ,1.0491  ,2.5  ,4.9
5791  ,5.068e+08   ,-0.72473  ,2.4  ,5
5795  ,3.785e+09   ,1.8375  ,2.4  ,5
5803  ,2.875e+06   ,-0.3  ,-2.4  ,5
5810  ,2.850e+09   ,2.4  ,1.6404  ,5
5836  ,7.100e+06   ,-2.5  ,1.3  ,4.9
5860  ,1.278e+06   ,2.5  ,-2.4  ,1.6
5866  ,1.345e+05   ,1.5  ,-2.5  ,0.1
5884  ,8.316e+06   ,-2.4  ,-0.3  ,5
5888  ,9.153e+06   ,-2.5  ,-0.5  ,4.9
5901  ,1.545e+06   ,2.3  ,-2.5  ,2.5
5908  ,2.261e+06   ,2.5  ,-2.4  ,1.2
5909  ,5.634e+06   ,2.5  ,-2.4  ,2
5934  ,6.078e+06   ,1.9  ,-2.5  ,4.9
5938  ,5.171e+06   ,1.933  ,-2.5  ,4.8
5948  ,5.003e+04   ,-2.4  ,-2.5  ,4.6
5950  ,1.627e+05   ,-2.4707  ,-2.4707  ,4.9
5951  ,1.407e+05   ,-2.5  ,-2.4  ,4.8
5952  ,2.189e+05   ,-2.5  ,-2.3  ,4.9
5986  ,9.139e+06   ,2.3  ,-2.5  ,3.7085
5990  ,2.329e+08   ,-0.92182  ,2.5  ,4.9
6019  ,7.319e+06   ,2.5  ,1.9  ,0.1
6025  ,7.757e+06   ,2.4  ,-1.3  ,0
6035  ,5.651e+06   ,-2.5  ,1.9  ,4.9
6044  ,1.923e+07   ,0.1  ,2.5  ,0.1
6054  ,1.509e+07   ,2.4  ,0.1  ,0
6070  ,4.468e+06   ,-2.4  ,2.3  ,0
6071  ,5.921e+06   ,-2.3  ,2.4  ,0
6076  ,2.737e+06   ,-2.4  ,2.1  ,0
6083  ,1.292e+05   ,2.1  ,-2.4  ,0
6084  ,1.648e+07   ,2.4  ,2.3  ,0
6087  ,1.391e+07   ,2.3  ,2.4  ,0
6092  ,7.249e+02   ,-2.4  ,-2.5  ,0.4
6096  ,6.309e+02   ,-2.3  ,-2.5  ,0.1
6099  ,3.350e+04   ,0.7  ,-2.5  ,0.1
6149  ,1.570e+05   ,-2.4  ,-0.9  ,0
6159  ,5.083e+03   ,-2.5  ,-2.4  ,2.6
6183  ,1.301e+09   ,1.2462  ,2.5  ,4.9
6224  ,1.503e+07   ,2.5  ,-2.4  ,4
6228  ,1.347e+07   ,2.4  ,-2.5  ,3.8
6237  ,2.684e+07   ,2.5  ,0.7  ,0.1
6241  ,7.018e+09   ,2.5  ,2.3333  ,4.6998
6245  ,2.707e+08   ,2.5  ,2.4  ,1.5782
6259  ,1.771e+07   ,2.5  ,-2.1044  ,4.9
6265  ,2.268e+07   ,2.3  ,-1.9804  ,4.8
6267  ,1.080e+07   ,2.5  ,-2.3015  ,4.9
6268  ,5.084e+06   ,2.4707  ,-2.4  ,4.9707
6270  ,1.753e+07   ,2.4  ,-2.1044  ,5
6317  ,1.816e+07   ,-2.3  ,0.2278  ,4.8
6349  ,8.184e+08   ,-0.52764  ,2.4  ,5
6391  ,5.489e+08   ,2.4  ,2.5  ,1.7753
6440  ,1.565e+07   ,-2.5  ,2.4  ,3.8
6471  ,2.133e+08   ,2.5  ,-0.92182  ,4.9
6489  ,1.360e+09   ,2.5  ,1.2462  ,4.9
6523  ,3.009e+04   ,-1.1  ,-2.4  ,0
6528  ,1.432e+04   ,-1.1  ,-2.5  ,0.1
6535  ,7.305e+04   ,-0.9  ,-2.4  ,0
6538  ,2.872e+06   ,1.5  ,-2.4  ,5
6541  ,3.772e+06   ,1.5  ,-2.5  ,4.9
6551  ,4.086e+08   ,2.5  ,-0.72473  ,4.9
6564  ,1.533e+10   ,2.1331  ,2.4973  ,4.923
6565  ,6.576e+09   ,2.0345  ,2.5  ,4.9
6572  ,1.483e+06   ,2.4  ,-1.7  ,0
6581  ,2.101e+07   ,0  ,2.3  ,0.2
6592  ,9.923e+05   ,2.3  ,-1.9695  ,0.2
6594  ,1.898e+07   ,0.3  ,2.4  ,0
6601  ,2.370e+07   ,0.5  ,2.5  ,0.1
6605  ,9.260e+04   ,-2.4  ,-1.3  ,0
6606  ,1.494e+05   ,-2.4  ,-1.1  ,0
6615  ,5.221e+05   ,-2.4  ,-0.3  ,0
6634  ,5.268e+06   ,2.1  ,-2.5  ,4.9
6635  ,2.532e+06   ,2.4  ,-2.4707  ,4.9707
6636  ,6.266e+06   ,2.3  ,-2.4  ,5
6647  ,3.378e+04   ,0.5  ,-2.5  ,0.1
6704  ,4.658e+06   ,-2.4707  ,2.4707  ,0.1
6708  ,5.905e+06   ,-2.5  ,2.4  ,0.2
6712  ,2.355e+07   ,-2.4  ,2.5  ,3.6
6715  ,2.270e+07   ,-2.4  ,2.5  ,3.4
6728  ,1.814e+07   ,-2.5  ,0.7  ,4.9
6753  ,4.140e+07   ,-2.1044  ,2.4  ,5
6788  ,4.518e+09   ,2.5  ,2.4  ,4.3375
6791  ,6.057e+05   ,-1.933  ,-2.5  ,4.8
6795  ,6.749e+09   ,2.1998  ,2.5  ,4.8333
6837  ,2.347e+03   ,-2.3  ,-2.5  ,0.8063
6869  ,2.825e+07   ,2.5  ,-1.7102  ,4.9
6873  ,1.267e+07   ,2.4  ,-1.9073  ,5
6880  ,2.176e+08   ,2.4  ,-0.92182  ,5
6885  ,9.142e+08   ,2.4  ,-0.52764  ,5
6893  ,9.877e+08   ,2.4  ,1.2462  ,5
6914  ,5.440e+07   ,0.7  ,2.5  ,0.1
6920  ,1.793e+07   ,0.9  ,2.4  ,0
6923  ,3.511e+07   ,0.7  ,2.4  ,0
6936  ,1.206e+07   ,2.4  ,-2.5  ,3.4
6939  ,2.774e+06   ,2.3  ,-2.5  ,3.2226
6961  ,1.486e+06   ,-0.1  ,-2.5  ,4.9
6967  ,2.588e+06   ,-2.5  ,-1.5  ,4.9
6975  ,9.832e+06   ,-2.4  ,1.1  ,5
6978  ,1.190e+07   ,-2.4  ,2.5  ,0.2
6987  ,1.014e+08   ,2.4  ,-1.316  ,5
6994  ,4.935e+06   ,2.4  ,-1.5  ,0
7004  ,1.292e+07   ,2.4  ,-2.5  ,3.6
7011  ,4.301e+08   ,2.4  ,0.65491  ,5
7016  ,3.063e+08   ,2.4  ,0.45782  ,5
7019  ,9.011e+08   ,2.5  ,2.4  ,2.1695
7021  ,8.436e+08   ,2.5  ,2.4  ,1.9724
7052  ,6.523e+06   ,-1.3  ,2.5  ,0.1
7054  ,1.850e+03   ,-2.4  ,-2.5  ,0.8
7057  ,4.300e+04   ,0.3  ,-2.5  ,0.1
7065  ,3.506e+04   ,0.24243  ,-2.5  ,0.2
7075  ,2.665e+10   ,2.4888  ,2.4325  ,4.6656
7113  ,3.635e+03   ,-2.4  ,-2.5  ,2.6
7121  ,6.097e+03   ,-2.4  ,-2.5  ,2.8
7126  ,7.772e+03   ,-2.5  ,-2.4  ,2.8
7128  ,4.408e+02   ,-2.4707  ,-2.4707  ,0.1
7129  ,4.623e+02   ,-2.4  ,-2.4707  ,0.029289
7141  ,9.722e+05   ,-1.7  ,-2.4  ,5
7145  ,1.923e+07   ,1.1  ,2.4  ,0
7163  ,1.936e+07   ,-1.7102  ,2.4  ,5
7172  ,9.957e+06   ,2.5  ,-2.4  ,3.2
7174  ,1.361e+07   ,-2.5  ,2.4  ,3.6
7183  ,6.762e+05   ,-1.4531  ,-2.5  ,4.8
7204  ,4.342e+08   ,2.3  ,-0.81068  ,4.8
7220  ,6.606e+08   ,2.5  ,0.063638  ,4.9
7227  ,8.538e+05   ,2.5  ,-1.9  ,0.1
7256  ,1.188e+06   ,-0.1  ,-2.4  ,5
7280  ,8.736e+08   ,-0.33054  ,2.4  ,5
7299  ,1.479e+08   ,2.5  ,-1.1189  ,4.9
7316  ,2.858e+03   ,-2.5  ,-2.4  ,0.8
7323  ,4.415e+03   ,-2.4  ,-2.5  ,1
7396  ,1.068e+07   ,1.1  ,-2.4  ,5
7400  ,7.097e+05   ,-2.5  ,0.7  ,0.1
7409  ,7.961e+06   ,1.3  ,-2.4  ,5
7420  ,7.653e+06   ,2.5  ,2.1  ,0.1
7429  ,1.093e+07   ,2.4  ,1.9  ,0
7436  ,3.818e+06   ,2.5  ,-1.7  ,0.1
7438  ,2.743e+06   ,2.4  ,-2.5  ,2.8
7445  ,2.165e+10   ,2.4325  ,2.1656  ,4.9888
7464  ,2.701e+06   ,2.5  ,-1.5  ,0.1
7480  ,1.611e+05   ,2.5  ,-2.4  ,0.2
7482  ,8.519e+04   ,1.9  ,-2.5  ,0.1
7483  ,1.650e+05   ,1.7  ,-2.5  ,0.1
7486  ,9.009e+06   ,1.9  ,-2.4  ,5
7488  ,2.575e+06   ,1.6937  ,-2.5  ,4.8
7492  ,9.362e+06   ,2.1  ,-2.4  ,5
7495  ,7.318e+04   ,0.1  ,-2.5  ,0.1
7504  ,6.235e+04   ,0.3  ,-2.4  ,0
7507  ,3.495e+04   ,0.9  ,-2.5  ,0.1
7533  ,1.161e+06   ,-2.5  ,0.9  ,0.1
7536  ,9.332e+03   ,-2.4  ,-2.5  ,3.2
7540  ,4.133e+03   ,-2.4  ,-2.5  ,3
7545  ,5.625e+03   ,-2.5  ,-2.4  ,3
7582  ,2.501e+07   ,1.3  ,2.5  ,0.1
7588  ,8.035e+08   ,2.5  ,2.4  ,2.3665
7598  ,1.568e+07   ,-2.5  ,2.4  ,4.2
7607  ,4.141e+07   ,1.5333  ,2.3  ,0.2
7627  ,1.563e+07   ,-2.5  ,1.1  ,4.9
7651  ,1.662e+06   ,2.4  ,-1.9  ,0
7656  ,2.560e+07   ,2.5  ,2.4  ,0.39564
7660  ,8.614e+09   ,2.2299  ,2.3  ,4.7299
7668  ,7.137e+06   ,1.4531  ,-2.5  ,4.8
7676  ,1.999e+06   ,0.1  ,-2.5  ,4.9
7683  ,2.714e+06   ,0.1  ,-2.4  ,5
7686  ,5.272e+06   ,-2.4  ,-1.1  ,5
7702  ,1.156e+05   ,-2.3  ,-2.5  ,4.433
7710  ,9.688e+04   ,-2.3  ,-2.5  ,4.6765
7752  ,1.300e+07   ,0.9  ,-2.4  ,5
7763  ,1.833e+06   ,0.24243  ,-2.5  ,4.8
7767  ,1.163e+04   ,-2.5  ,-2.4  ,3.2
7768  ,2.349e+03   ,-2.4  ,-2.1  ,0
7776  ,1.844e+06   ,-2.4  ,0.9  ,0
7786  ,3.659e+06   ,-0.4838  ,-2.5  ,4.8
7800  ,3.178e+06   ,2.5  ,-2.4  ,4.6
7805  ,6.574e+06   ,-2.5  ,-1.3  ,4.9
7811  ,3.266e+06   ,-2.5  ,-1.1  ,4.9
7820  ,7.394e+05   ,2.5  ,-2.1  ,0.1
7824  ,3.362e+05   ,2.4  ,-2.1  ,0
7828  ,6.193e+06   ,2.4  ,-2.5  ,4.2
7831  ,1.281e+07   ,2.4  ,-2.5  ,4
7838  ,6.052e+06   ,2.5  ,-2.4  ,4.2
7839  ,6.315e+08   ,2.5  ,2.4  ,2.7607
7840  ,2.591e+08   ,2.5  ,2.4  ,2.9578
7863  ,6.269e+04   ,-2.4  ,-1.5  ,0
7890  ,2.106e+07   ,2.4  ,0.9  ,0
7897  ,3.165e+05   ,-2.4  ,-0.7  ,0
7912  ,8.135e+03   ,-1.5  ,-2.4  ,0
7917  ,1.276e+04   ,-1.3  ,-2.5  ,0.1
7931  ,3.183e+07   ,0.5  ,2.4  ,0
7934  ,6.568e+04   ,1.1  ,-2.4  ,0
7937  ,8.206e+05   ,2.4  ,-2.5  ,0.8
7941  ,1.737e+03   ,-2.4  ,-2.5  ,0.6
7969  ,4.800e+06   ,-2.5  ,2.3  ,0.1
7971  ,2.093e+06   ,-2.4  ,1.9  ,0
7972  ,2.781e+06   ,-1.9  ,2.5  ,0.1
7978  ,2.725e+06   ,-2.4  ,1.1  ,0
7996  ,8.802e+06   ,-2.4  ,-0.5  ,5
8000  ,1.575e+03   ,-2.5  ,-2.4  ,0.6
8003  ,1.416e+03   ,-2.5  ,-2.4  ,0.4
8025  ,3.711e+07   ,0.9  ,2.5  ,0.1
8035  ,2.140e+07   ,0.3  ,2.5  ,0.1
8039  ,1.868e+05   ,2.3  ,-2.5  ,0.32348
8041  ,2.349e+05   ,2.3  ,-2.3379  ,0.2
8043  ,8.185e+04   ,2.1765  ,-2.5  ,0.2
8045  ,1.093e+04   ,-0.96359  ,-2.5  ,0.2
8054  ,1.822e+07   ,1.3  ,2.4  ,0
8058  ,2.599e+07   ,1.1  ,2.5  ,0.1
8062  ,7.544e+06   ,-2.5  ,2.4  ,1.4
8067  ,6.778e+06   ,-2.5  ,2.4  ,0.8
8087  ,1.425e+06   ,-2.5  ,1.5  ,0.1
8132  ,7.977e+08   ,-0.13345  ,2.4  ,5
8183  ,1.129e+07   ,2.5  ,-0.9  ,0.1
8184  ,1.124e+05   ,1.6937  ,-2.5  ,0.2
8214  ,1.465e+05   ,-2.4707  ,-2.4  ,4.9707
8217  ,2.873e+05   ,-2.1  ,-2.4  ,5
8219  ,1.121e+05   ,-2.4  ,-2.5  ,4.4
8227  ,1.835e+08   ,2.5  ,2.4  ,3.1549
8242  ,5.857e+06   ,0.7  ,-2.5  ,4.9
8248  ,1.742e+07   ,2.5  ,-2.4  ,3.6
8254  ,7.417e+06   ,2.5  ,-0.3  ,0.1
8256  ,6.323e+06   ,2.5  ,-0.5  ,0.1
8258  ,2.195e+06   ,-0.3  ,-2.5  ,4.9
8263  ,4.584e+06   ,-0.5  ,-2.5  ,4.9
8268  ,2.563e+04   ,-2.3  ,-2.5  ,3.7085
8277  ,8.161e+04   ,-0.1  ,-2.5  ,0.1
8285  ,8.337e+06   ,1.1  ,-2.5  ,4.9
8307  ,8.851e+06   ,0.1  ,2.4  ,0
8308  ,1.157e+07   ,-0.1  ,2.5  ,0.1
8309  ,7.184e+06   ,-0.1  ,2.4  ,0
8313  ,1.136e+05   ,2.5  ,-2.3  ,0.1
8318  ,5.038e+06   ,2.5  ,-2.4  ,3
8338  ,1.069e+08   ,2.5  ,2.4  ,3.352
8339  ,1.472e+08   ,2.4  ,2.5  ,3.1549
8344  ,1.796e+07   ,-2.5  ,2.4  ,3.4
8357  ,2.075e+10   ,2.4888  ,2.1656  ,4.9325
8358  ,6.991e+09   ,2.5  ,2.1998  ,4.8333
8383  ,1.950e+03   ,-1.7  ,-2.4  ,0
8396  ,5.193e+04   ,1.1  ,-2.5  ,0.1
8399  ,1.097e+10   ,2.4526  ,2.1331  ,4.9851
8405  ,1.784e+06   ,2.5  ,-2.4  ,1
8412  ,4.425e+05   ,2.3  ,-2.5  ,0.8063
8417  ,2.113e+03   ,-2.3  ,-2.5  ,2.5
8434  ,6.950e+06   ,0.9636  ,-2.5  ,4.8
8438  ,6.779e+04   ,-0.3  ,-2.5  ,0.1
8452  ,1.199e+07   ,-2.4  ,-0.1  ,5
8468  ,1.277e+09   ,2.5  ,2.4  ,3.7462
8471  ,1.198e+06   ,-1.3  ,-2.5  ,4.9
8493  ,6.067e+05   ,-1.1  ,-2.5  ,4.9
8509  ,2.716e+04   ,-2.5  ,-1.7  ,0.1
8517  ,2.174e+07   ,-2.4  ,2.5  ,3
8531  ,2.657e+06   ,-2.4  ,1.7  ,0
8556  ,8.149e+08   ,2.5  ,2.4  ,3.5491
8573  ,6.934e+07   ,-1.316  ,2.4  ,5
8576  ,1.305e+06   ,-2.4  ,1.3  ,0
8611  ,1.152e+06   ,2.3  ,-2.5  ,1.2915
8618  ,2.550e+07   ,-2.4  ,2.5  ,4
8646  ,1.878e+06   ,-2.5  ,1.1  ,0.1
8656  ,9.069e+06   ,2.5  ,-1.3  ,0.1
8657  ,1.515e+07   ,2.4  ,2.1  ,0
8673  ,6.042e+06   ,-1.3  ,2.4  ,0
8692  ,2.970e+06   ,0.72263  ,-2.5  ,4.8
8696  ,8.739e+05   ,2.3  ,-2.5  ,1.0469
8706  ,2.489e+08   ,2.5  ,0.65491  ,4.9
8721  ,2.617e+03   ,-2.4  ,-2.5  ,1.6
8725  ,2.701e+08   ,0.65491  ,2.4  ,5
8739  ,2.178e+10   ,2.1656  ,2.4325  ,4.9888
8741  ,7.239e+09   ,2.1998  ,2.3333  ,5
8746  ,5.712e+02   ,-2.1  ,-2.4  ,0
8748  ,7.158e+03   ,-2.5  ,-2.4  ,1.2
8752  ,1.141e+10   ,2.1331  ,2.4526  ,4.9851
8759  ,3.677e+03   ,-2.3  ,-2.5  ,1.0469
8787  ,1.066e+05   ,-0.1  ,-2.4  ,0
8793  ,2.157e+03   ,-2.3  ,-2.5  ,2.2576
8795  ,2.802e+03   ,-2.4  ,-2.5  ,2.4
8798  ,1.983e+04   ,-2.3  ,-2.5  ,4.1937
8808  ,3.671e+04   ,-2.3  ,-2.5  ,3.9531
8814  ,1.739e+06   ,-2.4  ,-1.5  ,5
8849  ,2.693e+06   ,0.4838  ,-2.5  ,4.8
8851  ,7.745e+04   ,-2.4  ,-2.5  ,4.2
8868  ,2.796e+06   ,2.4  ,-2.5  ,3
8874  ,3.190e+08   ,0.852  ,2.4  ,5
8883  ,7.081e+06   ,-0.5  ,-2.4  ,5
8886  ,1.333e+06   ,-0.72262  ,-2.5  ,4.8
8893  ,3.390e+06   ,-0.7  ,-2.5  ,4.9
8897  ,3.874e+04   ,-2.5  ,-2.4  ,3.6
8899  ,1.878e+04   ,-2.3  ,-2.5  ,3.4636
8900  ,5.697e+04   ,-2.3  ,-1.4729  ,0.2
8906  ,1.028e+05   ,-2.5  ,-1.3  ,0.1
8910  ,4.461e+08   ,0.852  ,2.5  ,4.9
8925  ,4.779e+06   ,-2.4  ,2.5  ,1.4
8941  ,1.636e+07   ,2.4707  ,2.4  ,0.029289
8942  ,1.935e+07   ,2.5  ,2.3  ,0.1
8945  ,1.481e+07   ,-2.5  ,0.1  ,4.9
8950  ,1.816e+07   ,2.4707  ,2.4707  ,0.1
8951  ,1.393e+07   ,2.4  ,2.4707  ,0.029289
8959  ,6.019e+08   ,2.4  ,0.26073  ,5
8965  ,2.167e+08   ,0.45782  ,2.4  ,5
8978  ,4.093e+08   ,2.4  ,0.852  ,5
8983  ,8.194e+06   ,2.5  ,-1.1  ,0.1
8991  ,4.765e+06   ,-2.5  ,2.4  ,0.6
9008  ,1.613e+08   ,2.5  ,0.852  ,4.9
9011  ,2.910e+05   ,-2.4  ,-0.5  ,0
9025  ,7.097e+03   ,-1.5  ,-2.5  ,0.1
9038  ,3.531e+06   ,2.4  ,-2.5  ,2
9041  ,2.841e+07   ,2.5  ,0.9  ,0.1
9050  ,1.941e+07   ,2.5  ,0.5  ,0.1
9054  ,4.424e+04   ,0.9  ,-2.4  ,0
9060  ,1.879e+05   ,2.4  ,-2.5  ,0.4
9062  ,2.518e+05   ,2.3  ,-2.5  ,0.56701
9064  ,3.421e+05   ,2.5  ,-2.4  ,0.4
9069  ,2.244e+05   ,2.4  ,-2.5  ,0.6
9071  ,4.380e+04   ,1.4531  ,-2.5  ,0.2
9082  ,4.841e+03   ,-2.3  ,-2.5  ,1.2915
9086  ,3.224e+03   ,-2.4  ,-2.5  ,1.4
9091  ,4.843e+03   ,-2.5  ,-2.4  ,1.4
9094  ,6.386e+06   ,1.3  ,-2.5  ,4.9
9097  ,6.234e+04   ,-0.7  ,-2.5  ,0.1
9137  ,9.002e+06   ,-2.5  ,-0.7  ,4.9
9143  ,9.748e+06   ,-2.5  ,-0.1  ,4.9
9146  ,4.958e+06   ,-2.1  ,2.4  ,0
9148  ,7.842e+06   ,-2.5  ,1.7  ,4.9
9173  ,3.576e+07   ,-2.5  ,2.4  ,3
9192  ,5.099e+06   ,-0.7  ,-2.4  ,5
9195  ,2.421e+04   ,0.72263  ,-2.5  ,0.2
9209  ,1.572e+07   ,2.5  ,-2.4  ,3.4
9215  ,5.861e+04   ,0.9636  ,-2.5  ,0.2
9217  ,5.862e+06   ,2.4  ,-2.5  ,3.2
9218  ,1.198e+06   ,-0.96359  ,-2.5  ,4.8
9229  ,1.754e+07   ,-2.4  ,2.5  ,2.8
9248  ,8.886e+06   ,2.3  ,-2.5  ,4.433
9255  ,1.448e+07   ,2.5  ,1.3  ,0.1
9257  ,1.548e+07   ,2.4  ,1.5  ,0
9262  ,4.530e+06   ,0.5  ,-2.4  ,5
9264  ,6.201e+08   ,2.4  ,-0.13345  ,5
9272  ,8.246e+08   ,0.063638  ,2.4  ,5
9277  ,5.382e+06   ,-2.5  ,2.4  ,1.2
9279  ,5.305e+08   ,2.5  ,0.26073  ,4.9
9282  ,6.609e+06   ,1.2085  ,-2.5  ,4.8
9286  ,9.325e+06   ,0.9  ,-2.5  ,4.9
9292  ,1.327e+07   ,-2.4  ,2.4707  ,4.9707
9293  ,2.599e+07   ,-2.3015  ,2.4  ,5
9296  ,8.961e+05   ,-2.4  ,-2.1  ,5
9303  ,9.564e+05   ,-2.4  ,-1.9  ,5
9311  ,1.699e+07   ,-2.4  ,2.3  ,5
9313  ,2.268e+07   ,-2.4  ,0.1  ,5
9319  ,5.809e+04   ,-0.5  ,-2.4  ,0
9328  ,6.219e+03   ,-2.3  ,-2.5  ,1.5364
9334  ,1.326e+07   ,-2.3  ,2.5  ,0.1
9338  ,4.874e+03   ,-2.5  ,-2.4  ,2.4
9339  ,7.066e+05   ,-2.5  ,1.3  ,0.1
9341  ,2.600e+03   ,-2.3  ,-2.5  ,2.7424
9344  ,6.872e+03   ,-2.5  ,-2.4  ,2.2
9358  ,2.484e+07   ,-2.3  ,2.3  ,2.5
9364  ,9.166e+05   ,-2.5  ,-2.1  ,4.9
9367  ,1.531e+05   ,-2.4  ,-2.3  ,5
9374  ,8.722e+06   ,-2.4  ,-1.3  ,5
9378  ,5.985e+06   ,-2.5  ,2.4  ,1.8
9384  ,1.827e+06   ,2.3  ,-2.5  ,2.0162
9385  ,7.834e+06   ,-2.5  ,2.4  ,4.4
9389  ,9.252e+06   ,-2.5  ,2.4  ,2
9395  ,1.224e+07   ,2.4  ,-2.3015  ,5
9396  ,1.255e+04   ,-2.4  ,-1.7  ,0
9407  ,4.355e+06   ,-2.3  ,-1.4729  ,4.8
9411  ,2.654e+06   ,-2.5  ,-1.7  ,4.9
9423  ,2.595e+04   ,-2.4  ,-2.5  ,3.6
9432  ,9.515e+06   ,0.7  ,-2.4  ,5
9438  ,7.327e+06   ,-2.5  ,-0.9  ,4.9
9443  ,1.237e+07   ,-2.5  ,-0.3  ,4.9
9445  ,8.793e+06   ,-2.4707  ,2.4  ,4.9707
9448  ,1.337e+08   ,2.4  ,-1.1189  ,5
9453  ,3.144e+07   ,2.4  ,0.7  ,0
9455  ,1.422e+06   ,2.5  ,-2.4  ,2.6
9457  ,2.204e+06   ,2.3  ,-2.5  ,2.9838
9494  ,3.877e+06   ,-2.4  ,2.5  ,1
9500  ,2.147e+06   ,0.3  ,-2.5  ,4.9
9504  ,3.043e+06   ,0.3  ,-2.4  ,5
9506  ,8.090e+04   ,2.1  ,-2.5  ,0.1
9518  ,6.684e+02   ,-1.9  ,-2.5  ,0.1
9528  ,3.152e+04   ,2.3  ,-2.5  ,0.1
9531  ,8.283e+04   ,2.4707  ,-2.4707  ,0.1
9533  ,8.950e+04   ,2.4707  ,-2.4  ,0.029289
9534  ,6.008e+04   ,2.4  ,-2.4707  ,0.029289
9541  ,2.433e+06   ,0.5  ,-2.5  ,4.9
9544  ,4.079e+04   ,-0.5  ,-2.5  ,0.1
9559  ,1.825e+06   ,-2.5  ,-1.9  ,4.9
9562  ,5.606e+06   ,-2.5  ,2.4  ,4.6
9565  ,1.079e+07   ,-2.4  ,2.5  ,2
9571  ,3.525e+04   ,-2.5  ,-2.4  ,3.8
9574  ,2.195e+04   ,-2.4  ,-2.5  ,3.8
9577  ,5.253e+04   ,1.3  ,-2.5  ,0.1
9582  ,1.970e+05   ,-2.5  ,-0.9  ,0.1
9596  ,1.121e+07   ,2.1  ,2.4  ,0
9598  ,2.725e+07   ,-2.4  ,2.5  ,3.2
9602  ,2.276e+07   ,1.5  ,2.5  ,0.1
9610  ,3.035e+07   ,2.4  ,2.5  ,0.39564
9612  ,4.772e+08   ,-0.72473  ,2.5  ,4.9
9614  ,2.035e+07   ,1.7  ,2.5  ,0.1
9635  ,1.550e+07   ,2.5  ,1.7  ,0.1
9646  ,1.363e+07   ,2.3  ,2.5  ,0.1
9651  ,2.085e+10   ,2.1656  ,2.4888  ,4.9325
9653  ,1.070e+08   ,2.5  ,-1.316  ,4.9
9656  ,3.915e+06   ,-2.4  ,-1.7  ,5
9659  ,4.090e+06   ,2.3  ,-2.5  ,4.6765
9661  ,1.185e+07   ,2.3  ,-2.5  ,3.9531
9664  ,1.355e+05   ,-2.3  ,-2.4  ,5
9666  ,2.472e+05   ,1.9  ,-2.4  ,0
9677  ,2.998e+07   ,2.4  ,0.5  ,0
9678  ,1.189e+05   ,-2.5  ,-1.1  ,0.1
9680  ,2.605e+07   ,2.5  ,2.4  ,1.184
9681  ,2.323e+07   ,2.5  ,2.4  ,0.19855
9696  ,1.868e+03   ,-2.3  ,-2.5  ,2.0162
9698  ,1.992e+05   ,2.4  ,-2.3  ,0
9699  ,3.334e+04   ,-0.24243  ,-2.5  ,0.2
9701  ,1.105e+05   ,0.1  ,-2.4  ,0
9704  ,8.315e+04   ,-0.4838  ,-2.5  ,0.2
9718  ,7.246e+04   ,-0.72262  ,-2.5  ,0.2
9726  ,8.117e+06   ,2.3  ,-0.76628  ,0.2
9727  ,4.834e+06   ,-2.5  ,2.4  ,0.4
9730  ,1.516e+06   ,1.9433E-06  ,-2.5  ,4.8
9731  ,3.198e+06   ,-0.24243  ,-2.5  ,4.8
9732  ,1.150e+07   ,-2.5  ,2.4  ,2.2
9738  ,3.247e+04   ,-2.5  ,-2.4  ,4
9743  ,4.300e+05   ,-1.6937  ,-2.5  ,4.8
9744  ,3.899e+04   ,-2.4  ,-2.5  ,4
9750  ,1.533e+03   ,-1.7  ,-2.5  ,0.1
9752  ,3.721e+03   ,-1.6937  ,-2.5  ,0.2
9754  ,1.288e+04   ,-1.3  ,-2.4  ,0
9759  ,2.937e+06   ,-2.4707  ,2.4  ,0.029289
9760  ,5.006e+06   ,-2.4  ,2.4707  ,0.029289
9768  ,8.005e+06   ,2.3  ,-2.5  ,4.1937
9770  ,1.585e+04   ,1.9433E-06  ,-2.5  ,0.2
9771  ,4.578e+04   ,0.4838  ,-2.5  ,0.2
9772  ,9.878e+04   ,2.4  ,-2.5  ,0.2
9773  ,2.673e+06   ,2.4  ,-2.5  ,4.6
9776  ,5.681e+08   ,2.4  ,0.063638  ,5
9780  ,2.010e+08   ,0.65491  ,2.5  ,4.9
9781  ,2.139e+07   ,2.4  ,2.5  ,0.19855
9782  ,1.535e+03   ,-2.3  ,-2.5  ,2.9838
9786  ,1.853e+04   ,-1.2085  ,-2.5  ,0.2
9787  ,6.695e+03   ,-1.4531  ,-2.5  ,0.2
9790  ,9.083e+04   ,2.3  ,-2.4  ,0
9793  ,6.742e+09   ,2.0345  ,2.4  ,5
9797  ,1.534e+06   ,2.3  ,-2.5  ,1.5364
9798  ,6.554e+08   ,2.4  ,1.0491  ,5
9809  ,3.330e+08   ,2.4  ,2.5  ,3.352
