Date:  12:54, Monday, July 10, 2023
Model name: Hollow_DropBox
Study name: DropTest_300fts(-Default-)
Plot type:  Stress1
Plot step: 17   time : 89.215 Microseconds
Result Type: von Mises 


Node  ,Value (N/m^2)  ,X (in)  ,Y (in)  ,Z (in)
1  ,2.212e+10   ,2.5  ,2.1331  ,4.9
2  ,2.558e+10   ,2.4577  ,2.1908  ,4.9577
3  ,4.358e+10   ,2.4894  ,2.1331  ,4.9447
4  ,3.120e+10   ,2.1331  ,2.5  ,4.9
5  ,5.518e+10   ,2.1331  ,2.4894  ,4.9447
6  ,2.320e+10   ,2.1908  ,2.4577  ,4.9577
7  ,3.989e+08   ,-2.4  ,2.4  ,5
8  ,2.262e+09   ,-2.4  ,-2.4  ,5
9  ,4.158e+09   ,2.4  ,-2.4  ,5
10  ,2.041e+10   ,2.4  ,2.1331  ,5
11  ,2.869e+10   ,2.1331  ,2.4  ,5
12  ,4.433e+09   ,2.5  ,-2.4  ,4.9
13  ,2.065e+09   ,2.5  ,-2.4  ,0.1
14  ,3.605e+08   ,2.5  ,2.4  ,0.1
15  ,2.797e+10   ,2.5  ,2.4  ,4.6331
16  ,3.458e+08   ,2.4  ,2.5  ,0.1
17  ,3.695e+08   ,-2.4  ,2.5  ,0.1
18  ,3.608e+08   ,-2.4  ,2.5  ,4.9
19  ,3.155e+10   ,2.4  ,2.5  ,4.6331
20  ,1.508e+08   ,-2.5  ,2.4  ,0.1
21  ,1.224e+09   ,-2.5  ,-2.4  ,0.1
22  ,1.479e+09   ,-2.5  ,-2.4  ,4.9
23  ,4.834e+08   ,-2.5  ,2.4  ,4.9
24  ,1.833e+09   ,-2.3  ,-2.5  ,0.2
25  ,1.991e+09   ,-2.3  ,-2.5  ,4.8
26  ,4.298e+09   ,2.3  ,-2.5  ,4.8
27  ,1.824e+09   ,2.3  ,-2.5  ,0.2
28  ,2.025e+09   ,-2.4  ,-2.5  ,4.9
29  ,4.311e+09   ,2.4  ,-2.5  ,4.9
30  ,1.171e+09   ,-2.4  ,-2.5  ,0.1
31  ,2.003e+09   ,2.4  ,-2.5  ,0.1
32  ,1.561e+09   ,2.4  ,-2.4  ,0
33  ,3.837e+08   ,2.4  ,2.4  ,0
34  ,1.337e+09   ,-2.4  ,-2.4  ,0
35  ,2.367e+08   ,-2.4  ,2.4  ,0
36  ,2.916e+10   ,2.4577  ,2.4577  ,4.6908
37  ,1.142e+09   ,-2.3  ,2.3  ,4.8
38  ,1.524e+10   ,2.1599  ,2.3  ,4.8
39  ,1.476e+10   ,2.3  ,2.1599  ,4.8
40  ,1.556e+10   ,2.3  ,2.3  ,4.6599
41  ,1.224e+09   ,2.3  ,2.3  ,0.2
42  ,1.301e+08   ,-2.3  ,2.3  ,0.2
43  ,5.183e+08   ,-2.4  ,2.2  ,5
44  ,8.589e+08   ,-2.4  ,2  ,5
45  ,8.954e+08   ,-2.4  ,1.8  ,5
46  ,9.360e+08   ,-2.4  ,1.6  ,5
47  ,9.945e+08   ,-2.4  ,1.4  ,5
48  ,1.243e+09   ,-2.4  ,1.2  ,5
49  ,1.355e+09   ,-2.4  ,1  ,5
50  ,1.841e+09   ,-2.4  ,0.8  ,5
51  ,1.499e+09   ,-2.4  ,0.6  ,5
52  ,1.234e+09   ,-2.4  ,0.4  ,5
53  ,1.222e+09   ,-2.4  ,0.2  ,5
54  ,1.032e+09   ,-2.4  ,5.8879E-16  ,5
55  ,7.459e+08   ,-2.4  ,-0.2  ,5
56  ,6.421e+08   ,-2.4  ,-0.4  ,5
57  ,8.028e+08   ,-2.4  ,-0.6  ,5
58  ,7.695e+08   ,-2.4  ,-0.8  ,5
59  ,9.195e+08   ,-2.4  ,-1  ,5
60  ,8.697e+08   ,-2.4  ,-1.2  ,5
61  ,1.306e+09   ,-2.4  ,-1.4  ,5
62  ,1.084e+09   ,-2.4  ,-1.6  ,5
63  ,9.755e+08   ,-2.4  ,-1.8  ,5
64  ,1.455e+09   ,-2.4  ,-2  ,5
65  ,1.326e+09   ,-2.4  ,-2.2  ,5
66  ,2.925e+09   ,-2.2  ,-2.4  ,5
67  ,2.661e+09   ,-2  ,-2.4  ,5
68  ,2.423e+09   ,-1.8  ,-2.4  ,5
69  ,2.072e+09   ,-1.6  ,-2.4  ,5
70  ,1.753e+09   ,-1.4  ,-2.4  ,5
71  ,1.222e+09   ,-1.2  ,-2.4  ,5
72  ,6.494e+08   ,-1  ,-2.4  ,5
73  ,4.957e+08   ,-0.8  ,-2.4  ,5
74  ,3.126e+08   ,-0.6  ,-2.4  ,5
75  ,2.429e+08   ,-0.4  ,-2.4  ,5
76  ,7.692e+08   ,-0.2  ,-2.4  ,5
77  ,1.424e+09   ,-5.8879E-16  ,-2.4  ,5
78  ,2.281e+09   ,0.2  ,-2.4  ,5
79  ,2.933e+09   ,0.4  ,-2.4  ,5
80  ,3.745e+09   ,0.6  ,-2.4  ,5
81  ,3.678e+09   ,0.8  ,-2.4  ,5
82  ,3.675e+09   ,1  ,-2.4  ,5
83  ,3.521e+09   ,1.2  ,-2.4  ,5
84  ,3.258e+09   ,1.4  ,-2.4  ,5
85  ,1.987e+09   ,1.6  ,-2.4  ,5
86  ,8.658e+08   ,1.8  ,-2.4  ,5
87  ,1.774e+09   ,2  ,-2.4  ,5
88  ,6.446e+09   ,2.2  ,-2.4  ,5
89  ,3.598e+09   ,2.4  ,-2.2029  ,5
90  ,3.902e+09   ,2.4  ,-2.0058  ,5
91  ,2.951e+09   ,2.4  ,-1.8087  ,5
92  ,2.652e+09   ,2.4  ,-1.6116  ,5
93  ,2.930e+09   ,2.4  ,-1.4145  ,5
94  ,2.541e+09   ,2.4  ,-1.2175  ,5
95  ,2.768e+09   ,2.4  ,-1.0204  ,5
96  ,2.846e+09   ,2.4  ,-0.82327  ,5
97  ,2.804e+09   ,2.4  ,-0.62618  ,5
98  ,2.623e+09   ,2.4  ,-0.42909  ,5
99  ,2.418e+09   ,2.4  ,-0.232  ,5
100  ,2.200e+09   ,2.4  ,-0.034907  ,5
101  ,2.129e+09   ,2.4  ,0.16218  ,5
102  ,2.261e+09   ,2.4  ,0.35927  ,5
103  ,2.701e+09   ,2.4  ,0.55637  ,5
104  ,2.740e+09   ,2.4  ,0.75346  ,5
105  ,2.304e+09   ,2.4  ,0.95055  ,5
106  ,2.554e+09   ,2.4  ,1.1476  ,5
107  ,3.533e+09   ,2.4  ,1.3447  ,5
108  ,5.061e+09   ,2.4  ,1.5418  ,5
109  ,6.341e+09   ,2.4  ,1.7389  ,5
110  ,1.174e+10   ,2.4  ,1.936  ,5
111  ,1.689e+10   ,2.2665  ,2.2665  ,5
112  ,1.384e+10   ,1.936  ,2.4  ,5
113  ,7.439e+09   ,1.7389  ,2.4  ,5
114  ,5.887e+09   ,1.5418  ,2.4  ,5
115  ,4.086e+09   ,1.3447  ,2.4  ,5
116  ,3.458e+09   ,1.1476  ,2.4  ,5
117  ,3.472e+09   ,0.95055  ,2.4  ,5
118  ,3.744e+09   ,0.75346  ,2.4  ,5
119  ,3.487e+09   ,0.55637  ,2.4  ,5
120  ,3.053e+09   ,0.35927  ,2.4  ,5
121  ,2.989e+09   ,0.16218  ,2.4  ,5
122  ,2.844e+09   ,-0.034907  ,2.4  ,5
123  ,2.970e+09   ,-0.232  ,2.4  ,5
124  ,2.661e+09   ,-0.42909  ,2.4  ,5
125  ,2.368e+09   ,-0.62618  ,2.4  ,5
126  ,2.958e+09   ,-0.82327  ,2.4  ,5
127  ,2.651e+09   ,-1.0204  ,2.4  ,5
128  ,2.549e+09   ,-1.2175  ,2.4  ,5
129  ,2.073e+09   ,-1.4145  ,2.4  ,5
130  ,1.432e+09   ,-1.6116  ,2.4  ,5
131  ,1.042e+09   ,-1.8087  ,2.4  ,5
132  ,7.537e+08   ,-2.0058  ,2.4  ,5
133  ,6.053e+08   ,-2.2029  ,2.4  ,5
294  ,3.058e+09   ,2.5  ,-2.2029  ,4.9
295  ,3.788e+09   ,2.5  ,-2.0058  ,4.9
296  ,2.985e+09   ,2.5  ,-1.8087  ,4.9
297  ,3.141e+09   ,2.5  ,-1.6116  ,4.9
298  ,2.546e+09   ,2.5  ,-1.4145  ,4.9
299  ,2.593e+09   ,2.5  ,-1.2175  ,4.9
300  ,2.812e+09   ,2.5  ,-1.0204  ,4.9
301  ,2.305e+09   ,2.5  ,-0.82327  ,4.9
302  ,2.590e+09   ,2.5  ,-0.62618  ,4.9
303  ,2.636e+09   ,2.5  ,-0.42909  ,4.9
304  ,3.034e+09   ,2.5  ,-0.232  ,4.9
305  ,3.310e+09   ,2.5  ,-0.034907  ,4.9
306  ,2.780e+09   ,2.5  ,0.16218  ,4.9
307  ,2.270e+09   ,2.5  ,0.35927  ,4.9
308  ,2.556e+09   ,2.5  ,0.55637  ,4.9
309  ,2.659e+09   ,2.5  ,0.75346  ,4.9
310  ,2.673e+09   ,2.5  ,0.95055  ,4.9
311  ,3.228e+09   ,2.5  ,1.1476  ,4.9
312  ,3.853e+09   ,2.5  ,1.3447  ,4.9
313  ,5.173e+09   ,2.5  ,1.5418  ,4.9
314  ,8.071e+09   ,2.5  ,1.7389  ,4.9
315  ,1.247e+10   ,2.5  ,1.936  ,4.9
316  ,6.328e+09   ,2.5  ,-2.4  ,4.7
317  ,1.714e+09   ,2.5  ,-2.4  ,4.5
318  ,9.181e+08   ,2.5  ,-2.4  ,4.3
319  ,2.173e+09   ,2.5  ,-2.4  ,4.1
320  ,3.053e+09   ,2.5  ,-2.4  ,3.9
321  ,3.771e+09   ,2.5  ,-2.4  ,3.7
322  ,4.031e+09   ,2.5  ,-2.4  ,3.5
323  ,3.798e+09   ,2.5  ,-2.4  ,3.3
324  ,3.497e+09   ,2.5  ,-2.4  ,3.1
325  ,2.896e+09   ,2.5  ,-2.4  ,2.9
326  ,2.232e+09   ,2.5  ,-2.4  ,2.7
327  ,1.371e+09   ,2.5  ,-2.4  ,2.5
328  ,6.934e+08   ,2.5  ,-2.4  ,2.3
329  ,1.818e+08   ,2.5  ,-2.4  ,2.1
330  ,1.426e+08   ,2.5  ,-2.4  ,1.9
331  ,3.243e+08   ,2.5  ,-2.4  ,1.7
332  ,5.932e+08   ,2.5  ,-2.4  ,1.5
333  ,1.134e+09   ,2.5  ,-2.4  ,1.3
334  ,1.676e+09   ,2.5  ,-2.4  ,1.1
335  ,2.043e+09   ,2.5  ,-2.4  ,0.9
336  ,2.503e+09   ,2.5  ,-2.4  ,0.7
337  ,2.528e+09   ,2.5  ,-2.4  ,0.5
338  ,2.941e+09   ,2.5  ,-2.4  ,0.3
339  ,1.254e+09   ,2.5  ,-2.2  ,0.1
340  ,1.431e+09   ,2.5  ,-2  ,0.1
341  ,9.495e+08   ,2.5  ,-1.8  ,0.1
342  ,1.028e+09   ,2.5  ,-1.6  ,0.1
343  ,8.051e+08   ,2.5  ,-1.4  ,0.1
344  ,8.783e+08   ,2.5  ,-1.2  ,0.1
345  ,8.655e+08   ,2.5  ,-1  ,0.1
346  ,7.442e+08   ,2.5  ,-0.8  ,0.1
347  ,7.744e+08   ,2.5  ,-0.6  ,0.1
348  ,4.508e+08   ,2.5  ,-0.4  ,0.1
349  ,6.357e+08   ,2.5  ,-0.2  ,0.1
350  ,8.575e+08   ,2.5  ,-1.7664E-15  ,0.1
351  ,9.271e+08   ,2.5  ,0.2  ,0.1
352  ,1.212e+09   ,2.5  ,0.4  ,0.1
353  ,1.470e+09   ,2.5  ,0.6  ,0.1
354  ,1.906e+09   ,2.5  ,0.8  ,0.1
355  ,1.252e+09   ,2.5  ,1  ,0.1
356  ,1.148e+09   ,2.5  ,1.2  ,0.1
357  ,9.973e+08   ,2.5  ,1.4  ,0.1
358  ,9.698e+08   ,2.5  ,1.6  ,0.1
359  ,7.133e+08   ,2.5  ,1.8  ,0.1
360  ,6.457e+08   ,2.5  ,2  ,0.1
361  ,5.435e+08   ,2.5  ,2.2  ,0.1
362  ,1.514e+10   ,2.5  ,2.4  ,4.436
363  ,9.460e+09   ,2.5  ,2.4  ,4.2389
364  ,5.834e+09   ,2.5  ,2.4  ,4.0418
365  ,4.619e+09   ,2.5  ,2.4  ,3.8447
366  ,3.753e+09   ,2.5  ,2.4  ,3.6476
367  ,3.643e+09   ,2.5  ,2.4  ,3.4505
368  ,3.890e+09   ,2.5  ,2.4  ,3.2535
369  ,3.463e+09   ,2.5  ,2.4  ,3.0564
370  ,3.213e+09   ,2.5  ,2.4  ,2.8593
371  ,3.015e+09   ,2.5  ,2.4  ,2.6622
372  ,3.203e+09   ,2.5  ,2.4  ,2.4651
373  ,2.810e+09   ,2.5  ,2.4  ,2.268
374  ,2.830e+09   ,2.5  ,2.4  ,2.0709
375  ,2.771e+09   ,2.5  ,2.4  ,1.8738
376  ,2.916e+09   ,2.5  ,2.4  ,1.6767
377  ,1.992e+09   ,2.5  ,2.4  ,1.4796
378  ,2.127e+09   ,2.5  ,2.4  ,1.2825
379  ,1.977e+09   ,2.5  ,2.4  ,1.0855
380  ,1.807e+09   ,2.5  ,2.4  ,0.88836
381  ,1.424e+09   ,2.5  ,2.4  ,0.69127
382  ,7.849e+08   ,2.5  ,2.4  ,0.49418
383  ,4.783e+08   ,2.5  ,2.4  ,0.29709
384  ,1.587e+10   ,2.5  ,2.2665  ,4.7665
544  ,7.135e+08   ,2.2  ,2.5  ,0.1
545  ,9.820e+08   ,2  ,2.5  ,0.1
546  ,9.671e+08   ,1.8  ,2.5  ,0.1
547  ,1.043e+09   ,1.6  ,2.5  ,0.1
548  ,9.362e+08   ,1.4  ,2.5  ,0.1
549  ,1.160e+09   ,1.2  ,2.5  ,0.1
550  ,1.445e+09   ,1  ,2.5  ,0.1
551  ,2.207e+09   ,0.8  ,2.5  ,0.1
552  ,2.076e+09   ,0.6  ,2.5  ,0.1
553  ,2.067e+09   ,0.4  ,2.5  ,0.1
554  ,2.170e+09   ,0.2  ,2.5  ,0.1
555  ,1.891e+09   ,5.8879E-16  ,2.5  ,0.1
556  ,1.036e+09   ,-0.2  ,2.5  ,0.1
557  ,1.344e+09   ,-0.4  ,2.5  ,0.1
558  ,1.559e+09   ,-0.6  ,2.5  ,0.1
559  ,1.925e+09   ,-0.8  ,2.5  ,0.1
560  ,2.020e+09   ,-1  ,2.5  ,0.1
561  ,2.019e+09   ,-1.2  ,2.5  ,0.1
562  ,1.845e+09   ,-1.4  ,2.5  ,0.1
563  ,1.803e+09   ,-1.6  ,2.5  ,0.1
564  ,1.652e+09   ,-1.8  ,2.5  ,0.1
565  ,1.454e+09   ,-2  ,2.5  ,0.1
566  ,1.143e+09   ,-2.2  ,2.5  ,0.1
567  ,7.279e+08   ,-2.4  ,2.5  ,4.7
568  ,9.219e+08   ,-2.4  ,2.5  ,4.5
569  ,8.950e+08   ,-2.4  ,2.5  ,4.3
570  ,9.923e+08   ,-2.4  ,2.5  ,4.1
571  ,9.925e+08   ,-2.4  ,2.5  ,3.9
572  ,1.114e+09   ,-2.4  ,2.5  ,3.7
573  ,1.404e+09   ,-2.4  ,2.5  ,3.5
574  ,2.121e+09   ,-2.4  ,2.5  ,3.3
575  ,1.837e+09   ,-2.4  ,2.5  ,3.1
576  ,1.632e+09   ,-2.4  ,2.5  ,2.9
577  ,1.605e+09   ,-2.4  ,2.5  ,2.7
578  ,1.463e+09   ,-2.4  ,2.5  ,2.5
579  ,1.507e+09   ,-2.4  ,2.5  ,2.3
580  ,1.585e+09   ,-2.4  ,2.5  ,2.1
581  ,1.636e+09   ,-2.4  ,2.5  ,1.9
582  ,1.856e+09   ,-2.4  ,2.5  ,1.7
583  ,1.917e+09   ,-2.4  ,2.5  ,1.5
584  ,1.966e+09   ,-2.4  ,2.5  ,1.3
585  ,1.905e+09   ,-2.4  ,2.5  ,1.1
586  ,1.797e+09   ,-2.4  ,2.5  ,0.9
587  ,1.623e+09   ,-2.4  ,2.5  ,0.7
588  ,1.459e+09   ,-2.4  ,2.5  ,0.5
589  ,1.178e+09   ,-2.4  ,2.5  ,0.3
590  ,1.543e+10   ,1.936  ,2.5  ,4.9
591  ,7.048e+09   ,1.7389  ,2.5  ,4.9
592  ,5.555e+09   ,1.5418  ,2.5  ,4.9
593  ,4.212e+09   ,1.3447  ,2.5  ,4.9
594  ,3.336e+09   ,1.1476  ,2.5  ,4.9
595  ,3.602e+09   ,0.95055  ,2.5  ,4.9
596  ,3.442e+09   ,0.75346  ,2.5  ,4.9
597  ,3.501e+09   ,0.55637  ,2.5  ,4.9
598  ,3.422e+09   ,0.35927  ,2.5  ,4.9
599  ,2.905e+09   ,0.16218  ,2.5  ,4.9
600  ,2.710e+09   ,-0.034907  ,2.5  ,4.9
601  ,2.596e+09   ,-0.232  ,2.5  ,4.9
602  ,3.139e+09   ,-0.42909  ,2.5  ,4.9
603  ,3.260e+09   ,-0.62618  ,2.5  ,4.9
604  ,2.981e+09   ,-0.82327  ,2.5  ,4.9
605  ,3.085e+09   ,-1.0204  ,2.5  ,4.9
606  ,2.704e+09   ,-1.2175  ,2.5  ,4.9
607  ,2.101e+09   ,-1.4145  ,2.5  ,4.9
608  ,1.598e+09   ,-1.6116  ,2.5  ,4.9
609  ,1.034e+09   ,-1.8087  ,2.5  ,4.9
610  ,7.123e+08   ,-2.0058  ,2.5  ,4.9
611  ,5.602e+08   ,-2.2029  ,2.5  ,4.9
612  ,1.970e+10   ,2.2665  ,2.5  ,4.7665
613  ,1.336e+10   ,2.4  ,2.5  ,4.436
614  ,8.591e+09   ,2.4  ,2.5  ,4.2389
615  ,5.647e+09   ,2.4  ,2.5  ,4.0418
616  ,4.710e+09   ,2.4  ,2.5  ,3.8447
617  ,3.851e+09   ,2.4  ,2.5  ,3.6476
618  ,3.577e+09   ,2.4  ,2.5  ,3.4505
619  ,3.654e+09   ,2.4  ,2.5  ,3.2535
620  ,3.560e+09   ,2.4  ,2.5  ,3.0564
621  ,3.176e+09   ,2.4  ,2.5  ,2.8593
622  ,3.029e+09   ,2.4  ,2.5  ,2.6622
623  ,2.768e+09   ,2.4  ,2.5  ,2.4651
624  ,2.716e+09   ,2.4  ,2.5  ,2.268
625  ,2.654e+09   ,2.4  ,2.5  ,2.0709
626  ,2.871e+09   ,2.4  ,2.5  ,1.8738
627  ,2.955e+09   ,2.4  ,2.5  ,1.6767
628  ,3.033e+09   ,2.4  ,2.5  ,1.4796
629  ,2.978e+09   ,2.4  ,2.5  ,1.2825
630  ,2.072e+09   ,2.4  ,2.5  ,1.0855
631  ,1.504e+09   ,2.4  ,2.5  ,0.88836
632  ,1.036e+09   ,2.4  ,2.5  ,0.69127
633  ,8.819e+08   ,2.4  ,2.5  ,0.49418
634  ,6.123e+08   ,2.4  ,2.5  ,0.29709
796  ,5.832e+08   ,-2.5  ,2.2  ,0.1
797  ,1.077e+09   ,-2.5  ,2  ,0.1
798  ,1.406e+09   ,-2.5  ,1.8  ,0.1
799  ,1.679e+09   ,-2.5  ,1.6  ,0.1
800  ,1.928e+09   ,-2.5  ,1.4  ,0.1
801  ,2.070e+09   ,-2.5  ,1.2  ,0.1
802  ,2.124e+09   ,-2.5  ,1  ,0.1
803  ,2.062e+09   ,-2.5  ,0.8  ,0.1
804  ,2.228e+09   ,-2.5  ,0.6  ,0.1
805  ,2.342e+09   ,-2.5  ,0.4  ,0.1
806  ,2.260e+09   ,-2.5  ,0.2  ,0.1
807  ,2.125e+09   ,-2.5  ,5.8879E-16  ,0.1
808  ,1.917e+09   ,-2.5  ,-0.2  ,0.1
809  ,1.737e+09   ,-2.5  ,-0.4  ,0.1
810  ,1.509e+09   ,-2.5  ,-0.6  ,0.1
811  ,1.169e+09   ,-2.5  ,-0.8  ,0.1
812  ,9.532e+08   ,-2.5  ,-1  ,0.1
813  ,5.843e+08   ,-2.5  ,-1.2  ,0.1
814  ,4.340e+08   ,-2.5  ,-1.4  ,0.1
815  ,3.798e+08   ,-2.5  ,-1.6  ,0.1
816  ,4.564e+08   ,-2.5  ,-1.8  ,0.1
817  ,7.803e+08   ,-2.5  ,-2  ,0.1
818  ,9.401e+08   ,-2.5  ,-2.2  ,0.1
819  ,1.982e+09   ,-2.5  ,-2.4  ,4.7
820  ,1.178e+09   ,-2.5  ,-2.4  ,4.5
821  ,1.674e+09   ,-2.5  ,-2.4  ,4.3
822  ,2.712e+09   ,-2.5  ,-2.4  ,4.1
823  ,3.198e+09   ,-2.5  ,-2.4  ,3.9
824  ,3.365e+09   ,-2.5  ,-2.4  ,3.7
825  ,3.589e+09   ,-2.5  ,-2.4  ,3.5
826  ,3.063e+09   ,-2.5  ,-2.4  ,3.3
827  ,2.896e+09   ,-2.5  ,-2.4  ,3.1
828  ,2.277e+09   ,-2.5  ,-2.4  ,2.9
829  ,1.538e+09   ,-2.5  ,-2.4  ,2.7
830  ,7.398e+08   ,-2.5  ,-2.4  ,2.5
831  ,3.965e+08   ,-2.5  ,-2.4  ,2.3
832  ,3.758e+08   ,-2.5  ,-2.4  ,2.1
833  ,5.481e+08   ,-2.5  ,-2.4  ,1.9
834  ,8.063e+08   ,-2.5  ,-2.4  ,1.7
835  ,1.158e+09   ,-2.5  ,-2.4  ,1.5
836  ,1.447e+09   ,-2.5  ,-2.4  ,1.3
837  ,1.703e+09   ,-2.5  ,-2.4  ,1.1
838  ,1.825e+09   ,-2.5  ,-2.4  ,0.9
839  ,1.567e+09   ,-2.5  ,-2.4  ,0.7
840  ,1.268e+09   ,-2.5  ,-2.4  ,0.5
841  ,1.718e+09   ,-2.5  ,-2.4  ,0.3
842  ,5.450e+08   ,-2.5  ,2.2  ,4.9
843  ,8.828e+08   ,-2.5  ,2  ,4.9
844  ,9.597e+08   ,-2.5  ,1.8  ,4.9
845  ,9.946e+08   ,-2.5  ,1.6  ,4.9
846  ,9.984e+08   ,-2.5  ,1.4  ,4.9
847  ,1.094e+09   ,-2.5  ,1.2  ,4.9
848  ,1.158e+09   ,-2.5  ,1  ,4.9
849  ,1.618e+09   ,-2.5  ,0.8  ,4.9
850  ,1.291e+09   ,-2.5  ,0.6  ,4.9
851  ,1.151e+09   ,-2.5  ,0.4  ,4.9
852  ,1.121e+09   ,-2.5  ,0.2  ,4.9
853  ,9.548e+08   ,-2.5  ,5.8879E-16  ,4.9
854  ,7.081e+08   ,-2.5  ,-0.2  ,4.9
855  ,5.776e+08   ,-2.5  ,-0.4  ,4.9
856  ,6.351e+08   ,-2.5  ,-0.6  ,4.9
857  ,7.309e+08   ,-2.5  ,-0.8  ,4.9
858  ,7.716e+08   ,-2.5  ,-1  ,4.9
859  ,7.433e+08   ,-2.5  ,-1.2  ,4.9
860  ,7.311e+08   ,-2.5  ,-1.4  ,4.9
861  ,7.212e+08   ,-2.5  ,-1.6  ,4.9
862  ,8.716e+08   ,-2.5  ,-1.8  ,4.9
863  ,1.210e+09   ,-2.5  ,-2  ,4.9
864  ,1.312e+09   ,-2.5  ,-2.2  ,4.9
865  ,6.809e+08   ,-2.5  ,2.4  ,4.7
866  ,9.326e+08   ,-2.5  ,2.4  ,4.5
867  ,1.020e+09   ,-2.5  ,2.4  ,4.3
868  ,9.242e+08   ,-2.5  ,2.4  ,4.1
869  ,1.210e+09   ,-2.5  ,2.4  ,3.9
870  ,1.332e+09   ,-2.5  ,2.4  ,3.7
871  ,1.543e+09   ,-2.5  ,2.4  ,3.5
872  ,1.940e+09   ,-2.5  ,2.4  ,3.3
873  ,1.771e+09   ,-2.5  ,2.4  ,3.1
874  ,1.545e+09   ,-2.5  ,2.4  ,2.9
875  ,1.503e+09   ,-2.5  ,2.4  ,2.7
876  ,1.477e+09   ,-2.5  ,2.4  ,2.5
877  ,1.425e+09   ,-2.5  ,2.4  ,2.3
878  ,1.497e+09   ,-2.5  ,2.4  ,2.1
879  ,1.534e+09   ,-2.5  ,2.4  ,1.9
880  ,1.527e+09   ,-2.5  ,2.4  ,1.7
881  ,1.650e+09   ,-2.5  ,2.4  ,1.5
882  ,1.787e+09   ,-2.5  ,2.4  ,1.3
883  ,1.654e+09   ,-2.5  ,2.4  ,1.1
884  ,1.535e+09   ,-2.5  ,2.4  ,0.9
885  ,1.355e+09   ,-2.5  ,2.4  ,0.7
886  ,1.157e+09   ,-2.5  ,2.4  ,0.5
887  ,8.028e+08   ,-2.5  ,2.4  ,0.3
1044  ,1.843e+09   ,-2.3  ,-2.5  ,0.44697
1045  ,8.985e+08   ,-2.3  ,-2.5  ,0.68705
1046  ,4.041e+08   ,-2.3  ,-2.5  ,0.92554
1047  ,2.987e+08   ,-2.3  ,-2.5  ,1.1682
1048  ,7.164e+08   ,-2.3  ,-2.5  ,1.4148
1049  ,1.081e+09   ,-2.3  ,-2.5  ,1.6581
1050  ,1.437e+09   ,-2.3  ,-2.5  ,1.8967
1051  ,1.441e+09   ,-2.3  ,-2.5  ,2.1357
1052  ,1.296e+09   ,-2.3  ,-2.5  ,2.3794
1053  ,8.416e+08   ,-2.3  ,-2.5  ,2.6206
1054  ,6.629e+08   ,-2.3  ,-2.5  ,2.8643
1055  ,1.209e+09   ,-2.3  ,-2.5  ,3.1033
1056  ,1.871e+09   ,-2.3  ,-2.5  ,3.342
1057  ,2.220e+09   ,-2.3  ,-2.5  ,3.5852
1058  ,2.160e+09   ,-2.3  ,-2.5  ,3.8318
1059  ,1.679e+09   ,-2.3  ,-2.5  ,4.0745
1060  ,1.069e+09   ,-2.3  ,-2.5  ,4.3129
1061  ,1.033e+09   ,-2.3  ,-2.5  ,4.553
1062  ,3.572e+09   ,-2.053  ,-2.5  ,4.8
1063  ,2.449e+09   ,-1.8129  ,-2.5  ,4.8
1064  ,1.876e+09   ,-1.5745  ,-2.5  ,4.8
1065  ,1.228e+09   ,-1.3318  ,-2.5  ,4.8
1066  ,4.204e+08   ,-1.0852  ,-2.5  ,4.8
1067  ,1.258e+09   ,-0.84195  ,-2.5  ,4.8
1068  ,1.600e+09   ,-0.60329  ,-2.5  ,4.8
1069  ,1.470e+09   ,-0.3643  ,-2.5  ,4.8
1070  ,1.113e+09   ,-0.12055  ,-2.5  ,4.8
1071  ,6.299e+08   ,0.12056  ,-2.5  ,4.8
1072  ,3.976e+08   ,0.3643  ,-2.5  ,4.8
1073  ,7.009e+08   ,0.6033  ,-2.5  ,4.8
1074  ,6.970e+08   ,0.84195  ,-2.5  ,4.8
1075  ,7.657e+08   ,1.0852  ,-2.5  ,4.8
1076  ,5.368e+08   ,1.3318  ,-2.5  ,4.8
1077  ,8.338e+08   ,1.5745  ,-2.5  ,4.8
1078  ,2.127e+09   ,1.8129  ,-2.5  ,4.8
1079  ,5.502e+09   ,2.053  ,-2.5  ,4.8
1080  ,5.529e+09   ,2.3  ,-2.5  ,4.553
1081  ,2.263e+09   ,2.3  ,-2.5  ,4.3129
1082  ,9.292e+08   ,2.3  ,-2.5  ,4.0745
1083  ,4.569e+08   ,2.3  ,-2.5  ,3.8318
1084  ,8.291e+08   ,2.3  ,-2.5  ,3.5852
1085  ,8.669e+08   ,2.3  ,-2.5  ,3.3419
1086  ,5.659e+08   ,2.3  ,-2.5  ,3.1033
1087  ,3.474e+08   ,2.3  ,-2.5  ,2.8643
1088  ,7.152e+08   ,2.3  ,-2.5  ,2.6206
1089  ,1.141e+09   ,2.3  ,-2.5  ,2.3794
1090  ,1.436e+09   ,2.3  ,-2.5  ,2.1357
1091  ,1.541e+09   ,2.3  ,-2.5  ,1.8967
1092  ,1.342e+09   ,2.3  ,-2.5  ,1.658
1093  ,3.502e+08   ,2.3  ,-2.5  ,1.4148
1094  ,1.100e+09   ,2.3  ,-2.5  ,1.1682
1095  ,1.859e+09   ,2.3  ,-2.5  ,0.92554
1096  ,2.550e+09   ,2.3  ,-2.5  ,0.68705
1097  ,3.444e+09   ,2.3  ,-2.5  ,0.44697
1098  ,1.246e+09   ,-2.053  ,-2.5  ,0.2
1099  ,6.767e+08   ,-1.8129  ,-2.5  ,0.2
1100  ,1.572e+08   ,-1.5745  ,-2.5  ,0.2
1101  ,3.591e+08   ,-1.3318  ,-2.5  ,0.2
1102  ,6.818e+08   ,-1.0852  ,-2.5  ,0.2
1103  ,1.010e+09   ,-0.84195  ,-2.5  ,0.2
1104  ,1.345e+09   ,-0.60329  ,-2.5  ,0.2
1105  ,1.567e+09   ,-0.3643  ,-2.5  ,0.2
1106  ,1.408e+09   ,-0.12055  ,-2.5  ,0.2
1107  ,8.464e+08   ,0.12056  ,-2.5  ,0.2
1108  ,6.432e+08   ,0.3643  ,-2.5  ,0.2
1109  ,1.288e+09   ,0.6033  ,-2.5  ,0.2
1110  ,2.097e+09   ,0.84195  ,-2.5  ,0.2
1111  ,2.472e+09   ,1.0852  ,-2.5  ,0.2
1112  ,2.331e+09   ,1.3318  ,-2.5  ,0.2
1113  ,1.805e+09   ,1.5745  ,-2.5  ,0.2
1114  ,1.154e+09   ,1.8129  ,-2.5  ,0.2
1115  ,1.357e+09   ,2.053  ,-2.5  ,0.2
1116  ,7.652e+08   ,-2.2  ,-2.5  ,4.9
1117  ,3.402e+08   ,-2  ,-2.5  ,4.9
1118  ,3.991e+08   ,-1.8  ,-2.5  ,4.9
1119  ,3.132e+08   ,-1.6  ,-2.5  ,4.9
1120  ,5.501e+08   ,-1.4  ,-2.5  ,4.9
1121  ,9.335e+08   ,-1.2  ,-2.5  ,4.9
1122  ,8.063e+08   ,-1  ,-2.5  ,4.9
1123  ,5.117e+08   ,-0.8  ,-2.5  ,4.9
1124  ,4.756e+08   ,-0.6  ,-2.5  ,4.9
1125  ,8.851e+08   ,-0.4  ,-2.5  ,4.9
1126  ,1.071e+09   ,-0.2  ,-2.5  ,4.9
1127  ,1.319e+09   ,-1.7664E-15  ,-2.5  ,4.9
1128  ,1.452e+09   ,0.2  ,-2.5  ,4.9
1129  ,1.746e+09   ,0.4  ,-2.5  ,4.9
1130  ,1.528e+09   ,0.6  ,-2.5  ,4.9
1131  ,1.728e+09   ,0.8  ,-2.5  ,4.9
1132  ,1.654e+09   ,1  ,-2.5  ,4.9
1133  ,1.944e+09   ,1.2  ,-2.5  ,4.9
1134  ,1.663e+09   ,1.4  ,-2.5  ,4.9
1135  ,1.814e+09   ,1.6  ,-2.5  ,4.9
1136  ,1.878e+09   ,1.8  ,-2.5  ,4.9
1137  ,1.979e+09   ,2  ,-2.5  ,4.9
1138  ,1.830e+09   ,2.2  ,-2.5  ,4.9
1139  ,2.016e+09   ,-2.4  ,-2.5  ,4.7
1140  ,1.561e+09   ,-2.4  ,-2.5  ,4.5
1141  ,1.205e+09   ,-2.4  ,-2.5  ,4.3
1142  ,1.021e+09   ,-2.4  ,-2.5  ,4.1
1143  ,9.293e+08   ,-2.4  ,-2.5  ,3.9
1144  ,1.015e+09   ,-2.4  ,-2.5  ,3.7
1145  ,5.205e+08   ,-2.4  ,-2.5  ,3.5
1146  ,1.086e+09   ,-2.4  ,-2.5  ,3.3
1147  ,1.028e+09   ,-2.4  ,-2.5  ,3.1
1148  ,1.284e+09   ,-2.4  ,-2.5  ,2.9
1149  ,1.263e+09   ,-2.4  ,-2.5  ,2.7
1150  ,9.765e+08   ,-2.4  ,-2.5  ,2.5
1151  ,7.808e+08   ,-2.4  ,-2.5  ,2.3
1152  ,8.411e+08   ,-2.4  ,-2.5  ,2.1
1153  ,7.718e+08   ,-2.4  ,-2.5  ,1.9
1154  ,9.847e+08   ,-2.4  ,-2.5  ,1.7
1155  ,1.059e+09   ,-2.4  ,-2.5  ,1.5
1156  ,1.204e+09   ,-2.4  ,-2.5  ,1.3
1157  ,1.024e+09   ,-2.4  ,-2.5  ,1.1
1158  ,1.031e+09   ,-2.4  ,-2.5  ,0.9
1159  ,1.294e+09   ,-2.4  ,-2.5  ,0.7
1160  ,1.317e+09   ,-2.4  ,-2.5  ,0.5
1161  ,1.215e+09   ,-2.4  ,-2.5  ,0.3
1162  ,1.377e+09   ,-2.2  ,-2.5  ,0.1
1163  ,1.393e+09   ,-2  ,-2.5  ,0.1
1164  ,1.147e+09   ,-1.8  ,-2.5  ,0.1
1165  ,8.493e+08   ,-1.6  ,-2.5  ,0.1
1166  ,9.330e+08   ,-1.4  ,-2.5  ,0.1
1167  ,1.008e+09   ,-1.2  ,-2.5  ,0.1
1168  ,9.139e+08   ,-1  ,-2.5  ,0.1
1169  ,8.432e+08   ,-0.8  ,-2.5  ,0.1
1170  ,7.915e+08   ,-0.6  ,-2.5  ,0.1
1171  ,7.653e+08   ,-0.4  ,-2.5  ,0.1
1172  ,8.261e+08   ,-0.2  ,-2.5  ,0.1
1173  ,1.129e+09   ,-1.7664E-15  ,-2.5  ,0.1
1174  ,1.327e+09   ,0.2  ,-2.5  ,0.1
1175  ,1.300e+09   ,0.4  ,-2.5  ,0.1
1176  ,1.277e+09   ,0.6  ,-2.5  ,0.1
1177  ,7.327e+08   ,0.8  ,-2.5  ,0.1
1178  ,5.300e+08   ,1  ,-2.5  ,0.1
1179  ,7.120e+08   ,1.2  ,-2.5  ,0.1
1180  ,8.260e+08   ,1.4  ,-2.5  ,0.1
1181  ,1.047e+09   ,1.6  ,-2.5  ,0.1
1182  ,1.276e+09   ,1.8  ,-2.5  ,0.1
1183  ,1.531e+09   ,2  ,-2.5  ,0.1
1184  ,1.881e+09   ,2.2  ,-2.5  ,0.1
1185  ,1.818e+09   ,2.4  ,-2.5  ,4.7
1186  ,2.013e+09   ,2.4  ,-2.5  ,4.5
1187  ,2.057e+09   ,2.4  ,-2.5  ,4.3
1188  ,1.891e+09   ,2.4  ,-2.5  ,4.1
1189  ,1.963e+09   ,2.4  ,-2.5  ,3.9
1190  ,1.925e+09   ,2.4  ,-2.5  ,3.7
1191  ,1.584e+09   ,2.4  ,-2.5  ,3.5
1192  ,1.739e+09   ,2.4  ,-2.5  ,3.3
1193  ,1.735e+09   ,2.4  ,-2.5  ,3.1
1194  ,1.774e+09   ,2.4  ,-2.5  ,2.9
1195  ,1.501e+09   ,2.4  ,-2.5  ,2.7
1196  ,1.275e+09   ,2.4  ,-2.5  ,2.5
1197  ,9.772e+08   ,2.4  ,-2.5  ,2.3
1198  ,8.407e+08   ,2.4  ,-2.5  ,2.1
1199  ,7.003e+08   ,2.4  ,-2.5  ,1.9
1200  ,6.485e+08   ,2.4  ,-2.5  ,1.7
1201  ,7.171e+08   ,2.4  ,-2.5  ,1.5
1202  ,8.062e+08   ,2.4  ,-2.5  ,1.3
1203  ,4.828e+08   ,2.4  ,-2.5  ,1.1
1204  ,2.872e+08   ,2.4  ,-2.5  ,0.9
1205  ,3.333e+08   ,2.4  ,-2.5  ,0.7
1206  ,3.321e+08   ,2.4  ,-2.5  ,0.5
1207  ,6.943e+08   ,2.4  ,-2.5  ,0.3
1208  ,1.250e+09   ,2.4  ,-2.2  ,0
1209  ,1.204e+09   ,2.4  ,-2  ,0
1210  ,8.910e+08   ,2.4  ,-1.8  ,0
1211  ,7.873e+08   ,2.4  ,-1.6  ,0
1212  ,7.639e+08   ,2.4  ,-1.4  ,0
1213  ,7.056e+08   ,2.4  ,-1.2  ,0
1214  ,8.066e+08   ,2.4  ,-1  ,0
1215  ,8.345e+08   ,2.4  ,-0.8  ,0
1216  ,6.740e+08   ,2.4  ,-0.6  ,0
1217  ,5.013e+08   ,2.4  ,-0.4  ,0
1218  ,5.133e+08   ,2.4  ,-0.2  ,0
1219  ,6.906e+08   ,2.4  ,-1.7664E-15  ,0
1220  ,8.366e+08   ,2.4  ,0.2  ,0
1221  ,9.539e+08   ,2.4  ,0.4  ,0
1222  ,1.270e+09   ,2.4  ,0.6  ,0
1223  ,1.497e+09   ,2.4  ,0.8  ,0
1224  ,1.114e+09   ,2.4  ,1  ,0
1225  ,9.838e+08   ,2.4  ,1.2  ,0
1226  ,9.153e+08   ,2.4  ,1.4  ,0
1227  ,8.209e+08   ,2.4  ,1.6  ,0
1228  ,9.736e+08   ,2.4  ,1.8  ,0
1229  ,8.556e+08   ,2.4  ,2  ,0
1230  ,5.430e+08   ,2.4  ,2.2  ,0
1231  ,1.393e+09   ,-2.2  ,-2.4  ,0
1232  ,8.440e+08   ,-2  ,-2.4  ,0
1233  ,1.353e+09   ,-1.8  ,-2.4  ,0
1234  ,1.596e+09   ,-1.6  ,-2.4  ,0
1235  ,1.478e+09   ,-1.4  ,-2.4  ,0
1236  ,1.237e+09   ,-1.2  ,-2.4  ,0
1237  ,8.955e+08   ,-1  ,-2.4  ,0
1238  ,5.916e+08   ,-0.8  ,-2.4  ,0
1239  ,4.249e+08   ,-0.6  ,-2.4  ,0
1240  ,2.646e+08   ,-0.4  ,-2.4  ,0
1241  ,3.324e+08   ,-0.2  ,-2.4  ,0
1242  ,9.342e+08   ,5.8879E-16  ,-2.4  ,0
1243  ,1.767e+09   ,0.2  ,-2.4  ,0
1244  ,2.517e+09   ,0.4  ,-2.4  ,0
1245  ,2.828e+09   ,0.6  ,-2.4  ,0
1246  ,3.408e+09   ,0.8  ,-2.4  ,0
1247  ,3.353e+09   ,1  ,-2.4  ,0
1248  ,3.372e+09   ,1.2  ,-2.4  ,0
1249  ,3.007e+09   ,1.4  ,-2.4  ,0
1250  ,2.473e+09   ,1.6  ,-2.4  ,0
1251  ,1.510e+09   ,1.8  ,-2.4  ,0
1252  ,1.325e+09   ,2  ,-2.4  ,0
1253  ,2.365e+09   ,2.2  ,-2.4  ,0
1254  ,6.923e+08   ,-2.4  ,2.2  ,0
1255  ,1.061e+09   ,-2.4  ,2  ,0
1256  ,1.388e+09   ,-2.4  ,1.8  ,0
1257  ,1.609e+09   ,-2.4  ,1.6  ,0
1258  ,1.929e+09   ,-2.4  ,1.4  ,0
1259  ,2.141e+09   ,-2.4  ,1.2  ,0
1260  ,2.217e+09   ,-2.4  ,1  ,0
1261  ,2.158e+09   ,-2.4  ,0.8  ,0
1262  ,2.178e+09   ,-2.4  ,0.6  ,0
1263  ,2.223e+09   ,-2.4  ,0.4  ,0
1264  ,2.200e+09   ,-2.4  ,0.2  ,0
1265  ,2.221e+09   ,-2.4  ,5.8879E-16  ,0
1266  ,2.051e+09   ,-2.4  ,-0.2  ,0
1267  ,1.690e+09   ,-2.4  ,-0.4  ,0
1268  ,1.489e+09   ,-2.4  ,-0.6  ,0
1269  ,1.147e+09   ,-2.4  ,-0.8  ,0
1270  ,9.572e+08   ,-2.4  ,-1  ,0
1271  ,6.430e+08   ,-2.4  ,-1.2  ,0
1272  ,4.151e+08   ,-2.4  ,-1.4  ,0
1273  ,3.905e+08   ,-2.4  ,-1.6  ,0
1274  ,4.622e+08   ,-2.4  ,-1.8  ,0
1275  ,7.554e+08   ,-2.4  ,-2  ,0
1276  ,8.445e+08   ,-2.4  ,-2.2  ,0
1277  ,4.876e+08   ,2.2  ,2.4  ,0
1278  ,9.285e+08   ,2  ,2.4  ,0
1279  ,1.058e+09   ,1.8  ,2.4  ,0
1280  ,9.401e+08   ,1.6  ,2.4  ,0
1281  ,9.577e+08   ,1.4  ,2.4  ,0
1282  ,1.285e+09   ,1.2  ,2.4  ,0
1283  ,1.520e+09   ,1  ,2.4  ,0
1284  ,1.828e+09   ,0.8  ,2.4  ,0
1285  ,1.841e+09   ,0.6  ,2.4  ,0
1286  ,1.643e+09   ,0.4  ,2.4  ,0
1287  ,1.745e+09   ,0.2  ,2.4  ,0
1288  ,1.632e+09   ,5.8879E-16  ,2.4  ,0
1289  ,1.752e+09   ,-0.2  ,2.4  ,0
1290  ,1.476e+09   ,-0.4  ,2.4  ,0
1291  ,1.479e+09   ,-0.6  ,2.4  ,0
1292  ,1.654e+09   ,-0.8  ,2.4  ,0
1293  ,1.765e+09   ,-1  ,2.4  ,0
1294  ,1.695e+09   ,-1.2  ,2.4  ,0
1295  ,1.632e+09   ,-1.4  ,2.4  ,0
1296  ,1.474e+09   ,-1.6  ,2.4  ,0
1297  ,1.334e+09   ,-1.8  ,2.4  ,0
1298  ,1.121e+09   ,-2  ,2.4  ,0
1299  ,8.745e+08   ,-2.2  ,2.4  ,0
1460  ,1.290e+10   ,2.3243  ,2.3243  ,4.9577
1461  ,1.226e+10   ,2.4577  ,2.3243  ,4.8243
1462  ,7.711e+09   ,2.3243  ,2.4577  ,4.8243
1463  ,1.380e+09   ,-2.3  ,-2.1759  ,4.8
1464  ,1.426e+09   ,-2.3  ,-1.7631  ,4.8
1465  ,1.684e+09   ,-2.3  ,-1.1827  ,4.8
1466  ,2.391e+09   ,-2.3  ,-0.34986  ,4.8
1467  ,3.100e+09   ,-2.3  ,0.80545  ,4.8
1468  ,2.896e+09   ,-0.81337  ,2.3  ,4.8
1469  ,4.975e+09   ,0.67326  ,2.3  ,4.8
1470  ,3.025e+09   ,2.3  ,-2.1824  ,4.8
1471  ,2.192e+09   ,2.3  ,-1.7784  ,4.8
1472  ,2.159e+09   ,2.3  ,-1.2138  ,4.8
1473  ,2.900e+09   ,2.3  ,-0.40752  ,4.8
1474  ,4.218e+09   ,2.3  ,0.70532  ,4.8
1516  ,2.849e+09   ,2.3  ,2.3  ,1.6866
1517  ,5.073e+09   ,2.3  ,2.3  ,3.1733
1518  ,1.341e+09   ,2.3  ,-2.1759  ,0.2
1519  ,1.579e+09   ,2.3  ,-1.7631  ,0.2
1520  ,1.609e+09   ,2.3  ,-1.1827  ,0.2
1521  ,2.351e+09   ,2.3  ,-0.34986  ,0.2
1522  ,3.103e+09   ,2.3  ,0.80545  ,0.2
1564  ,2.566e+09   ,-0.76667  ,2.3  ,0.2
1565  ,3.170e+09   ,0.76667  ,2.3  ,0.2
1566  ,2.540e+09   ,-2.3  ,2.3  ,1.7333
1567  ,3.167e+09   ,-2.3  ,2.3  ,3.2667
1574  ,9.275e+08   ,-2.3  ,-2.1759  ,0.2
1575  ,1.922e+08   ,-2.3  ,-1.7631  ,0.2
1576  ,2.769e+08   ,-2.3  ,-1.1827  ,0.2
1577  ,6.558e+08   ,-2.3  ,-0.34986  ,0.2
1578  ,8.431e+08   ,-2.3  ,0.80545  ,0.2
1777  ,3.247e+09   ,-0.52764  ,2.5  ,4.9
1801  ,1.329e+09   ,-2.3  ,1.5527  ,0.2
1825  ,1.568e+09   ,-1.5333  ,2.3  ,0.2
1841  ,2.821e+09   ,0.063638  ,2.5  ,4.9
1876  ,1.444e+09   ,-0.5  ,2.4  ,0
1894  ,2.946e+09   ,2.3  ,1.5527  ,0.2
1907  ,8.650e+08   ,2.1  ,2.5  ,0.1
1928  ,9.390e+08   ,1.9  ,2.4  ,0
1974  ,1.033e+09   ,2.4  ,1.1  ,0
1981  ,9.824e+08   ,2.4  ,2.5  ,0.59273
1987  ,1.109e+09   ,-2.5  ,2.4  ,4
2004  ,8.377e+08   ,-2.4  ,2.5  ,4.6
2009  ,8.790e+08   ,2.4  ,1.3  ,0
2020  ,1.122e+09   ,2.5  ,1.1  ,0.1
2035  ,8.736e+08   ,-2.3  ,-0.76628  ,0.2
2070  ,6.504e+09   ,1.6404  ,2.4  ,5
2081  ,2.744e+09   ,2.4  ,2.5  ,1.9724
2095  ,1.379e+09   ,2.4  ,2.5  ,0.78982
2138  ,2.035e+09   ,-2.4  ,-0.1  ,0
2146  ,2.734e+09   ,-0.92182  ,2.4  ,5
2174  ,2.354e+09   ,2.4  ,2.5  ,1.184
2190  ,1.845e+09   ,2.5  ,2.4  ,0.98691
2203  ,3.420e+09   ,2.5  ,-0.13345  ,4.9
2232  ,5.548e+09   ,2.3  ,0.1489  ,4.8
2242  ,3.473e+09   ,2.4  ,2.5  ,2.9578
2293  ,2.362e+09   ,-2.5  ,0.5  ,0.1
2311  ,5.647e+09   ,2.3  ,2.3  ,2.4299
2313  ,1.737e+09   ,2.5  ,2.4  ,0.78982
2329  ,2.639e+09   ,2.4  ,2.5  ,2.1695
2355  ,8.886e+08   ,-2.4  ,2.5  ,4.4
2380  ,3.825e+08   ,-2.5  ,-1.5  ,0.1
2383  ,3.341e+09   ,0.45782  ,2.5  ,4.9
2408  ,3.182e+09   ,2.3  ,-1.4961  ,4.8
2445  ,2.690e+09   ,2.5  ,-1.5131  ,4.9
2484  ,8.935e+08   ,-2.5  ,-2.4  ,1.6
2495  ,8.878e+08   ,-2.4  ,1.7  ,5
2508  ,9.090e+08   ,2.4  ,0.3  ,0
2514  ,3.294e+09   ,2.3  ,0.2278  ,0.2
2570  ,9.759e+08   ,-2.4  ,1.5  ,5
2580  ,6.436e+09   ,1.6404  ,2.5  ,4.9
2603  ,3.060e+09   ,-1.1189  ,2.5  ,4.9
2695  ,2.122e+09   ,2.3  ,2.3  ,0.94331
2705  ,3.131e+09   ,2.4  ,2.5  ,1.3811
2714  ,2.349e+09   ,2.5  ,0.45782  ,4.9
2734  ,7.913e+08   ,2.4  ,-0.9  ,0
2775  ,7.001e+08   ,2.5  ,-0.1  ,0.1
2779  ,6.070e+08   ,2.4  ,-0.1  ,0
2801  ,8.598e+09   ,1.4166  ,2.3  ,4.8
2814  ,4.925e+09   ,1.4433  ,2.5  ,4.9
2863  ,1.502e+09   ,-2.4  ,2.5  ,0.6
2884  ,1.705e+09   ,-2.4  ,2.5  ,0.8
2886  ,1.930e+09   ,-2.4  ,2.5  ,1.2
2967  ,8.213e+08   ,2.4  ,1.7  ,0
2973  ,9.557e+08   ,2.5  ,1.5  ,0.1
2987  ,1.134e+09   ,-0.3  ,2.5  ,0.1
3008  ,1.502e+09   ,-2.3  ,2.3  ,0.96667
3012  ,1.474e+09   ,-2.5  ,2.4  ,2.6
3021  ,1.469e+09   ,-2.5  ,2.4  ,2.8
3025  ,1.438e+09   ,-2.5  ,2.4  ,2.4
3030  ,1.466e+09   ,-2.4  ,2.5  ,2.4
3033  ,1.483e+09   ,-2.4  ,2.5  ,2.2
3047  ,2.699e+09   ,2.4  ,2.5  ,2.3665
3052  ,3.062e+09   ,2.5  ,2.4  ,2.5636
3061  ,2.851e+09   ,2.4  ,2.5  ,2.5636
3081  ,1.122e+09   ,-2.4  ,1.3  ,5
3088  ,8.675e+08   ,-1.9073  ,2.4  ,5
3099  ,8.491e+08   ,-2.4  ,1.9  ,5
3107  ,1.007e+09   ,-2.4  ,2.5  ,3.8
3139  ,1.737e+09   ,-1.5131  ,2.4  ,5
3145  ,1.852e+09   ,-1.5131  ,2.5  ,4.9
3148  ,1.337e+09   ,-1.7102  ,2.5  ,4.9
3168  ,1.740e+09   ,-2.4  ,1.5  ,0
3188  ,1.820e+09   ,-2.5  ,-2.4  ,1
3202  ,3.049e+09   ,0.26073  ,2.5  ,4.9
3212  ,5.855e+09   ,2.5  ,1.6404  ,4.9
3247  ,9.668e+09   ,2.5  ,1.8375  ,4.9
3265  ,8.264e+09   ,2.3  ,1.4326  ,4.8
3271  ,1.468e+10   ,2.2299  ,2.2299  ,4.8
3284  ,4.247e+09   ,2.4  ,1.4433  ,5
3291  ,4.395e+09   ,2.5  ,1.4433  ,4.9
3296  ,2.391e+09   ,-2.3  ,-0.76628  ,4.8
3303  ,8.675e+08   ,-2.4  ,-0.9  ,5
3311  ,7.253e+08   ,-2.4  ,-0.7  ,5
3315  ,9.527e+08   ,1.9  ,2.5  ,0.1
3336  ,2.186e+09   ,-2.4  ,0.3  ,0
3340  ,2.156e+09   ,-2.5  ,0.1  ,0.1
3344  ,2.187e+09   ,-2.4  ,0.1  ,0
3356  ,1.553e+09   ,-0.3  ,2.4  ,0
3361  ,2.701e+09   ,-0.33054  ,2.5  ,4.9
3364  ,2.629e+09   ,-0.13345  ,2.5  ,4.9
3383  ,3.764e+09   ,2.4  ,2.5  ,3.5491
3402  ,1.623e+10   ,2.4  ,2.5  ,4.5345
3421  ,2.336e+09   ,-1.316  ,2.5  ,4.9
3439  ,4.867e+09   ,2.5  ,2.4  ,3.9433
3447  ,5.274e+09   ,2.4  ,2.5  ,3.9433
3451  ,4.130e+09   ,2.4  ,2.5  ,3.7462
3468  ,4.838e+09   ,1.4433  ,2.4  ,5
3480  ,3.483e+09   ,1.0491  ,2.4  ,5
3519  ,9.661e+08   ,1.5  ,2.4  ,0
3527  ,1.969e+09   ,2.3  ,-1.4729  ,0.2
3550  ,1.368e+09   ,-1.7  ,2.4  ,0
3554  ,1.680e+09   ,-1.7  ,2.5  ,0.1
3558  ,1.559e+09   ,-1.5  ,2.4  ,0
3562  ,1.793e+09   ,-1.5  ,2.5  ,0.1
3574  ,6.247e+08   ,-2.4  ,2.1  ,5
3581  ,1.516e+09   ,-2.5  ,1.7  ,0.1
3583  ,1.249e+09   ,-2.5  ,1.9  ,0.1
3584  ,8.116e+08   ,-1.9073  ,2.5  ,4.9
3591  ,1.089e+09   ,2.5  ,0.3  ,0.1
3595  ,8.942e+08   ,2.5  ,0.1  ,0.1
3603  ,1.989e+10   ,2.4577  ,2.391  ,4.7576
3663  ,8.749e+08   ,-1.933  ,-2.5  ,0.2
3669  ,2.225e+09   ,-2.1765  ,-2.5  ,0.2
3672  ,1.606e+09   ,-2.3  ,-2.3379  ,0.2
3682  ,1.107e+09   ,-1.9  ,-2.4  ,0
3700  ,4.698e+08   ,2.3  ,-2.5  ,2.7424
3712  ,5.935e+08   ,-2.1  ,-2.5  ,4.9
3715  ,3.546e+08   ,-1.9  ,-2.5  ,4.9
3740  ,1.420e+09   ,-1.3  ,-2.4  ,5
3746  ,7.280e+08   ,-1.2085  ,-2.5  ,4.8
3755  ,1.869e+09   ,-1.5  ,-2.4  ,5
3760  ,2.684e+08   ,-1.7  ,-2.5  ,4.9
3786  ,2.869e+09   ,2.4  ,2.5  ,1.5782
3813  ,3.097e+09   ,0.26073  ,2.4  ,5
3858  ,4.877e+08   ,-0.9  ,-2.4  ,5
3863  ,1.370e+09   ,-2.5  ,0.9  ,4.9
3875  ,2.317e+09   ,-1.9  ,-2.4  ,5
3885  ,2.703e+09   ,2.4  ,-0.72473  ,5
3910  ,8.492e+08   ,-2.4  ,-2.5  ,3.4
3959  ,7.181e+09   ,2.5  ,2.4  ,4.1404
3969  ,2.906e+09   ,2.5  ,1.0491  ,4.9
3992  ,1.676e+10   ,2.391  ,2.2576  ,4.9577
3993  ,1.952e+10   ,2.4577  ,2.2576  ,4.891
4016  ,3.858e+08   ,-2.3015  ,2.5  ,4.9
4018  ,5.532e+08   ,-2.4  ,2.5  ,4.8
4021  ,3.687e+09   ,1.2462  ,2.4  ,5
4042  ,7.465e+08   ,2.4  ,-1.1  ,0
4046  ,1.667e+09   ,-0.9  ,2.4  ,0
4055  ,1.809e+09   ,1.7  ,-2.5  ,4.9
4087  ,1.062e+09   ,1.7  ,2.4  ,0
4114  ,2.835e+09   ,2.5  ,-0.33054  ,4.9
4120  ,7.110e+08   ,2.4  ,-2.5  ,1.8
4125  ,1.410e+09   ,2.4  ,2.5  ,0.98691
4144  ,1.112e+10   ,2.4  ,2.5  ,4.3375
4161  ,1.288e+09   ,-2.4  ,0.3  ,5
4201  ,9.478e+08   ,1.933  ,-2.5  ,0.2
4225  ,1.198e+09   ,-2.3  ,-2.4  ,0
4230  ,1.177e+09   ,-2.3  ,-2.5  ,0.56701
4269  ,6.089e+08   ,-0.9  ,-2.5  ,4.9
4277  ,8.258e+08   ,-1.1  ,-2.4  ,5
4288  ,4.664e+09   ,-0.070055  ,2.3  ,4.8
4328  ,2.039e+09   ,-2.5  ,-2.4  ,4.2
4336  ,1.334e+09   ,-2.5  ,-2.4  ,4.4
4342  ,1.268e+09   ,-2.5  ,-2.4  ,4.6
4348  ,2.113e+09   ,-2.4  ,-2.4707  ,4.9707
4352  ,1.135e+09   ,-2.3  ,-2.5  ,4.9
4354  ,4.019e+09   ,-2.1765  ,-2.5  ,4.8
4355  ,2.001e+09   ,-2.3  ,-2.3379  ,4.8
4362  ,9.185e+08   ,2.5  ,2.4  ,0.59273
4364  ,9.234e+08   ,2.5  ,-2.4  ,2.4
4366  ,4.287e+08   ,2.5  ,-2.4  ,2.2
4372  ,9.177e+08   ,2.4  ,-2.5  ,2.2
4385  ,6.616e+08   ,-2.5  ,-1.9  ,0.1
4399  ,8.032e+08   ,-2.5  ,2.1  ,0.1
4407  ,4.374e+08   ,-0.7  ,-2.4  ,0
4436  ,1.972e+09   ,-2.5  ,-0.1  ,0.1
4462  ,2.469e+09   ,-2.3  ,2.3  ,4.0333
4491  ,2.431e+09   ,2.5  ,-0.52764  ,4.9
4494  ,7.976e+08   ,2.5  ,-2.4  ,1.4
4503  ,8.086e+08   ,2.4  ,-2.5  ,1.4
4508  ,7.187e+08   ,2.4  ,-2.5  ,1.2
4515  ,2.623e+08   ,2.5  ,-2.4  ,1.8
4517  ,7.108e+08   ,2.4  ,-2.5  ,1.6
4522  ,3.044e+09   ,0.7  ,-2.4  ,0
4538  ,2.513e+09   ,-1.1189  ,2.4  ,5
4546  ,6.289e+09   ,2.4  ,2.5  ,4.1404
4559  ,1.919e+09   ,1.7  ,-2.4  ,0
4590  ,2.667e+09   ,0.5  ,-2.4  ,0
4631  ,1.387e+09   ,2.4  ,-2.5  ,2.6
4634  ,2.616e+09   ,2.5  ,-2.4  ,2.8
4657  ,5.033e+08   ,-2.5  ,-2.4  ,2
4660  ,6.246e+08   ,-2.5  ,-2.4  ,1.8
4664  ,1.922e+08   ,-0.3  ,-2.4  ,0
4675  ,1.345e+09   ,-2.4  ,-2.5  ,4.8
4681  ,1.803e+09   ,-2.5  ,-0.3  ,0.1
4684  ,1.330e+09   ,1.7  ,-2.4  ,5
4703  ,1.687e+09   ,-2.4  ,0.7  ,5
4707  ,1.128e+09   ,-2.5  ,0.3  ,4.9
4714  ,2.466e+09   ,2.4  ,-0.33054  ,5
4723  ,2.815e+09   ,-1.5567  ,2.3  ,4.8
4739  ,5.737e+08   ,-2.1044  ,2.5  ,4.9
4763  ,1.210e+09   ,-1.9  ,2.4  ,0
4780  ,4.309e+08   ,-2.3  ,-1.9695  ,0.2
4782  ,1.006e+09   ,-2.4707  ,-2.4  ,0.029289
4784  ,5.700e+08   ,-2.4  ,-1.9  ,0
4791  ,8.633e+08   ,-2.4  ,-2.5  ,1.8
4796  ,4.006e+09   ,2.4707  ,-2.4707  ,4.9
4799  ,4.645e+09   ,2.5  ,-2.4  ,4.8
4806  ,2.550e+09   ,2.3  ,-2.5  ,4.9
4809  ,8.738e+09   ,2.3  ,2.3  ,3.9166
4833  ,1.276e+09   ,-2.4  ,2.5  ,0.4
4841  ,1.493e+09   ,-2.4  ,2.5  ,2.6
4846  ,6.465e+08   ,-2.5  ,2.1  ,4.9
4848  ,4.668e+08   ,-2.5  ,2.3  ,4.9
4849  ,5.385e+08   ,-2.5  ,2.4  ,4.8
4893  ,9.570e+08   ,-2.4  ,2.5  ,4.2
4897  ,1.615e+10   ,2.3333  ,2.1998  ,5
4900  ,1.734e+10   ,2.391  ,2.4577  ,4.7576
4908  ,1.960e+10   ,2.2576  ,2.391  ,4.9577
4911  ,1.792e+10   ,2.2576  ,2.4577  ,4.891
4926  ,1.566e+09   ,-2.5  ,2.4  ,1
4932  ,1.872e+09   ,-2.4  ,2.5  ,1.6
4937  ,2.054e+09   ,-1.1  ,2.5  ,0.1
4939  ,1.468e+10   ,2.3  ,2.2299  ,4.7299
4944  ,3.263e+09   ,2.5  ,-1.9073  ,4.9
4987  ,2.733e+09   ,-2.3  ,1.5527  ,4.8
5010  ,3.738e+10   ,2.4973  ,2.1331  ,4.923
5013  ,1.307e+10   ,2.5  ,2.0345  ,4.9
5017  ,1.444e+10   ,2.4  ,2.0345  ,5
5035  ,3.065e+09   ,1.3  ,-2.4  ,0
5038  ,2.471e+09   ,1.2085  ,-2.5  ,0.2
5092  ,1.115e+09   ,-2.4  ,-2.5  ,1.2
5123  ,2.432e+09   ,2.5  ,-2.4  ,0.6
5151  ,1.585e+09   ,-2.5  ,-0.5  ,0.1
5160  ,1.310e+09   ,-2.5  ,-0.7  ,0.1
5164  ,1.559e+09   ,-2.4  ,0.9  ,5
5168  ,1.307e+09   ,-2.4  ,0.5  ,5
5176  ,6.981e+08   ,2.5  ,-0.7  ,0.1
5179  ,5.711e+08   ,2.4  ,-0.5  ,0
5189  ,1.146e+09   ,2.4  ,-2.5  ,2.4
5194  ,1.292e+09   ,2.3  ,-2.5  ,2.2576
5198  ,2.590e+09   ,-2.3  ,-2.5  ,0.32348
5205  ,5.806e+08   ,-2.4  ,-2.5  ,0.2
5207  ,1.312e+09   ,-2.1  ,-2.5  ,0.1
5246  ,1.865e+09   ,-2.5  ,2.4  ,3.2
5257  ,1.011e+09   ,-2.5  ,1.5  ,4.9
5263  ,1.539e+09   ,-2.3  ,0.2278  ,0.2
5272  ,2.229e+09   ,-2.5  ,0.3  ,0.1
5275  ,1.137e+09   ,-2.5  ,0.5  ,4.9
5281  ,8.187e+09   ,1.8375  ,2.5  ,4.9
5297  ,1.919e+09   ,-0.9  ,2.5  ,0.1
5306  ,1.543e+09   ,-0.7  ,2.4  ,0
5309  ,1.412e+09   ,-0.5  ,2.5  ,0.1
5324  ,3.094e+09   ,2.4  ,2.5  ,2.7607
5332  ,1.988e+09   ,2.5  ,-2.4  ,0.8
5334  ,3.476e+08   ,2.4  ,-2.5  ,1
5360  ,2.766e+09   ,2.4  ,-1.7102  ,5
5362  ,2.785e+09   ,2.4  ,-1.5131  ,5
5368  ,8.031e+09   ,2.4  ,1.8375  ,5
5371  ,3.928e+10   ,2.4325  ,2.4888  ,4.6656
5372  ,2.546e+10   ,2.3333  ,2.5  ,4.6998
5376  ,3.214e+10   ,2.4707  ,2.4707  ,4.6331
5377  ,1.896e+10   ,2.5  ,2.4  ,4.5345
5379  ,2.521e+08   ,-1.5  ,-2.5  ,4.9
5406  ,3.266e+09   ,-2.5  ,-2.4  ,3.4
5420  ,1.562e+09   ,-2.3  ,-2.5  ,3.2226
5423  ,2.666e+09   ,1.5  ,-2.4  ,0
5502  ,1.008e+09   ,-2.5  ,-2.3  ,0.1
5504  ,1.171e+09   ,-2.5  ,-2.4  ,0.2
5506  ,1.111e+09   ,-2.4  ,-2.3  ,0
5511  ,8.107e+08   ,-2.5  ,-2.1  ,0.1
5513  ,2.167e+09   ,-2.4  ,0.5  ,0
5517  ,8.508e+08   ,-0.9  ,-2.5  ,0.1
5532  ,3.529e+08   ,-2.4707  ,2.4707  ,4.9
5534  ,7.403e+08   ,2.4  ,-0.7  ,0
5551  ,3.431e+09   ,2.5  ,-2.4  ,3.8
5566  ,2.209e+09   ,2.5  ,2.4  ,1.3811
5603  ,4.505e+08   ,2.4  ,-0.3  ,0
5617  ,1.293e+09   ,-2.1  ,2.5  ,0.1
5637  ,1.378e+09   ,-2.3  ,-1.9695  ,4.8
5641  ,8.932e+08   ,2.3  ,-2.5  ,3.4636
5645  ,8.533e+08   ,-2.4  ,-2.5  ,2
5649  ,7.870e+08   ,-2.4  ,-2.5  ,2.2
5659  ,1.292e+09   ,-2.3  ,-2.5  ,1.7774
5662  ,6.765e+09   ,2.1765  ,-2.5  ,4.8
5666  ,2.447e+09   ,2.4  ,-2.5  ,4.8
5669  ,3.989e+09   ,2.3  ,-2.3412  ,4.8
5695  ,2.107e+09   ,-2.4  ,0.7  ,0
5701  ,1.590e+09   ,-2.5  ,2.4  ,1.6
5715  ,1.701e+09   ,-2.4  ,2.5  ,1.8
5726  ,1.690e+09   ,-0.7  ,2.5  ,0.1
5727  ,1.738e+09   ,-1.1  ,2.4  ,0
5730  ,1.477e+09   ,2.3  ,-2.5  ,1.7774
5746  ,2.863e+09   ,2.5  ,2.4  ,1.7753
5755  ,9.804e+08   ,2.5  ,-2.4  ,4.4
5763  ,1.886e+09   ,2.4  ,-2.5  ,4.4
5773  ,3.656e+09   ,1.0491  ,2.5  ,4.9
5791  ,2.676e+09   ,-0.72473  ,2.4  ,5
5795  ,9.240e+09   ,1.8375  ,2.4  ,5
5803  ,4.817e+08   ,-0.3  ,-2.4  ,5
5810  ,5.667e+09   ,2.4  ,1.6404  ,5
5836  ,9.855e+08   ,-2.5  ,1.3  ,4.9
5860  ,4.345e+08   ,2.5  ,-2.4  ,1.6
5866  ,1.003e+09   ,1.5  ,-2.5  ,0.1
5884  ,6.379e+08   ,-2.4  ,-0.3  ,5
5888  ,6.028e+08   ,-2.5  ,-0.5  ,4.9
5901  ,9.503e+08   ,2.3  ,-2.5  ,2.5
5908  ,1.444e+09   ,2.5  ,-2.4  ,1.2
5909  ,8.584e+07   ,2.5  ,-2.4  ,2
5934  ,1.738e+09   ,1.9  ,-2.5  ,4.9
5938  ,3.247e+09   ,1.933  ,-2.5  ,4.8
5948  ,1.754e+09   ,-2.4  ,-2.5  ,4.6
5950  ,1.643e+09   ,-2.4707  ,-2.4707  ,4.9
5951  ,1.657e+09   ,-2.5  ,-2.4  ,4.8
5952  ,1.336e+09   ,-2.5  ,-2.3  ,4.9
5986  ,6.571e+08   ,2.3  ,-2.5  ,3.7085
5990  ,2.786e+09   ,-0.92182  ,2.5  ,4.9
6019  ,6.806e+08   ,2.5  ,1.9  ,0.1
6025  ,6.588e+08   ,2.4  ,-1.3  ,0
6035  ,9.520e+08   ,-2.5  ,1.9  ,4.9
6044  ,2.324e+09   ,0.1  ,2.5  ,0.1
6054  ,7.489e+08   ,2.4  ,0.1  ,0
6070  ,4.259e+08   ,-2.4  ,2.3  ,0
6071  ,5.158e+08   ,-2.3  ,2.4  ,0
6076  ,8.959e+08   ,-2.4  ,2.1  ,0
6083  ,1.751e+09   ,2.1  ,-2.4  ,0
6084  ,4.195e+08   ,2.4  ,2.3  ,0
6087  ,3.946e+08   ,2.3  ,2.4  ,0
6092  ,1.414e+09   ,-2.4  ,-2.5  ,0.4
6096  ,6.632e+08   ,-2.3  ,-2.5  ,0.1
6099  ,1.060e+09   ,0.7  ,-2.5  ,0.1
6149  ,1.052e+09   ,-2.4  ,-0.9  ,0
6159  ,1.181e+09   ,-2.5  ,-2.4  ,2.6
6183  ,3.689e+09   ,1.2462  ,2.5  ,4.9
6224  ,2.639e+09   ,2.5  ,-2.4  ,4
6228  ,1.908e+09   ,2.4  ,-2.5  ,3.8
6237  ,1.659e+09   ,2.5  ,0.7  ,0.1
6241  ,2.145e+10   ,2.5  ,2.3333  ,4.6998
6245  ,2.278e+09   ,2.5  ,2.4  ,1.5782
6259  ,3.426e+09   ,2.5  ,-2.1044  ,4.9
6265  ,2.899e+09   ,2.3  ,-1.9804  ,4.8
6267  ,3.700e+09   ,2.5  ,-2.3015  ,4.9
6268  ,3.378e+09   ,2.4707  ,-2.4  ,4.9707
6270  ,3.501e+09   ,2.4  ,-2.1044  ,5
6317  ,2.886e+09   ,-2.3  ,0.2278  ,4.8
6349  ,2.867e+09   ,-0.52764  ,2.4  ,5
6391  ,2.939e+09   ,2.4  ,2.5  ,1.7753
6440  ,1.293e+09   ,-2.5  ,2.4  ,3.8
6471  ,2.556e+09   ,2.5  ,-0.92182  ,4.9
6489  ,3.418e+09   ,2.5  ,1.2462  ,4.9
6523  ,1.038e+09   ,-1.1  ,-2.4  ,0
6528  ,9.559e+08   ,-1.1  ,-2.5  ,0.1
6535  ,6.914e+08   ,-0.9  ,-2.4  ,0
6538  ,2.572e+09   ,1.5  ,-2.4  ,5
6541  ,1.911e+09   ,1.5  ,-2.5  ,4.9
6551  ,2.523e+09   ,2.5  ,-0.72473  ,4.9
6564  ,4.944e+10   ,2.1331  ,2.4973  ,4.923
6565  ,1.637e+10   ,2.0345  ,2.5  ,4.9
6572  ,7.860e+08   ,2.4  ,-1.7  ,0
6581  ,3.532e+09   ,0  ,2.3  ,0.2
6592  ,1.406e+09   ,2.3  ,-1.9695  ,0.2
6594  ,1.685e+09   ,0.3  ,2.4  ,0
6601  ,2.039e+09   ,0.5  ,2.5  ,0.1
6605  ,5.075e+08   ,-2.4  ,-1.3  ,0
6606  ,7.463e+08   ,-2.4  ,-1.1  ,0
6615  ,1.936e+09   ,-2.4  ,-0.3  ,0
6634  ,2.581e+09   ,2.1  ,-2.5  ,4.9
6635  ,4.063e+09   ,2.4  ,-2.4707  ,4.9707
6636  ,4.710e+09   ,2.3  ,-2.4  ,5
6647  ,1.123e+09   ,0.5  ,-2.5  ,0.1
6704  ,1.811e+08   ,-2.4707  ,2.4707  ,0.1
6708  ,4.889e+08   ,-2.5  ,2.4  ,0.2
6712  ,1.262e+09   ,-2.4  ,2.5  ,3.6
6715  ,1.715e+09   ,-2.4  ,2.5  ,3.4
6728  ,1.423e+09   ,-2.5  ,0.7  ,4.9
6753  ,6.675e+08   ,-2.1044  ,2.4  ,5
6788  ,1.142e+10   ,2.5  ,2.4  ,4.3375
6791  ,2.961e+09   ,-1.933  ,-2.5  ,4.8
6795  ,2.563e+10   ,2.1998  ,2.5  ,4.8333
6837  ,6.496e+08   ,-2.3  ,-2.5  ,0.8063
6869  ,3.010e+09   ,2.5  ,-1.7102  ,4.9
6873  ,3.514e+09   ,2.4  ,-1.9073  ,5
6880  ,2.682e+09   ,2.4  ,-0.92182  ,5
6885  ,2.632e+09   ,2.4  ,-0.52764  ,5
6893  ,3.256e+09   ,2.4  ,1.2462  ,5
6914  ,2.084e+09   ,0.7  ,2.5  ,0.1
6920  ,1.675e+09   ,0.9  ,2.4  ,0
6923  ,1.852e+09   ,0.7  ,2.4  ,0
6936  ,1.625e+09   ,2.4  ,-2.5  ,3.4
6939  ,7.556e+08   ,2.3  ,-2.5  ,3.2226
6961  ,1.200e+09   ,-0.1  ,-2.5  ,4.9
6967  ,9.134e+08   ,-2.5  ,-1.5  ,4.9
6975  ,1.188e+09   ,-2.4  ,1.1  ,5
6978  ,7.376e+08   ,-2.4  ,2.5  ,0.2
6987  ,2.667e+09   ,2.4  ,-1.316  ,5
6994  ,8.701e+08   ,2.4  ,-1.5  ,0
7004  ,1.761e+09   ,2.4  ,-2.5  ,3.6
7011  ,2.687e+09   ,2.4  ,0.65491  ,5
7016  ,2.479e+09   ,2.4  ,0.45782  ,5
7019  ,2.725e+09   ,2.5  ,2.4  ,2.1695
7021  ,2.802e+09   ,2.5  ,2.4  ,1.9724
7052  ,1.841e+09   ,-1.3  ,2.5  ,0.1
7054  ,1.102e+09   ,-2.4  ,-2.5  ,0.8
7057  ,1.316e+09   ,0.3  ,-2.5  ,0.1
7065  ,5.824e+08   ,0.24243  ,-2.5  ,0.2
7075  ,3.701e+10   ,2.4888  ,2.4325  ,4.6656
7113  ,1.130e+09   ,-2.4  ,-2.5  ,2.6
7121  ,1.308e+09   ,-2.4  ,-2.5  ,2.8
7126  ,1.955e+09   ,-2.5  ,-2.4  ,2.8
7128  ,1.137e+09   ,-2.4707  ,-2.4707  ,0.1
7129  ,1.173e+09   ,-2.4  ,-2.4707  ,0.029289
7141  ,2.117e+09   ,-1.7  ,-2.4  ,5
7145  ,1.376e+09   ,1.1  ,2.4  ,0
7163  ,1.083e+09   ,-1.7102  ,2.4  ,5
7172  ,3.510e+09   ,2.5  ,-2.4  ,3.2
7174  ,1.426e+09   ,-2.5  ,2.4  ,3.6
7183  ,1.631e+09   ,-1.4531  ,-2.5  ,4.8
7204  ,5.713e+09   ,2.3  ,-0.81068  ,4.8
7220  ,2.723e+09   ,2.5  ,0.063638  ,4.9
7227  ,1.117e+09   ,2.5  ,-1.9  ,0.1
7256  ,9.796e+08   ,-0.1  ,-2.4  ,5
7280  ,2.762e+09   ,-0.33054  ,2.4  ,5
7299  ,2.629e+09   ,2.5  ,-1.1189  ,4.9
7316  ,1.682e+09   ,-2.5  ,-2.4  ,0.8
7323  ,1.015e+09   ,-2.4  ,-2.5  ,1
7396  ,3.611e+09   ,1.1  ,-2.4  ,5
7400  ,2.117e+09   ,-2.5  ,0.7  ,0.1
7409  ,3.405e+09   ,1.3  ,-2.4  ,5
7420  ,6.051e+08   ,2.5  ,2.1  ,0.1
7429  ,8.842e+08   ,2.4  ,1.9  ,0
7436  ,9.630e+08   ,2.5  ,-1.7  ,0.1
7438  ,1.559e+09   ,2.4  ,-2.5  ,2.8
7445  ,3.288e+10   ,2.4325  ,2.1656  ,4.9888
7464  ,7.356e+08   ,2.5  ,-1.5  ,0.1
7480  ,2.039e+09   ,2.5  ,-2.4  ,0.2
7482  ,1.283e+09   ,1.9  ,-2.5  ,0.1
7483  ,1.084e+09   ,1.7  ,-2.5  ,0.1
7486  ,9.815e+08   ,1.9  ,-2.4  ,5
7488  ,1.589e+09   ,1.6937  ,-2.5  ,4.8
7492  ,4.374e+09   ,2.1  ,-2.4  ,5
7495  ,1.282e+09   ,0.1  ,-2.5  ,0.1
7504  ,2.092e+09   ,0.3  ,-2.4  ,0
7507  ,5.552e+08   ,0.9  ,-2.5  ,0.1
7533  ,2.059e+09   ,-2.5  ,0.9  ,0.1
7536  ,9.453e+08   ,-2.4  ,-2.5  ,3.2
7540  ,1.206e+09   ,-2.4  ,-2.5  ,3
7545  ,2.467e+09   ,-2.5  ,-2.4  ,3
7582  ,9.531e+08   ,1.3  ,2.5  ,0.1
7588  ,3.040e+09   ,2.5  ,2.4  ,2.3665
7598  ,1.029e+09   ,-2.5  ,2.4  ,4.2
7607  ,2.593e+09   ,1.5333  ,2.3  ,0.2
7627  ,1.059e+09   ,-2.5  ,1.1  ,4.9
7651  ,1.001e+09   ,2.4  ,-1.9  ,0
7656  ,6.546e+08   ,2.5  ,2.4  ,0.39564
7660  ,1.461e+10   ,2.2299  ,2.3  ,4.7299
7668  ,4.678e+08   ,1.4531  ,-2.5  ,4.8
7676  ,1.418e+09   ,0.1  ,-2.5  ,4.9
7683  ,1.830e+09   ,0.1  ,-2.4  ,5
7686  ,8.589e+08   ,-2.4  ,-1.1  ,5
7702  ,8.877e+08   ,-2.3  ,-2.5  ,4.433
7710  ,1.901e+09   ,-2.3  ,-2.5  ,4.6765
7752  ,3.562e+09   ,0.9  ,-2.4  ,5
7763  ,3.937e+08   ,0.24243  ,-2.5  ,4.8
7767  ,2.935e+09   ,-2.5  ,-2.4  ,3.2
7768  ,8.249e+08   ,-2.4  ,-2.1  ,0
7776  ,2.166e+09   ,-2.4  ,0.9  ,0
7786  ,1.565e+09   ,-0.4838  ,-2.5  ,4.8
7800  ,4.276e+09   ,2.5  ,-2.4  ,4.6
7805  ,6.771e+08   ,-2.5  ,-1.3  ,4.9
7811  ,7.737e+08   ,-2.5  ,-1.1  ,4.9
7820  ,1.295e+09   ,2.5  ,-2.1  ,0.1
7824  ,1.145e+09   ,2.4  ,-2.1  ,0
7828  ,1.978e+09   ,2.4  ,-2.5  ,4.2
7831  ,1.893e+09   ,2.4  ,-2.5  ,4
7838  ,1.388e+09   ,2.5  ,-2.4  ,4.2
7839  ,3.088e+09   ,2.5  ,2.4  ,2.7607
7840  ,3.322e+09   ,2.5  ,2.4  ,2.9578
7863  ,4.046e+08   ,-2.4  ,-1.5  ,0
7890  ,1.234e+09   ,2.4  ,0.9  ,0
7897  ,1.281e+09   ,-2.4  ,-0.7  ,0
7912  ,1.582e+09   ,-1.5  ,-2.4  ,0
7917  ,9.670e+08   ,-1.3  ,-2.5  ,0.1
7931  ,1.675e+09   ,0.5  ,2.4  ,0
7934  ,3.292e+09   ,1.1  ,-2.4  ,0
7937  ,2.612e+08   ,2.4  ,-2.5  ,0.8
7941  ,1.265e+09   ,-2.4  ,-2.5  ,0.6
7969  ,3.353e+08   ,-2.5  ,2.3  ,0.1
7971  ,1.203e+09   ,-2.4  ,1.9  ,0
7972  ,1.548e+09   ,-1.9  ,2.5  ,0.1
7978  ,2.130e+09   ,-2.4  ,1.1  ,0
7996  ,7.750e+08   ,-2.4  ,-0.5  ,5
8000  ,1.277e+09   ,-2.5  ,-2.4  ,0.6
8003  ,1.177e+09   ,-2.5  ,-2.4  ,0.4
8025  ,1.767e+09   ,0.9  ,2.5  ,0.1
8035  ,2.108e+09   ,0.3  ,2.5  ,0.1
8039  ,3.738e+09   ,2.3  ,-2.5  ,0.32348
8041  ,1.855e+09   ,2.3  ,-2.3379  ,0.2
8043  ,1.999e+09   ,2.1765  ,-2.5  ,0.2
8045  ,8.515e+08   ,-0.96359  ,-2.5  ,0.2
8054  ,1.106e+09   ,1.3  ,2.4  ,0
8058  ,1.243e+09   ,1.1  ,2.5  ,0.1
8062  ,1.709e+09   ,-2.5  ,2.4  ,1.4
8067  ,1.397e+09   ,-2.5  ,2.4  ,0.8
8087  ,1.773e+09   ,-2.5  ,1.5  ,0.1
8132  ,2.897e+09   ,-0.13345  ,2.4  ,5
8183  ,8.448e+08   ,2.5  ,-0.9  ,0.1
8184  ,1.537e+09   ,1.6937  ,-2.5  ,0.2
8214  ,1.301e+09   ,-2.4707  ,-2.4  ,4.9707
8217  ,2.791e+09   ,-2.1  ,-2.4  ,5
8219  ,1.281e+09   ,-2.4  ,-2.5  ,4.4
8227  ,3.706e+09   ,2.5  ,2.4  ,3.1549
8242  ,1.639e+09   ,0.7  ,-2.5  ,4.9
8248  ,3.804e+09   ,2.5  ,-2.4  ,3.6
8254  ,5.380e+08   ,2.5  ,-0.3  ,0.1
8256  ,6.451e+08   ,2.5  ,-0.5  ,0.1
8258  ,1.044e+09   ,-0.3  ,-2.5  ,4.9
8263  ,7.092e+08   ,-0.5  ,-2.5  ,4.9
8268  ,2.215e+09   ,-2.3  ,-2.5  ,3.7085
8277  ,1.011e+09   ,-0.1  ,-2.5  ,0.1
8285  ,1.651e+09   ,1.1  ,-2.5  ,4.9
8307  ,1.653e+09   ,0.1  ,2.4  ,0
8308  ,9.652e+08   ,-0.1  ,2.5  ,0.1
8309  ,1.621e+09   ,-0.1  ,2.4  ,0
8313  ,1.297e+09   ,2.5  ,-2.3  ,0.1
8318  ,3.173e+09   ,2.5  ,-2.4  ,3
8338  ,3.579e+09   ,2.5  ,2.4  ,3.352
8339  ,3.676e+09   ,2.4  ,2.5  ,3.1549
8344  ,1.717e+09   ,-2.5  ,2.4  ,3.4
8357  ,3.177e+10   ,2.4888  ,2.1656  ,4.9325
8358  ,1.812e+10   ,2.5  ,2.1998  ,4.8333
8383  ,1.471e+09   ,-1.7  ,-2.4  ,0
8396  ,5.996e+08   ,1.1  ,-2.5  ,0.1
8399  ,3.755e+10   ,2.4526  ,2.1331  ,4.9851
8405  ,1.904e+09   ,2.5  ,-2.4  ,1
8412  ,2.170e+09   ,2.3  ,-2.5  ,0.8063
8417  ,1.110e+09   ,-2.3  ,-2.5  ,2.5
8434  ,6.983e+08   ,0.9636  ,-2.5  ,4.8
8438  ,7.714e+08   ,-0.3  ,-2.5  ,0.1
8452  ,8.943e+08   ,-2.4  ,-0.1  ,5
8468  ,4.166e+09   ,2.5  ,2.4  ,3.7462
8471  ,7.286e+08   ,-1.3  ,-2.5  ,4.9
8493  ,9.187e+08   ,-1.1  ,-2.5  ,4.9
8509  ,4.178e+08   ,-2.5  ,-1.7  ,0.1
8517  ,1.720e+09   ,-2.4  ,2.5  ,3
8531  ,1.484e+09   ,-2.4  ,1.7  ,0
8556  ,3.979e+09   ,2.5  ,2.4  ,3.5491
8573  ,2.180e+09   ,-1.316  ,2.4  ,5
8576  ,1.977e+09   ,-2.4  ,1.3  ,0
8611  ,5.477e+08   ,2.3  ,-2.5  ,1.2915
8618  ,9.388e+08   ,-2.4  ,2.5  ,4
8646  ,2.140e+09   ,-2.5  ,1.1  ,0.1
8656  ,9.842e+08   ,2.5  ,-1.3  ,0.1
8657  ,6.740e+08   ,2.4  ,2.1  ,0
8673  ,1.595e+09   ,-1.3  ,2.4  ,0
8692  ,7.434e+08   ,0.72263  ,-2.5  ,4.8
8696  ,1.550e+09   ,2.3  ,-2.5  ,1.0469
8706  ,2.701e+09   ,2.5  ,0.65491  ,4.9
8721  ,1.053e+09   ,-2.4  ,-2.5  ,1.6
8725  ,3.720e+09   ,0.65491  ,2.4  ,5
8739  ,3.503e+10   ,2.1656  ,2.4325  ,4.9888
8741  ,2.248e+10   ,2.1998  ,2.3333  ,5
8746  ,7.657e+08   ,-2.1  ,-2.4  ,0
8748  ,1.594e+09   ,-2.5  ,-2.4  ,1.2
8752  ,4.647e+10   ,2.1331  ,2.4526  ,4.9851
8759  ,1.619e+08   ,-2.3  ,-2.5  ,1.0469
8787  ,5.320e+08   ,-0.1  ,-2.4  ,0
8793  ,1.394e+09   ,-2.3  ,-2.5  ,2.2576
8795  ,8.391e+08   ,-2.4  ,-2.5  ,2.4
8798  ,1.397e+09   ,-2.3  ,-2.5  ,4.1937
8808  ,1.949e+09   ,-2.3  ,-2.5  ,3.9531
8814  ,1.280e+09   ,-2.4  ,-1.5  ,5
8849  ,5.675e+08   ,0.4838  ,-2.5  ,4.8
8851  ,1.179e+09   ,-2.4  ,-2.5  ,4.2
8868  ,1.617e+09   ,2.4  ,-2.5  ,3
8874  ,3.738e+09   ,0.852  ,2.4  ,5
8883  ,2.485e+08   ,-0.5  ,-2.4  ,5
8886  ,1.497e+09   ,-0.72262  ,-2.5  ,4.8
8893  ,4.676e+08   ,-0.7  ,-2.5  ,4.9
8897  ,3.403e+09   ,-2.5  ,-2.4  ,3.6
8899  ,2.097e+09   ,-2.3  ,-2.5  ,3.4636
8900  ,2.535e+08   ,-2.3  ,-1.4729  ,0.2
8906  ,4.744e+08   ,-2.5  ,-1.3  ,0.1
8910  ,3.352e+09   ,0.852  ,2.5  ,4.9
8925  ,1.856e+09   ,-2.4  ,2.5  ,1.4
8941  ,3.130e+08   ,2.4707  ,2.4  ,0.029289
8942  ,4.659e+08   ,2.5  ,2.3  ,0.1
8945  ,1.156e+09   ,-2.5  ,0.1  ,4.9
8950  ,2.949e+08   ,2.4707  ,2.4707  ,0.1
8951  ,2.416e+08   ,2.4  ,2.4707  ,0.029289
8959  ,2.139e+09   ,2.4  ,0.26073  ,5
8965  ,3.223e+09   ,0.45782  ,2.4  ,5
8978  ,2.388e+09   ,2.4  ,0.852  ,5
8983  ,8.482e+08   ,2.5  ,-1.1  ,0.1
8991  ,1.196e+09   ,-2.5  ,2.4  ,0.6
9008  ,2.533e+09   ,2.5  ,0.852  ,4.9
9011  ,1.557e+09   ,-2.4  ,-0.5  ,0
9025  ,8.988e+08   ,-1.5  ,-2.5  ,0.1
9038  ,7.562e+08   ,2.4  ,-2.5  ,2
9041  ,1.521e+09   ,2.5  ,0.9  ,0.1
9050  ,1.263e+09   ,2.5  ,0.5  ,0.1
9054  ,3.249e+09   ,0.9  ,-2.4  ,0
9060  ,5.090e+08   ,2.4  ,-2.5  ,0.4
9062  ,3.006e+09   ,2.3  ,-2.5  ,0.56701
9064  ,2.623e+09   ,2.5  ,-2.4  ,0.4
9069  ,3.520e+08   ,2.4  ,-2.5  ,0.6
9071  ,2.092e+09   ,1.4531  ,-2.5  ,0.2
9082  ,5.364e+08   ,-2.3  ,-2.5  ,1.2915
9086  ,1.159e+09   ,-2.4  ,-2.5  ,1.4
9091  ,1.310e+09   ,-2.5  ,-2.4  ,1.4
9094  ,1.678e+09   ,1.3  ,-2.5  ,4.9
9097  ,8.000e+08   ,-0.7  ,-2.5  ,0.1
9137  ,6.680e+08   ,-2.5  ,-0.7  ,4.9
9143  ,7.631e+08   ,-2.5  ,-0.1  ,4.9
9146  ,9.579e+08   ,-2.1  ,2.4  ,0
9148  ,9.663e+08   ,-2.5  ,1.7  ,4.9
9173  ,1.644e+09   ,-2.5  ,2.4  ,3
9192  ,4.305e+08   ,-0.7  ,-2.4  ,5
9195  ,1.719e+09   ,0.72263  ,-2.5  ,0.2
9209  ,3.719e+09   ,2.5  ,-2.4  ,3.4
9215  ,2.341e+09   ,0.9636  ,-2.5  ,0.2
9217  ,1.623e+09   ,2.4  ,-2.5  ,3.2
9218  ,8.102e+08   ,-0.96359  ,-2.5  ,4.8
9229  ,1.693e+09   ,-2.4  ,2.5  ,2.8
9248  ,3.405e+09   ,2.3  ,-2.5  ,4.433
9255  ,1.050e+09   ,2.5  ,1.3  ,0.1
9257  ,8.279e+08   ,2.4  ,1.5  ,0
9262  ,3.232e+09   ,0.5  ,-2.4  ,5
9264  ,2.234e+09   ,2.4  ,-0.13345  ,5
9272  ,2.788e+09   ,0.063638  ,2.4  ,5
9277  ,1.711e+09   ,-2.5  ,2.4  ,1.2
9279  ,2.474e+09   ,2.5  ,0.26073  ,4.9
9282  ,6.768e+08   ,1.2085  ,-2.5  ,4.8
9286  ,1.582e+09   ,0.9  ,-2.5  ,4.9
9292  ,3.414e+08   ,-2.4  ,2.4707  ,4.9707
9293  ,4.333e+08   ,-2.3015  ,2.4  ,5
9296  ,1.325e+09   ,-2.4  ,-2.1  ,5
9303  ,1.278e+09   ,-2.4  ,-1.9  ,5
9311  ,4.074e+08   ,-2.4  ,2.3  ,5
9313  ,1.023e+09   ,-2.4  ,0.1  ,5
9319  ,2.960e+08   ,-0.5  ,-2.4  ,0
9328  ,8.894e+08   ,-2.3  ,-2.5  ,1.5364
9334  ,7.647e+08   ,-2.3  ,2.5  ,0.1
9338  ,4.294e+08   ,-2.5  ,-2.4  ,2.4
9339  ,1.961e+09   ,-2.5  ,1.3  ,0.1
9341  ,6.275e+08   ,-2.3  ,-2.5  ,2.7424
9344  ,2.955e+08   ,-2.5  ,-2.4  ,2.2
9358  ,4.828e+09   ,-2.3  ,2.3  ,2.5
9364  ,1.294e+09   ,-2.5  ,-2.1  ,4.9
9367  ,1.527e+09   ,-2.4  ,-2.3  ,5
9374  ,1.007e+09   ,-2.4  ,-1.3  ,5
9378  ,1.525e+09   ,-2.5  ,2.4  ,1.8
9384  ,1.517e+09   ,2.3  ,-2.5  ,2.0162
9385  ,9.089e+08   ,-2.5  ,2.4  ,4.4
9389  ,1.512e+09   ,-2.5  ,2.4  ,2
9395  ,3.476e+09   ,2.4  ,-2.3015  ,5
9396  ,4.060e+08   ,-2.4  ,-1.7  ,0
9407  ,1.694e+09   ,-2.3  ,-1.4729  ,4.8
9411  ,7.898e+08   ,-2.5  ,-1.7  ,4.9
9423  ,6.392e+08   ,-2.4  ,-2.5  ,3.6
9432  ,3.600e+09   ,0.7  ,-2.4  ,5
9438  ,7.280e+08   ,-2.5  ,-0.9  ,4.9
9443  ,6.364e+08   ,-2.5  ,-0.3  ,4.9
9445  ,3.233e+08   ,-2.4707  ,2.4  ,4.9707
9448  ,2.518e+09   ,2.4  ,-1.1189  ,5
9453  ,1.384e+09   ,2.4  ,0.7  ,0
9455  ,1.766e+09   ,2.5  ,-2.4  ,2.6
9457  ,4.335e+08   ,2.3  ,-2.5  ,2.9838
9494  ,1.790e+09   ,-2.4  ,2.5  ,1
9500  ,1.490e+09   ,0.3  ,-2.5  ,4.9
9504  ,2.646e+09   ,0.3  ,-2.4  ,5
9506  ,1.566e+09   ,2.1  ,-2.5  ,0.1
9518  ,1.183e+09   ,-1.9  ,-2.5  ,0.1
9528  ,1.393e+09   ,2.3  ,-2.5  ,0.1
9531  ,2.071e+09   ,2.4707  ,-2.4707  ,0.1
9533  ,1.298e+09   ,2.4707  ,-2.4  ,0.029289
9534  ,1.657e+09   ,2.4  ,-2.4707  ,0.029289
9541  ,1.587e+09   ,0.5  ,-2.5  ,4.9
9544  ,7.590e+08   ,-0.5  ,-2.5  ,0.1
9559  ,9.953e+08   ,-2.5  ,-1.9  ,4.9
9562  ,8.148e+08   ,-2.5  ,2.4  ,4.6
9565  ,1.647e+09   ,-2.4  ,2.5  ,2
9571  ,3.308e+09   ,-2.5  ,-2.4  ,3.8
9574  ,7.611e+08   ,-2.4  ,-2.5  ,3.8
9577  ,8.042e+08   ,1.3  ,-2.5  ,0.1
9582  ,1.052e+09   ,-2.5  ,-0.9  ,0.1
9596  ,7.003e+08   ,2.1  ,2.4  ,0
9598  ,1.979e+09   ,-2.4  ,2.5  ,3.2
9602  ,9.365e+08   ,1.5  ,2.5  ,0.1
9610  ,7.095e+08   ,2.4  ,2.5  ,0.39564
9612  ,3.072e+09   ,-0.72473  ,2.5  ,4.9
9614  ,9.655e+08   ,1.7  ,2.5  ,0.1
9635  ,9.328e+08   ,2.5  ,1.7  ,0.1
9646  ,4.640e+08   ,2.3  ,2.5  ,0.1
9651  ,3.609e+10   ,2.1656  ,2.4888  ,4.9325
9653  ,2.609e+09   ,2.5  ,-1.316  ,4.9
9656  ,9.898e+08   ,-2.4  ,-1.7  ,5
9659  ,6.767e+09   ,2.3  ,-2.5  ,4.6765
9661  ,5.347e+08   ,2.3  ,-2.5  ,3.9531
9664  ,2.010e+09   ,-2.3  ,-2.4  ,5
9666  ,1.252e+09   ,1.9  ,-2.4  ,0
9677  ,1.186e+09   ,2.4  ,0.5  ,0
9678  ,7.733e+08   ,-2.5  ,-1.1  ,0.1
9680  ,2.042e+09   ,2.5  ,2.4  ,1.184
9681  ,3.573e+08   ,2.5  ,2.4  ,0.19855
9696  ,1.470e+09   ,-2.3  ,-2.5  ,2.0162
9698  ,1.405e+09   ,2.4  ,-2.3  ,0
9699  ,1.527e+09   ,-0.24243  ,-2.5  ,0.2
9701  ,1.297e+09   ,0.1  ,-2.4  ,0
9704  ,1.468e+09   ,-0.4838  ,-2.5  ,0.2
9718  ,1.179e+09   ,-0.72262  ,-2.5  ,0.2
9726  ,2.594e+09   ,2.3  ,-0.76628  ,0.2
9727  ,9.987e+08   ,-2.5  ,2.4  ,0.4
9730  ,9.125e+08   ,1.9433E-06  ,-2.5  ,4.8
9731  ,1.331e+09   ,-0.24243  ,-2.5  ,4.8
9732  ,1.367e+09   ,-2.5  ,2.4  ,2.2
9738  ,2.878e+09   ,-2.5  ,-2.4  ,4
9743  ,2.141e+09   ,-1.6937  ,-2.5  ,4.8
9744  ,9.748e+08   ,-2.4  ,-2.5  ,4
9750  ,9.168e+08   ,-1.7  ,-2.5  ,0.1
9752  ,3.134e+08   ,-1.6937  ,-2.5  ,0.2
9754  ,1.366e+09   ,-1.3  ,-2.4  ,0
9759  ,1.499e+08   ,-2.4707  ,2.4  ,0.029289
9760  ,1.367e+08   ,-2.4  ,2.4707  ,0.029289
9768  ,1.685e+09   ,2.3  ,-2.5  ,4.1937
9770  ,1.197e+09   ,1.9433E-06  ,-2.5  ,0.2
9771  ,9.606e+08   ,0.4838  ,-2.5  ,0.2
9772  ,1.115e+09   ,2.4  ,-2.5  ,0.2
9773  ,2.573e+09   ,2.4  ,-2.5  ,4.6
9776  ,2.131e+09   ,2.4  ,0.063638  ,5
9780  ,3.541e+09   ,0.65491  ,2.5  ,4.9
9781  ,4.250e+08   ,2.4  ,2.5  ,0.19855
9782  ,9.106e+08   ,-2.3  ,-2.5  ,2.9838
9786  ,5.255e+08   ,-1.2085  ,-2.5  ,0.2
9787  ,1.782e+08   ,-1.4531  ,-2.5  ,0.2
9790  ,1.742e+09   ,2.3  ,-2.4  ,0
9793  ,1.805e+10   ,2.0345  ,2.4  ,5
9797  ,9.088e+08   ,2.3  ,-2.5  ,1.5364
9798  ,2.793e+09   ,2.4  ,1.0491  ,5
9809  ,3.472e+09   ,2.4  ,2.5  ,3.352
