Date:  12:55, Monday, July 10, 2023
Model name: Hollow_DropBox
Study name: DropTest_300fts(-Default-)
Plot type:  Stress1
Plot step: 18   time : 94.4449 Microseconds
Result Type: von Mises 


Node  ,Value (N/m^2)  ,X (in)  ,Y (in)  ,Z (in)
1  ,1.757e+10   ,2.5  ,2.1331  ,4.9
2  ,2.569e+10   ,2.4577  ,2.1908  ,4.9577
3  ,3.782e+10   ,2.4894  ,2.1331  ,4.9447
4  ,3.009e+10   ,2.1331  ,2.5  ,4.9
5  ,5.332e+10   ,2.1331  ,2.4894  ,4.9447
6  ,2.341e+10   ,2.1908  ,2.4577  ,4.9577
7  ,3.438e+08   ,-2.4  ,2.4  ,5
8  ,2.466e+09   ,-2.4  ,-2.4  ,5
9  ,4.421e+09   ,2.4  ,-2.4  ,5
10  ,1.581e+10   ,2.4  ,2.1331  ,5
11  ,2.646e+10   ,2.1331  ,2.4  ,5
12  ,4.863e+09   ,2.5  ,-2.4  ,4.9
13  ,2.273e+09   ,2.5  ,-2.4  ,0.1
14  ,3.704e+08   ,2.5  ,2.4  ,0.1
15  ,2.570e+10   ,2.5  ,2.4  ,4.6331
16  ,3.200e+08   ,2.4  ,2.5  ,0.1
17  ,5.841e+08   ,-2.4  ,2.5  ,0.1
18  ,2.801e+08   ,-2.4  ,2.5  ,4.9
19  ,3.024e+10   ,2.4  ,2.5  ,4.6331
20  ,2.066e+08   ,-2.5  ,2.4  ,0.1
21  ,8.853e+08   ,-2.5  ,-2.4  ,0.1
22  ,1.746e+09   ,-2.5  ,-2.4  ,4.9
23  ,4.116e+08   ,-2.5  ,2.4  ,4.9
24  ,1.047e+09   ,-2.3  ,-2.5  ,0.2
25  ,1.619e+09   ,-2.3  ,-2.5  ,4.8
26  ,4.880e+09   ,2.3  ,-2.5  ,4.8
27  ,1.418e+09   ,2.3  ,-2.5  ,0.2
28  ,2.370e+09   ,-2.4  ,-2.5  ,4.9
29  ,4.500e+09   ,2.4  ,-2.5  ,4.9
30  ,9.898e+08   ,-2.4  ,-2.5  ,0.1
31  ,2.299e+09   ,2.4  ,-2.5  ,0.1
32  ,1.711e+09   ,2.4  ,-2.4  ,0
33  ,3.941e+08   ,2.4  ,2.4  ,0
34  ,9.699e+08   ,-2.4  ,-2.4  ,0
35  ,3.092e+08   ,-2.4  ,2.4  ,0
36  ,2.965e+10   ,2.4577  ,2.4577  ,4.6908
37  ,1.116e+09   ,-2.3  ,2.3  ,4.8
38  ,1.444e+10   ,2.1599  ,2.3  ,4.8
39  ,1.398e+10   ,2.3  ,2.1599  ,4.8
40  ,1.477e+10   ,2.3  ,2.3  ,4.6599
41  ,1.040e+09   ,2.3  ,2.3  ,0.2
42  ,1.703e+08   ,-2.3  ,2.3  ,0.2
43  ,6.016e+08   ,-2.4  ,2.2  ,5
44  ,9.309e+08   ,-2.4  ,2  ,5
45  ,9.738e+08   ,-2.4  ,1.8  ,5
46  ,9.150e+08   ,-2.4  ,1.6  ,5
47  ,8.818e+08   ,-2.4  ,1.4  ,5
48  ,1.140e+09   ,-2.4  ,1.2  ,5
49  ,1.482e+09   ,-2.4  ,1  ,5
50  ,2.034e+09   ,-2.4  ,0.8  ,5
51  ,1.385e+09   ,-2.4  ,0.6  ,5
52  ,1.110e+09   ,-2.4  ,0.4  ,5
53  ,9.946e+08   ,-2.4  ,0.2  ,5
54  ,8.404e+08   ,-2.4  ,5.8879E-16  ,5
55  ,6.170e+08   ,-2.4  ,-0.2  ,5
56  ,5.776e+08   ,-2.4  ,-0.4  ,5
57  ,5.465e+08   ,-2.4  ,-0.6  ,5
58  ,4.804e+08   ,-2.4  ,-0.8  ,5
59  ,8.286e+08   ,-2.4  ,-1  ,5
60  ,7.437e+08   ,-2.4  ,-1.2  ,5
61  ,1.320e+09   ,-2.4  ,-1.4  ,5
62  ,1.212e+09   ,-2.4  ,-1.6  ,5
63  ,1.166e+09   ,-2.4  ,-1.8  ,5
64  ,1.632e+09   ,-2.4  ,-2  ,5
65  ,1.392e+09   ,-2.4  ,-2.2  ,5
66  ,3.201e+09   ,-2.2  ,-2.4  ,5
67  ,2.863e+09   ,-2  ,-2.4  ,5
68  ,2.720e+09   ,-1.8  ,-2.4  ,5
69  ,2.106e+09   ,-1.6  ,-2.4  ,5
70  ,1.308e+09   ,-1.4  ,-2.4  ,5
71  ,4.554e+08   ,-1.2  ,-2.4  ,5
72  ,2.212e+08   ,-1  ,-2.4  ,5
73  ,4.483e+08   ,-0.8  ,-2.4  ,5
74  ,3.876e+08   ,-0.6  ,-2.4  ,5
75  ,5.757e+08   ,-0.4  ,-2.4  ,5
76  ,1.395e+09   ,-0.2  ,-2.4  ,5
77  ,2.245e+09   ,-5.8879E-16  ,-2.4  ,5
78  ,2.616e+09   ,0.2  ,-2.4  ,5
79  ,2.784e+09   ,0.4  ,-2.4  ,5
80  ,3.573e+09   ,0.6  ,-2.4  ,5
81  ,3.961e+09   ,0.8  ,-2.4  ,5
82  ,3.992e+09   ,1  ,-2.4  ,5
83  ,3.770e+09   ,1.2  ,-2.4  ,5
84  ,3.599e+09   ,1.4  ,-2.4  ,5
85  ,2.237e+09   ,1.6  ,-2.4  ,5
86  ,1.114e+09   ,1.8  ,-2.4  ,5
87  ,2.131e+09   ,2  ,-2.4  ,5
88  ,6.615e+09   ,2.2  ,-2.4  ,5
89  ,3.827e+09   ,2.4  ,-2.2029  ,5
90  ,4.169e+09   ,2.4  ,-2.0058  ,5
91  ,3.192e+09   ,2.4  ,-1.8087  ,5
92  ,2.851e+09   ,2.4  ,-1.6116  ,5
93  ,3.130e+09   ,2.4  ,-1.4145  ,5
94  ,2.698e+09   ,2.4  ,-1.2175  ,5
95  ,2.959e+09   ,2.4  ,-1.0204  ,5
96  ,3.046e+09   ,2.4  ,-0.82327  ,5
97  ,3.044e+09   ,2.4  ,-0.62618  ,5
98  ,2.740e+09   ,2.4  ,-0.42909  ,5
99  ,2.614e+09   ,2.4  ,-0.232  ,5
100  ,2.262e+09   ,2.4  ,-0.034907  ,5
101  ,2.282e+09   ,2.4  ,0.16218  ,5
102  ,2.344e+09   ,2.4  ,0.35927  ,5
103  ,2.696e+09   ,2.4  ,0.55637  ,5
104  ,2.453e+09   ,2.4  ,0.75346  ,5
105  ,2.066e+09   ,2.4  ,0.95055  ,5
106  ,2.406e+09   ,2.4  ,1.1476  ,5
107  ,3.823e+09   ,2.4  ,1.3447  ,5
108  ,4.906e+09   ,2.4  ,1.5418  ,5
109  ,6.447e+09   ,2.4  ,1.7389  ,5
110  ,1.075e+10   ,2.4  ,1.936  ,5
111  ,1.511e+10   ,2.2665  ,2.2665  ,5
112  ,1.305e+10   ,1.936  ,2.4  ,5
113  ,7.341e+09   ,1.7389  ,2.4  ,5
114  ,5.835e+09   ,1.5418  ,2.4  ,5
115  ,4.283e+09   ,1.3447  ,2.4  ,5
116  ,3.653e+09   ,1.1476  ,2.4  ,5
117  ,3.425e+09   ,0.95055  ,2.4  ,5
118  ,3.416e+09   ,0.75346  ,2.4  ,5
119  ,3.136e+09   ,0.55637  ,2.4  ,5
120  ,2.957e+09   ,0.35927  ,2.4  ,5
121  ,2.858e+09   ,0.16218  ,2.4  ,5
122  ,2.781e+09   ,-0.034907  ,2.4  ,5
123  ,2.934e+09   ,-0.232  ,2.4  ,5
124  ,2.546e+09   ,-0.42909  ,2.4  ,5
125  ,2.409e+09   ,-0.62618  ,2.4  ,5
126  ,3.067e+09   ,-0.82327  ,2.4  ,5
127  ,3.042e+09   ,-1.0204  ,2.4  ,5
128  ,2.710e+09   ,-1.2175  ,2.4  ,5
129  ,2.269e+09   ,-1.4145  ,2.4  ,5
130  ,1.580e+09   ,-1.6116  ,2.4  ,5
131  ,1.074e+09   ,-1.8087  ,2.4  ,5
132  ,7.824e+08   ,-2.0058  ,2.4  ,5
133  ,3.622e+08   ,-2.2029  ,2.4  ,5
294  ,3.353e+09   ,2.5  ,-2.2029  ,4.9
295  ,4.041e+09   ,2.5  ,-2.0058  ,4.9
296  ,3.162e+09   ,2.5  ,-1.8087  ,4.9
297  ,3.237e+09   ,2.5  ,-1.6116  ,4.9
298  ,2.751e+09   ,2.5  ,-1.4145  ,4.9
299  ,2.765e+09   ,2.5  ,-1.2175  ,4.9
300  ,3.090e+09   ,2.5  ,-1.0204  ,4.9
301  ,2.472e+09   ,2.5  ,-0.82327  ,4.9
302  ,2.852e+09   ,2.5  ,-0.62618  ,4.9
303  ,2.759e+09   ,2.5  ,-0.42909  ,4.9
304  ,3.148e+09   ,2.5  ,-0.232  ,4.9
305  ,3.519e+09   ,2.5  ,-0.034907  ,4.9
306  ,2.905e+09   ,2.5  ,0.16218  ,4.9
307  ,2.284e+09   ,2.5  ,0.35927  ,4.9
308  ,2.458e+09   ,2.5  ,0.55637  ,4.9
309  ,2.377e+09   ,2.5  ,0.75346  ,4.9
310  ,2.604e+09   ,2.5  ,0.95055  ,4.9
311  ,3.192e+09   ,2.5  ,1.1476  ,4.9
312  ,3.857e+09   ,2.5  ,1.3447  ,4.9
313  ,5.189e+09   ,2.5  ,1.5418  ,4.9
314  ,7.818e+09   ,2.5  ,1.7389  ,4.9
315  ,1.138e+10   ,2.5  ,1.936  ,4.9
316  ,6.908e+09   ,2.5  ,-2.4  ,4.7
317  ,2.216e+09   ,2.5  ,-2.4  ,4.5
318  ,1.284e+09   ,2.5  ,-2.4  ,4.3
319  ,2.425e+09   ,2.5  ,-2.4  ,4.1
320  ,3.429e+09   ,2.5  ,-2.4  ,3.9
321  ,4.176e+09   ,2.5  ,-2.4  ,3.7
322  ,4.349e+09   ,2.5  ,-2.4  ,3.5
323  ,4.009e+09   ,2.5  ,-2.4  ,3.3
324  ,3.551e+09   ,2.5  ,-2.4  ,3.1
325  ,2.873e+09   ,2.5  ,-2.4  ,2.9
326  ,2.496e+09   ,2.5  ,-2.4  ,2.7
327  ,2.278e+09   ,2.5  ,-2.4  ,2.5
328  ,1.609e+09   ,2.5  ,-2.4  ,2.3
329  ,8.273e+08   ,2.5  ,-2.4  ,2.1
330  ,3.477e+08   ,2.5  ,-2.4  ,1.9
331  ,2.404e+08   ,2.5  ,-2.4  ,1.7
332  ,1.718e+08   ,2.5  ,-2.4  ,1.5
333  ,4.664e+08   ,2.5  ,-2.4  ,1.3
334  ,1.194e+09   ,2.5  ,-2.4  ,1.1
335  ,2.272e+09   ,2.5  ,-2.4  ,0.9
336  ,3.267e+09   ,2.5  ,-2.4  ,0.7
337  ,3.217e+09   ,2.5  ,-2.4  ,0.5
338  ,3.417e+09   ,2.5  ,-2.4  ,0.3
339  ,1.484e+09   ,2.5  ,-2.2  ,0.1
340  ,1.663e+09   ,2.5  ,-2  ,0.1
341  ,1.177e+09   ,2.5  ,-1.8  ,0.1
342  ,1.140e+09   ,2.5  ,-1.6  ,0.1
343  ,8.313e+08   ,2.5  ,-1.4  ,0.1
344  ,7.757e+08   ,2.5  ,-1.2  ,0.1
345  ,8.022e+08   ,2.5  ,-1  ,0.1
346  ,4.580e+08   ,2.5  ,-0.8  ,0.1
347  ,5.052e+08   ,2.5  ,-0.6  ,0.1
348  ,4.124e+08   ,2.5  ,-0.4  ,0.1
349  ,5.001e+08   ,2.5  ,-0.2  ,0.1
350  ,5.998e+08   ,2.5  ,-1.7664E-15  ,0.1
351  ,7.291e+08   ,2.5  ,0.2  ,0.1
352  ,1.049e+09   ,2.5  ,0.4  ,0.1
353  ,1.629e+09   ,2.5  ,0.6  ,0.1
354  ,2.272e+09   ,2.5  ,0.8  ,0.1
355  ,1.462e+09   ,2.5  ,1  ,0.1
356  ,1.196e+09   ,2.5  ,1.2  ,0.1
357  ,9.757e+08   ,2.5  ,1.4  ,0.1
358  ,8.999e+08   ,2.5  ,1.6  ,0.1
359  ,7.460e+08   ,2.5  ,1.8  ,0.1
360  ,7.843e+08   ,2.5  ,2  ,0.1
361  ,7.524e+08   ,2.5  ,2.2  ,0.1
362  ,1.441e+10   ,2.5  ,2.4  ,4.436
363  ,8.988e+09   ,2.5  ,2.4  ,4.2389
364  ,5.815e+09   ,2.5  ,2.4  ,4.0418
365  ,4.729e+09   ,2.5  ,2.4  ,3.8447
366  ,3.799e+09   ,2.5  ,2.4  ,3.6476
367  ,3.437e+09   ,2.5  ,2.4  ,3.4505
368  ,3.374e+09   ,2.5  ,2.4  ,3.2535
369  ,3.343e+09   ,2.5  ,2.4  ,3.0564
370  ,2.967e+09   ,2.5  ,2.4  ,2.8593
371  ,2.877e+09   ,2.5  ,2.4  ,2.6622
372  ,3.035e+09   ,2.5  ,2.4  ,2.4651
373  ,2.716e+09   ,2.5  ,2.4  ,2.268
374  ,2.813e+09   ,2.5  ,2.4  ,2.0709
375  ,2.755e+09   ,2.5  ,2.4  ,1.8738
376  ,2.965e+09   ,2.5  ,2.4  ,1.6767
377  ,2.046e+09   ,2.5  ,2.4  ,1.4796
378  ,2.254e+09   ,2.5  ,2.4  ,1.2825
379  ,2.184e+09   ,2.5  ,2.4  ,1.0855
380  ,1.965e+09   ,2.5  ,2.4  ,0.88836
381  ,1.541e+09   ,2.5  ,2.4  ,0.69127
382  ,8.244e+08   ,2.5  ,2.4  ,0.49418
383  ,5.235e+08   ,2.5  ,2.4  ,0.29709
384  ,1.434e+10   ,2.5  ,2.2665  ,4.7665
544  ,7.648e+08   ,2.2  ,2.5  ,0.1
545  ,9.166e+08   ,2  ,2.5  ,0.1
546  ,8.853e+08   ,1.8  ,2.5  ,0.1
547  ,9.880e+08   ,1.6  ,2.5  ,0.1
548  ,8.712e+08   ,1.4  ,2.5  ,0.1
549  ,1.151e+09   ,1.2  ,2.5  ,0.1
550  ,1.518e+09   ,1  ,2.5  ,0.1
551  ,2.190e+09   ,0.8  ,2.5  ,0.1
552  ,1.963e+09   ,0.6  ,2.5  ,0.1
553  ,1.880e+09   ,0.4  ,2.5  ,0.1
554  ,1.956e+09   ,0.2  ,2.5  ,0.1
555  ,1.667e+09   ,5.8879E-16  ,2.5  ,0.1
556  ,1.037e+09   ,-0.2  ,2.5  ,0.1
557  ,1.289e+09   ,-0.4  ,2.5  ,0.1
558  ,1.557e+09   ,-0.6  ,2.5  ,0.1
559  ,2.038e+09   ,-0.8  ,2.5  ,0.1
560  ,2.067e+09   ,-1  ,2.5  ,0.1
561  ,2.108e+09   ,-1.2  ,2.5  ,0.1
562  ,1.922e+09   ,-1.4  ,2.5  ,0.1
563  ,1.900e+09   ,-1.6  ,2.5  ,0.1
564  ,1.843e+09   ,-1.8  ,2.5  ,0.1
565  ,1.646e+09   ,-2  ,2.5  ,0.1
566  ,1.436e+09   ,-2.2  ,2.5  ,0.1
567  ,6.146e+08   ,-2.4  ,2.5  ,4.7
568  ,9.299e+08   ,-2.4  ,2.5  ,4.5
569  ,8.937e+08   ,-2.4  ,2.5  ,4.3
570  ,1.008e+09   ,-2.4  ,2.5  ,4.1
571  ,8.607e+08   ,-2.4  ,2.5  ,3.9
572  ,9.298e+08   ,-2.4  ,2.5  ,3.7
573  ,1.247e+09   ,-2.4  ,2.5  ,3.5
574  ,1.856e+09   ,-2.4  ,2.5  ,3.3
575  ,1.603e+09   ,-2.4  ,2.5  ,3.1
576  ,1.423e+09   ,-2.4  ,2.5  ,2.9
577  ,1.453e+09   ,-2.4  ,2.5  ,2.7
578  ,1.313e+09   ,-2.4  ,2.5  ,2.5
579  ,1.284e+09   ,-2.4  ,2.5  ,2.3
580  ,1.450e+09   ,-2.4  ,2.5  ,2.1
581  ,1.575e+09   ,-2.4  ,2.5  ,1.9
582  ,1.964e+09   ,-2.4  ,2.5  ,1.7
583  ,2.001e+09   ,-2.4  ,2.5  ,1.5
584  ,2.104e+09   ,-2.4  ,2.5  ,1.3
585  ,2.062e+09   ,-2.4  ,2.5  ,1.1
586  ,2.069e+09   ,-2.4  ,2.5  ,0.9
587  ,1.879e+09   ,-2.4  ,2.5  ,0.7
588  ,1.717e+09   ,-2.4  ,2.5  ,0.5
589  ,1.448e+09   ,-2.4  ,2.5  ,0.3
590  ,1.482e+10   ,1.936  ,2.5  ,4.9
591  ,6.781e+09   ,1.7389  ,2.5  ,4.9
592  ,5.116e+09   ,1.5418  ,2.5  ,4.9
593  ,4.398e+09   ,1.3447  ,2.5  ,4.9
594  ,3.438e+09   ,1.1476  ,2.5  ,4.9
595  ,3.394e+09   ,0.95055  ,2.5  ,4.9
596  ,3.514e+09   ,0.75346  ,2.5  ,4.9
597  ,3.389e+09   ,0.55637  ,2.5  ,4.9
598  ,3.161e+09   ,0.35927  ,2.5  ,4.9
599  ,2.713e+09   ,0.16218  ,2.5  ,4.9
600  ,2.587e+09   ,-0.034907  ,2.5  ,4.9
601  ,2.421e+09   ,-0.232  ,2.5  ,4.9
602  ,3.142e+09   ,-0.42909  ,2.5  ,4.9
603  ,3.334e+09   ,-0.62618  ,2.5  ,4.9
604  ,3.077e+09   ,-0.82327  ,2.5  ,4.9
605  ,3.365e+09   ,-1.0204  ,2.5  ,4.9
606  ,3.170e+09   ,-1.2175  ,2.5  ,4.9
607  ,2.415e+09   ,-1.4145  ,2.5  ,4.9
608  ,1.832e+09   ,-1.6116  ,2.5  ,4.9
609  ,1.178e+09   ,-1.8087  ,2.5  ,4.9
610  ,6.738e+08   ,-2.0058  ,2.5  ,4.9
611  ,4.845e+08   ,-2.2029  ,2.5  ,4.9
612  ,1.899e+10   ,2.2665  ,2.5  ,4.7665
613  ,1.297e+10   ,2.4  ,2.5  ,4.436
614  ,8.224e+09   ,2.4  ,2.5  ,4.2389
615  ,5.697e+09   ,2.4  ,2.5  ,4.0418
616  ,4.533e+09   ,2.4  ,2.5  ,3.8447
617  ,3.774e+09   ,2.4  ,2.5  ,3.6476
618  ,3.377e+09   ,2.4  ,2.5  ,3.4505
619  ,3.537e+09   ,2.4  ,2.5  ,3.2535
620  ,3.326e+09   ,2.4  ,2.5  ,3.0564
621  ,2.984e+09   ,2.4  ,2.5  ,2.8593
622  ,2.820e+09   ,2.4  ,2.5  ,2.6622
623  ,2.598e+09   ,2.4  ,2.5  ,2.4651
624  ,2.523e+09   ,2.4  ,2.5  ,2.268
625  ,2.582e+09   ,2.4  ,2.5  ,2.0709
626  ,2.690e+09   ,2.4  ,2.5  ,1.8738
627  ,2.910e+09   ,2.4  ,2.5  ,1.6767
628  ,3.191e+09   ,2.4  ,2.5  ,1.4796
629  ,3.258e+09   ,2.4  ,2.5  ,1.2825
630  ,2.218e+09   ,2.4  ,2.5  ,1.0855
631  ,1.676e+09   ,2.4  ,2.5  ,0.88836
632  ,1.191e+09   ,2.4  ,2.5  ,0.69127
633  ,9.659e+08   ,2.4  ,2.5  ,0.49418
634  ,5.156e+08   ,2.4  ,2.5  ,0.29709
796  ,6.643e+08   ,-2.5  ,2.2  ,0.1
797  ,1.162e+09   ,-2.5  ,2  ,0.1
798  ,1.474e+09   ,-2.5  ,1.8  ,0.1
799  ,1.662e+09   ,-2.5  ,1.6  ,0.1
800  ,1.851e+09   ,-2.5  ,1.4  ,0.1
801  ,1.980e+09   ,-2.5  ,1.2  ,0.1
802  ,2.067e+09   ,-2.5  ,1  ,0.1
803  ,2.096e+09   ,-2.5  ,0.8  ,0.1
804  ,2.186e+09   ,-2.5  ,0.6  ,0.1
805  ,2.295e+09   ,-2.5  ,0.4  ,0.1
806  ,2.162e+09   ,-2.5  ,0.2  ,0.1
807  ,2.041e+09   ,-2.5  ,5.8879E-16  ,0.1
808  ,1.937e+09   ,-2.5  ,-0.2  ,0.1
809  ,1.888e+09   ,-2.5  ,-0.4  ,0.1
810  ,1.651e+09   ,-2.5  ,-0.6  ,0.1
811  ,1.291e+09   ,-2.5  ,-0.8  ,0.1
812  ,1.088e+09   ,-2.5  ,-1  ,0.1
813  ,7.659e+08   ,-2.5  ,-1.2  ,0.1
814  ,6.865e+08   ,-2.5  ,-1.4  ,0.1
815  ,4.906e+08   ,-2.5  ,-1.6  ,0.1
816  ,4.337e+08   ,-2.5  ,-1.8  ,0.1
817  ,6.847e+08   ,-2.5  ,-2  ,0.1
818  ,7.177e+08   ,-2.5  ,-2.2  ,0.1
819  ,2.438e+09   ,-2.5  ,-2.4  ,4.7
820  ,1.250e+09   ,-2.5  ,-2.4  ,4.5
821  ,1.780e+09   ,-2.5  ,-2.4  ,4.3
822  ,2.967e+09   ,-2.5  ,-2.4  ,4.1
823  ,3.421e+09   ,-2.5  ,-2.4  ,3.9
824  ,3.536e+09   ,-2.5  ,-2.4  ,3.7
825  ,3.856e+09   ,-2.5  ,-2.4  ,3.5
826  ,3.288e+09   ,-2.5  ,-2.4  ,3.3
827  ,2.942e+09   ,-2.5  ,-2.4  ,3.1
828  ,2.145e+09   ,-2.5  ,-2.4  ,2.9
829  ,1.686e+09   ,-2.5  ,-2.4  ,2.7
830  ,1.416e+09   ,-2.5  ,-2.4  ,2.5
831  ,1.052e+09   ,-2.5  ,-2.4  ,2.3
832  ,5.972e+08   ,-2.5  ,-2.4  ,2.1
833  ,4.400e+08   ,-2.5  ,-2.4  ,1.9
834  ,4.872e+08   ,-2.5  ,-2.4  ,1.7
835  ,6.326e+08   ,-2.5  ,-2.4  ,1.5
836  ,8.648e+08   ,-2.5  ,-2.4  ,1.3
837  ,1.009e+09   ,-2.5  ,-2.4  ,1.1
838  ,8.711e+08   ,-2.5  ,-2.4  ,0.9
839  ,3.641e+08   ,-2.5  ,-2.4  ,0.7
840  ,4.353e+08   ,-2.5  ,-2.4  ,0.5
841  ,1.571e+09   ,-2.5  ,-2.4  ,0.3
842  ,5.254e+08   ,-2.5  ,2.2  ,4.9
843  ,8.795e+08   ,-2.5  ,2  ,4.9
844  ,9.377e+08   ,-2.5  ,1.8  ,4.9
845  ,9.530e+08   ,-2.5  ,1.6  ,4.9
846  ,9.672e+08   ,-2.5  ,1.4  ,4.9
847  ,1.093e+09   ,-2.5  ,1.2  ,4.9
848  ,1.266e+09   ,-2.5  ,1  ,4.9
849  ,1.732e+09   ,-2.5  ,0.8  ,4.9
850  ,1.383e+09   ,-2.5  ,0.6  ,4.9
851  ,1.155e+09   ,-2.5  ,0.4  ,4.9
852  ,1.003e+09   ,-2.5  ,0.2  ,4.9
853  ,7.605e+08   ,-2.5  ,5.8879E-16  ,4.9
854  ,5.415e+08   ,-2.5  ,-0.2  ,4.9
855  ,4.071e+08   ,-2.5  ,-0.4  ,4.9
856  ,4.630e+08   ,-2.5  ,-0.6  ,4.9
857  ,4.830e+08   ,-2.5  ,-0.8  ,4.9
858  ,5.504e+08   ,-2.5  ,-1  ,4.9
859  ,5.549e+08   ,-2.5  ,-1.2  ,4.9
860  ,7.779e+08   ,-2.5  ,-1.4  ,4.9
861  ,7.455e+08   ,-2.5  ,-1.6  ,4.9
862  ,9.334e+08   ,-2.5  ,-1.8  ,4.9
863  ,1.281e+09   ,-2.5  ,-2  ,4.9
864  ,1.331e+09   ,-2.5  ,-2.2  ,4.9
865  ,6.477e+08   ,-2.5  ,2.4  ,4.7
866  ,1.020e+09   ,-2.5  ,2.4  ,4.5
867  ,1.065e+09   ,-2.5  ,2.4  ,4.3
868  ,8.144e+08   ,-2.5  ,2.4  ,4.1
869  ,1.038e+09   ,-2.5  ,2.4  ,3.9
870  ,1.142e+09   ,-2.5  ,2.4  ,3.7
871  ,1.356e+09   ,-2.5  ,2.4  ,3.5
872  ,1.745e+09   ,-2.5  ,2.4  ,3.3
873  ,1.557e+09   ,-2.5  ,2.4  ,3.1
874  ,1.290e+09   ,-2.5  ,2.4  ,2.9
875  ,1.302e+09   ,-2.5  ,2.4  ,2.7
876  ,1.276e+09   ,-2.5  ,2.4  ,2.5
877  ,1.281e+09   ,-2.5  ,2.4  ,2.3
878  ,1.413e+09   ,-2.5  ,2.4  ,2.1
879  ,1.409e+09   ,-2.5  ,2.4  ,1.9
880  ,1.531e+09   ,-2.5  ,2.4  ,1.7
881  ,1.803e+09   ,-2.5  ,2.4  ,1.5
882  ,1.963e+09   ,-2.5  ,2.4  ,1.3
883  ,1.824e+09   ,-2.5  ,2.4  ,1.1
884  ,1.825e+09   ,-2.5  ,2.4  ,0.9
885  ,1.621e+09   ,-2.5  ,2.4  ,0.7
886  ,1.507e+09   ,-2.5  ,2.4  ,0.5
887  ,1.067e+09   ,-2.5  ,2.4  ,0.3
1044  ,1.252e+09   ,-2.3  ,-2.5  ,0.44697
1045  ,3.338e+08   ,-2.3  ,-2.5  ,0.68705
1046  ,1.454e+08   ,-2.3  ,-2.5  ,0.92554
1047  ,1.147e+08   ,-2.3  ,-2.5  ,1.1682
1048  ,4.998e+08   ,-2.3  ,-2.5  ,1.4148
1049  ,1.102e+09   ,-2.3  ,-2.5  ,1.6581
1050  ,1.434e+09   ,-2.3  ,-2.5  ,1.8967
1051  ,1.243e+09   ,-2.3  ,-2.5  ,2.1357
1052  ,6.553e+08   ,-2.3  ,-2.5  ,2.3794
1053  ,1.848e+08   ,-2.3  ,-2.5  ,2.6206
1054  ,5.105e+08   ,-2.3  ,-2.5  ,2.8643
1055  ,1.336e+09   ,-2.3  ,-2.5  ,3.1033
1056  ,1.912e+09   ,-2.3  ,-2.5  ,3.342
1057  ,2.081e+09   ,-2.3  ,-2.5  ,3.5852
1058  ,2.204e+09   ,-2.3  ,-2.5  ,3.8318
1059  ,1.946e+09   ,-2.3  ,-2.5  ,4.0745
1060  ,1.155e+09   ,-2.3  ,-2.5  ,4.3129
1061  ,1.377e+09   ,-2.3  ,-2.5  ,4.553
1062  ,3.370e+09   ,-2.053  ,-2.5  ,4.8
1063  ,2.781e+09   ,-1.8129  ,-2.5  ,4.8
1064  ,1.939e+09   ,-1.5745  ,-2.5  ,4.8
1065  ,8.326e+08   ,-1.3318  ,-2.5  ,4.8
1066  ,2.052e+08   ,-1.0852  ,-2.5  ,4.8
1067  ,9.750e+08   ,-0.84195  ,-2.5  ,4.8
1068  ,1.243e+09   ,-0.60329  ,-2.5  ,4.8
1069  ,8.731e+08   ,-0.3643  ,-2.5  ,4.8
1070  ,3.347e+08   ,-0.12055  ,-2.5  ,4.8
1071  ,3.995e+08   ,0.12056  ,-2.5  ,4.8
1072  ,2.800e+08   ,0.3643  ,-2.5  ,4.8
1073  ,5.325e+08   ,0.6033  ,-2.5  ,4.8
1074  ,8.233e+08   ,0.84195  ,-2.5  ,4.8
1075  ,6.642e+08   ,1.0852  ,-2.5  ,4.8
1076  ,3.798e+08   ,1.3318  ,-2.5  ,4.8
1077  ,1.076e+09   ,1.5745  ,-2.5  ,4.8
1078  ,2.784e+09   ,1.8129  ,-2.5  ,4.8
1079  ,6.276e+09   ,2.053  ,-2.5  ,4.8
1080  ,6.565e+09   ,2.3  ,-2.5  ,4.553
1081  ,2.816e+09   ,2.3  ,-2.5  ,4.3129
1082  ,1.079e+09   ,2.3  ,-2.5  ,4.0745
1083  ,3.493e+08   ,2.3  ,-2.5  ,3.8318
1084  ,7.041e+08   ,2.3  ,-2.5  ,3.5852
1085  ,6.564e+08   ,2.3  ,-2.5  ,3.3419
1086  ,3.855e+08   ,2.3  ,-2.5  ,3.1033
1087  ,2.634e+08   ,2.3  ,-2.5  ,2.8643
1088  ,3.632e+08   ,2.3  ,-2.5  ,2.6206
1089  ,4.170e+08   ,2.3  ,-2.5  ,2.3794
1090  ,1.033e+09   ,2.3  ,-2.5  ,2.1357
1091  ,1.408e+09   ,2.3  ,-2.5  ,1.8967
1092  ,9.971e+08   ,2.3  ,-2.5  ,1.658
1093  ,2.810e+08   ,2.3  ,-2.5  ,1.4148
1094  ,5.883e+08   ,2.3  ,-2.5  ,1.1682
1095  ,1.798e+09   ,2.3  ,-2.5  ,0.92554
1096  ,2.966e+09   ,2.3  ,-2.5  ,0.68705
1097  ,3.322e+09   ,2.3  ,-2.5  ,0.44697
1098  ,9.530e+08   ,-2.053  ,-2.5  ,0.2
1099  ,3.323e+08   ,-1.8129  ,-2.5  ,0.2
1100  ,1.775e+08   ,-1.5745  ,-2.5  ,0.2
1101  ,2.019e+08   ,-1.3318  ,-2.5  ,0.2
1102  ,6.527e+08   ,-1.0852  ,-2.5  ,0.2
1103  ,1.297e+09   ,-0.84195  ,-2.5  ,0.2
1104  ,1.667e+09   ,-0.60329  ,-2.5  ,0.2
1105  ,1.399e+09   ,-0.3643  ,-2.5  ,0.2
1106  ,7.021e+08   ,-0.12055  ,-2.5  ,0.2
1107  ,2.033e+08   ,0.12056  ,-2.5  ,0.2
1108  ,9.176e+08   ,0.3643  ,-2.5  ,0.2
1109  ,1.718e+09   ,0.6033  ,-2.5  ,0.2
1110  ,2.003e+09   ,0.84195  ,-2.5  ,0.2
1111  ,2.157e+09   ,1.0852  ,-2.5  ,0.2
1112  ,2.294e+09   ,1.3318  ,-2.5  ,0.2
1113  ,1.932e+09   ,1.5745  ,-2.5  ,0.2
1114  ,1.117e+09   ,1.8129  ,-2.5  ,0.2
1115  ,1.541e+09   ,2.053  ,-2.5  ,0.2
1116  ,1.126e+09   ,-2.2  ,-2.5  ,4.9
1117  ,2.170e+08   ,-2  ,-2.5  ,4.9
1118  ,4.881e+08   ,-1.8  ,-2.5  ,4.9
1119  ,6.098e+08   ,-1.6  ,-2.5  ,4.9
1120  ,6.204e+08   ,-1.4  ,-2.5  ,4.9
1121  ,4.972e+08   ,-1.2  ,-2.5  ,4.9
1122  ,2.498e+08   ,-1  ,-2.5  ,4.9
1123  ,3.984e+08   ,-0.8  ,-2.5  ,4.9
1124  ,5.876e+08   ,-0.6  ,-2.5  ,4.9
1125  ,8.421e+08   ,-0.4  ,-2.5  ,4.9
1126  ,1.086e+09   ,-0.2  ,-2.5  ,4.9
1127  ,1.144e+09   ,-1.7664E-15  ,-2.5  ,4.9
1128  ,1.281e+09   ,0.2  ,-2.5  ,4.9
1129  ,1.574e+09   ,0.4  ,-2.5  ,4.9
1130  ,1.632e+09   ,0.6  ,-2.5  ,4.9
1131  ,1.828e+09   ,0.8  ,-2.5  ,4.9
1132  ,1.863e+09   ,1  ,-2.5  ,4.9
1133  ,2.189e+09   ,1.2  ,-2.5  ,4.9
1134  ,1.971e+09   ,1.4  ,-2.5  ,4.9
1135  ,2.210e+09   ,1.6  ,-2.5  ,4.9
1136  ,2.245e+09   ,1.8  ,-2.5  ,4.9
1137  ,2.104e+09   ,2  ,-2.5  ,4.9
1138  ,1.735e+09   ,2.2  ,-2.5  ,4.9
1139  ,1.579e+09   ,-2.4  ,-2.5  ,4.7
1140  ,1.770e+09   ,-2.4  ,-2.5  ,4.5
1141  ,1.502e+09   ,-2.4  ,-2.5  ,4.3
1142  ,1.094e+09   ,-2.4  ,-2.5  ,4.1
1143  ,8.888e+08   ,-2.4  ,-2.5  ,3.9
1144  ,1.210e+09   ,-2.4  ,-2.5  ,3.7
1145  ,7.828e+08   ,-2.4  ,-2.5  ,3.5
1146  ,1.149e+09   ,-2.4  ,-2.5  ,3.3
1147  ,8.948e+08   ,-2.4  ,-2.5  ,3.1
1148  ,9.251e+08   ,-2.4  ,-2.5  ,2.9
1149  ,9.517e+08   ,-2.4  ,-2.5  ,2.7
1150  ,9.327e+08   ,-2.4  ,-2.5  ,2.5
1151  ,1.016e+09   ,-2.4  ,-2.5  ,2.3
1152  ,1.018e+09   ,-2.4  ,-2.5  ,2.1
1153  ,9.469e+08   ,-2.4  ,-2.5  ,1.9
1154  ,8.943e+08   ,-2.4  ,-2.5  ,1.7
1155  ,7.206e+08   ,-2.4  ,-2.5  ,1.5
1156  ,6.287e+08   ,-2.4  ,-2.5  ,1.3
1157  ,4.944e+08   ,-2.4  ,-2.5  ,1.1
1158  ,4.298e+08   ,-2.4  ,-2.5  ,0.9
1159  ,4.662e+08   ,-2.4  ,-2.5  ,0.7
1160  ,6.146e+08   ,-2.4  ,-2.5  ,0.5
1161  ,6.467e+08   ,-2.4  ,-2.5  ,0.3
1162  ,6.712e+08   ,-2.2  ,-2.5  ,0.1
1163  ,7.788e+08   ,-2  ,-2.5  ,0.1
1164  ,4.908e+08   ,-1.8  ,-2.5  ,0.1
1165  ,4.195e+08   ,-1.6  ,-2.5  ,0.1
1166  ,6.018e+08   ,-1.4  ,-2.5  ,0.1
1167  ,7.522e+08   ,-1.2  ,-2.5  ,0.1
1168  ,8.803e+08   ,-1  ,-2.5  ,0.1
1169  ,9.814e+08   ,-0.8  ,-2.5  ,0.1
1170  ,1.029e+09   ,-0.6  ,-2.5  ,0.1
1171  ,1.055e+09   ,-0.4  ,-2.5  ,0.1
1172  ,1.038e+09   ,-0.2  ,-2.5  ,0.1
1173  ,9.553e+08   ,-1.7664E-15  ,-2.5  ,0.1
1174  ,8.991e+08   ,0.2  ,-2.5  ,0.1
1175  ,9.455e+08   ,0.4  ,-2.5  ,0.1
1176  ,9.901e+08   ,0.6  ,-2.5  ,0.1
1177  ,6.618e+08   ,0.8  ,-2.5  ,0.1
1178  ,9.466e+08   ,1  ,-2.5  ,0.1
1179  ,1.070e+09   ,1.2  ,-2.5  ,0.1
1180  ,9.953e+08   ,1.4  ,-2.5  ,0.1
1181  ,1.295e+09   ,1.6  ,-2.5  ,0.1
1182  ,1.426e+09   ,1.8  ,-2.5  ,0.1
1183  ,1.533e+09   ,2  ,-2.5  ,0.1
1184  ,1.614e+09   ,2.2  ,-2.5  ,0.1
1185  ,1.815e+09   ,2.4  ,-2.5  ,4.7
1186  ,2.337e+09   ,2.4  ,-2.5  ,4.5
1187  ,2.437e+09   ,2.4  ,-2.5  ,4.3
1188  ,2.214e+09   ,2.4  ,-2.5  ,4.1
1189  ,2.203e+09   ,2.4  ,-2.5  ,3.9
1190  ,2.204e+09   ,2.4  ,-2.5  ,3.7
1191  ,1.813e+09   ,2.4  ,-2.5  ,3.5
1192  ,1.947e+09   ,2.4  ,-2.5  ,3.3
1193  ,1.780e+09   ,2.4  ,-2.5  ,3.1
1194  ,1.587e+09   ,2.4  ,-2.5  ,2.9
1195  ,1.275e+09   ,2.4  ,-2.5  ,2.7
1196  ,1.174e+09   ,2.4  ,-2.5  ,2.5
1197  ,1.270e+09   ,2.4  ,-2.5  ,2.3
1198  ,1.106e+09   ,2.4  ,-2.5  ,2.1
1199  ,6.579e+08   ,2.4  ,-2.5  ,1.9
1200  ,3.757e+08   ,2.4  ,-2.5  ,1.7
1201  ,2.378e+08   ,2.4  ,-2.5  ,1.5
1202  ,5.317e+08   ,2.4  ,-2.5  ,1.3
1203  ,8.918e+08   ,2.4  ,-2.5  ,1.1
1204  ,1.089e+09   ,2.4  ,-2.5  ,0.9
1205  ,5.308e+08   ,2.4  ,-2.5  ,0.7
1206  ,6.980e+08   ,2.4  ,-2.5  ,0.5
1207  ,1.124e+09   ,2.4  ,-2.5  ,0.3
1208  ,1.306e+09   ,2.4  ,-2.2  ,0
1209  ,1.380e+09   ,2.4  ,-2  ,0
1210  ,1.039e+09   ,2.4  ,-1.8  ,0
1211  ,8.482e+08   ,2.4  ,-1.6  ,0
1212  ,8.651e+08   ,2.4  ,-1.4  ,0
1213  ,6.324e+08   ,2.4  ,-1.2  ,0
1214  ,6.338e+08   ,2.4  ,-1  ,0
1215  ,5.531e+08   ,2.4  ,-0.8  ,0
1216  ,3.841e+08   ,2.4  ,-0.6  ,0
1217  ,2.986e+08   ,2.4  ,-0.4  ,0
1218  ,3.609e+08   ,2.4  ,-0.2  ,0
1219  ,4.562e+08   ,2.4  ,-1.7664E-15  ,0
1220  ,6.193e+08   ,2.4  ,0.2  ,0
1221  ,8.947e+08   ,2.4  ,0.4  ,0
1222  ,1.438e+09   ,2.4  ,0.6  ,0
1223  ,1.809e+09   ,2.4  ,0.8  ,0
1224  ,1.301e+09   ,2.4  ,1  ,0
1225  ,1.084e+09   ,2.4  ,1.2  ,0
1226  ,1.003e+09   ,2.4  ,1.4  ,0
1227  ,9.237e+08   ,2.4  ,1.6  ,0
1228  ,1.097e+09   ,2.4  ,1.8  ,0
1229  ,9.734e+08   ,2.4  ,2  ,0
1230  ,6.176e+08   ,2.4  ,2.2  ,0
1231  ,1.421e+09   ,-2.2  ,-2.4  ,0
1232  ,6.159e+08   ,-2  ,-2.4  ,0
1233  ,4.924e+08   ,-1.8  ,-2.4  ,0
1234  ,9.187e+08   ,-1.6  ,-2.4  ,0
1235  ,9.991e+08   ,-1.4  ,-2.4  ,0
1236  ,9.128e+08   ,-1.2  ,-2.4  ,0
1237  ,7.470e+08   ,-1  ,-2.4  ,0
1238  ,5.103e+08   ,-0.8  ,-2.4  ,0
1239  ,3.577e+08   ,-0.6  ,-2.4  ,0
1240  ,5.568e+08   ,-0.4  ,-2.4  ,0
1241  ,1.010e+09   ,-0.2  ,-2.4  ,0
1242  ,1.353e+09   ,5.8879E-16  ,-2.4  ,0
1243  ,1.740e+09   ,0.2  ,-2.4  ,0
1244  ,2.374e+09   ,0.4  ,-2.4  ,0
1245  ,2.797e+09   ,0.6  ,-2.4  ,0
1246  ,3.530e+09   ,0.8  ,-2.4  ,0
1247  ,3.664e+09   ,1  ,-2.4  ,0
1248  ,3.855e+09   ,1.2  ,-2.4  ,0
1249  ,3.369e+09   ,1.4  ,-2.4  ,0
1250  ,2.692e+09   ,1.6  ,-2.4  ,0
1251  ,1.583e+09   ,1.8  ,-2.4  ,0
1252  ,1.239e+09   ,2  ,-2.4  ,0
1253  ,2.565e+09   ,2.2  ,-2.4  ,0
1254  ,7.228e+08   ,-2.4  ,2.2  ,0
1255  ,1.176e+09   ,-2.4  ,2  ,0
1256  ,1.470e+09   ,-2.4  ,1.8  ,0
1257  ,1.638e+09   ,-2.4  ,1.6  ,0
1258  ,1.903e+09   ,-2.4  ,1.4  ,0
1259  ,2.078e+09   ,-2.4  ,1.2  ,0
1260  ,2.105e+09   ,-2.4  ,1  ,0
1261  ,2.133e+09   ,-2.4  ,0.8  ,0
1262  ,2.093e+09   ,-2.4  ,0.6  ,0
1263  ,2.119e+09   ,-2.4  ,0.4  ,0
1264  ,2.145e+09   ,-2.4  ,0.2  ,0
1265  ,2.238e+09   ,-2.4  ,5.8879E-16  ,0
1266  ,2.209e+09   ,-2.4  ,-0.2  ,0
1267  ,1.895e+09   ,-2.4  ,-0.4  ,0
1268  ,1.688e+09   ,-2.4  ,-0.6  ,0
1269  ,1.245e+09   ,-2.4  ,-0.8  ,0
1270  ,1.039e+09   ,-2.4  ,-1  ,0
1271  ,7.895e+08   ,-2.4  ,-1.2  ,0
1272  ,6.031e+08   ,-2.4  ,-1.4  ,0
1273  ,5.584e+08   ,-2.4  ,-1.6  ,0
1274  ,5.080e+08   ,-2.4  ,-1.8  ,0
1275  ,7.040e+08   ,-2.4  ,-2  ,0
1276  ,6.785e+08   ,-2.4  ,-2.2  ,0
1277  ,5.359e+08   ,2.2  ,2.4  ,0
1278  ,8.343e+08   ,2  ,2.4  ,0
1279  ,9.638e+08   ,1.8  ,2.4  ,0
1280  ,8.295e+08   ,1.6  ,2.4  ,0
1281  ,8.550e+08   ,1.4  ,2.4  ,0
1282  ,1.203e+09   ,1.2  ,2.4  ,0
1283  ,1.497e+09   ,1  ,2.4  ,0
1284  ,1.860e+09   ,0.8  ,2.4  ,0
1285  ,1.695e+09   ,0.6  ,2.4  ,0
1286  ,1.446e+09   ,0.4  ,2.4  ,0
1287  ,1.463e+09   ,0.2  ,2.4  ,0
1288  ,1.265e+09   ,5.8879E-16  ,2.4  ,0
1289  ,1.386e+09   ,-0.2  ,2.4  ,0
1290  ,1.249e+09   ,-0.4  ,2.4  ,0
1291  ,1.411e+09   ,-0.6  ,2.4  ,0
1292  ,1.700e+09   ,-0.8  ,2.4  ,0
1293  ,1.824e+09   ,-1  ,2.4  ,0
1294  ,1.814e+09   ,-1.2  ,2.4  ,0
1295  ,1.730e+09   ,-1.4  ,2.4  ,0
1296  ,1.631e+09   ,-1.6  ,2.4  ,0
1297  ,1.519e+09   ,-1.8  ,2.4  ,0
1298  ,1.320e+09   ,-2  ,2.4  ,0
1299  ,1.098e+09   ,-2.2  ,2.4  ,0
1460  ,1.405e+10   ,2.3243  ,2.3243  ,4.9577
1461  ,1.312e+10   ,2.4577  ,2.3243  ,4.8243
1462  ,8.052e+09   ,2.3243  ,2.4577  ,4.8243
1463  ,1.494e+09   ,-2.3  ,-2.1759  ,4.8
1464  ,1.577e+09   ,-2.3  ,-1.7631  ,4.8
1465  ,2.157e+09   ,-2.3  ,-1.1827  ,4.8
1466  ,2.134e+09   ,-2.3  ,-0.34986  ,4.8
1467  ,3.000e+09   ,-2.3  ,0.80545  ,4.8
1468  ,2.808e+09   ,-0.81337  ,2.3  ,4.8
1469  ,4.933e+09   ,0.67326  ,2.3  ,4.8
1470  ,3.503e+09   ,2.3  ,-2.1824  ,4.8
1471  ,2.141e+09   ,2.3  ,-1.7784  ,4.8
1472  ,2.397e+09   ,2.3  ,-1.2138  ,4.8
1473  ,3.050e+09   ,2.3  ,-0.40752  ,4.8
1474  ,4.091e+09   ,2.3  ,0.70532  ,4.8
1516  ,2.923e+09   ,2.3  ,2.3  ,1.6866
1517  ,4.906e+09   ,2.3  ,2.3  ,3.1733
1518  ,1.596e+09   ,2.3  ,-2.1759  ,0.2
1519  ,1.565e+09   ,2.3  ,-1.7631  ,0.2
1520  ,2.019e+09   ,2.3  ,-1.1827  ,0.2
1521  ,1.946e+09   ,2.3  ,-0.34986  ,0.2
1522  ,3.131e+09   ,2.3  ,0.80545  ,0.2
1564  ,2.391e+09   ,-0.76667  ,2.3  ,0.2
1565  ,3.281e+09   ,0.76667  ,2.3  ,0.2
1566  ,2.378e+09   ,-2.3  ,2.3  ,1.7333
1567  ,3.235e+09   ,-2.3  ,2.3  ,3.2667
1574  ,5.698e+08   ,-2.3  ,-2.1759  ,0.2
1575  ,3.305e+08   ,-2.3  ,-1.7631  ,0.2
1576  ,1.882e+08   ,-2.3  ,-1.1827  ,0.2
1577  ,7.164e+08   ,-2.3  ,-0.34986  ,0.2
1578  ,6.192e+08   ,-2.3  ,0.80545  ,0.2
1777  ,3.321e+09   ,-0.52764  ,2.5  ,4.9
1801  ,1.342e+09   ,-2.3  ,1.5527  ,0.2
1825  ,1.310e+09   ,-1.5333  ,2.3  ,0.2
1841  ,2.704e+09   ,0.063638  ,2.5  ,4.9
1876  ,1.294e+09   ,-0.5  ,2.4  ,0
1894  ,2.818e+09   ,2.3  ,1.5527  ,0.2
1907  ,8.511e+08   ,2.1  ,2.5  ,0.1
1928  ,8.422e+08   ,1.9  ,2.4  ,0
1974  ,1.131e+09   ,2.4  ,1.1  ,0
1981  ,1.116e+09   ,2.4  ,2.5  ,0.59273
1987  ,9.606e+08   ,-2.5  ,2.4  ,4
2004  ,8.121e+08   ,-2.4  ,2.5  ,4.6
2009  ,9.924e+08   ,2.4  ,1.3  ,0
2020  ,1.216e+09   ,2.5  ,1.1  ,0.1
2035  ,1.275e+09   ,-2.3  ,-0.76628  ,0.2
2070  ,6.511e+09   ,1.6404  ,2.4  ,5
2081  ,2.653e+09   ,2.4  ,2.5  ,1.9724
2095  ,1.555e+09   ,2.4  ,2.5  ,0.78982
2138  ,2.070e+09   ,-2.4  ,-0.1  ,0
2146  ,2.993e+09   ,-0.92182  ,2.4  ,5
2174  ,2.556e+09   ,2.4  ,2.5  ,1.184
2190  ,2.029e+09   ,2.5  ,2.4  ,0.98691
2203  ,3.582e+09   ,2.5  ,-0.13345  ,4.9
2232  ,5.610e+09   ,2.3  ,0.1489  ,4.8
2242  ,3.217e+09   ,2.4  ,2.5  ,2.9578
2293  ,2.321e+09   ,-2.5  ,0.5  ,0.1
2311  ,5.457e+09   ,2.3  ,2.3  ,2.4299
2313  ,1.880e+09   ,2.5  ,2.4  ,0.78982
2329  ,2.470e+09   ,2.4  ,2.5  ,2.1695
2355  ,8.874e+08   ,-2.4  ,2.5  ,4.4
2380  ,5.651e+08   ,-2.5  ,-1.5  ,0.1
2383  ,3.323e+09   ,0.45782  ,2.5  ,4.9
2408  ,3.494e+09   ,2.3  ,-1.4961  ,4.8
2445  ,2.822e+09   ,2.5  ,-1.5131  ,4.9
2484  ,5.124e+08   ,-2.5  ,-2.4  ,1.6
2495  ,9.192e+08   ,-2.4  ,1.7  ,5
2508  ,7.701e+08   ,2.4  ,0.3  ,0
2514  ,3.137e+09   ,2.3  ,0.2278  ,0.2
2570  ,8.754e+08   ,-2.4  ,1.5  ,5
2580  ,6.177e+09   ,1.6404  ,2.5  ,4.9
2603  ,3.449e+09   ,-1.1189  ,2.5  ,4.9
2695  ,2.328e+09   ,2.3  ,2.3  ,0.94331
2705  ,3.355e+09   ,2.4  ,2.5  ,1.3811
2714  ,2.320e+09   ,2.5  ,0.45782  ,4.9
2734  ,5.791e+08   ,2.4  ,-0.9  ,0
2775  ,5.293e+08   ,2.5  ,-0.1  ,0.1
2779  ,3.941e+08   ,2.4  ,-0.1  ,0
2801  ,8.216e+09   ,1.4166  ,2.3  ,4.8
2814  ,4.887e+09   ,1.4433  ,2.5  ,4.9
2863  ,1.734e+09   ,-2.4  ,2.5  ,0.6
2884  ,1.988e+09   ,-2.4  ,2.5  ,0.8
2886  ,2.085e+09   ,-2.4  ,2.5  ,1.2
2967  ,9.210e+08   ,2.4  ,1.7  ,0
2973  ,9.269e+08   ,2.5  ,1.5  ,0.1
2987  ,1.083e+09   ,-0.3  ,2.5  ,0.1
3008  ,1.353e+09   ,-2.3  ,2.3  ,0.96667
3012  ,1.269e+09   ,-2.5  ,2.4  ,2.6
3021  ,1.257e+09   ,-2.5  ,2.4  ,2.8
3025  ,1.254e+09   ,-2.5  ,2.4  ,2.4
3030  ,1.281e+09   ,-2.4  ,2.5  ,2.4
3033  ,1.274e+09   ,-2.4  ,2.5  ,2.2
3047  ,2.561e+09   ,2.4  ,2.5  ,2.3665
3052  ,2.899e+09   ,2.5  ,2.4  ,2.5636
3061  ,2.756e+09   ,2.4  ,2.5  ,2.5636
3081  ,9.871e+08   ,-2.4  ,1.3  ,5
3088  ,8.714e+08   ,-1.9073  ,2.4  ,5
3099  ,9.583e+08   ,-2.4  ,1.9  ,5
3107  ,8.547e+08   ,-2.4  ,2.5  ,3.8
3139  ,1.920e+09   ,-1.5131  ,2.4  ,5
3145  ,2.111e+09   ,-1.5131  ,2.5  ,4.9
3148  ,1.531e+09   ,-1.7102  ,2.5  ,4.9
3168  ,1.753e+09   ,-2.4  ,1.5  ,0
3188  ,9.582e+08   ,-2.5  ,-2.4  ,1
3202  ,2.779e+09   ,0.26073  ,2.5  ,4.9
3212  ,5.904e+09   ,2.5  ,1.6404  ,4.9
3247  ,9.022e+09   ,2.5  ,1.8375  ,4.9
3265  ,7.958e+09   ,2.3  ,1.4326  ,4.8
3271  ,1.389e+10   ,2.2299  ,2.2299  ,4.8
3284  ,4.266e+09   ,2.4  ,1.4433  ,5
3291  ,4.441e+09   ,2.5  ,1.4433  ,4.9
3296  ,2.194e+09   ,-2.3  ,-0.76628  ,4.8
3303  ,6.924e+08   ,-2.4  ,-0.9  ,5
3311  ,4.731e+08   ,-2.4  ,-0.7  ,5
3315  ,8.746e+08   ,1.9  ,2.5  ,0.1
3336  ,2.104e+09   ,-2.4  ,0.3  ,0
3340  ,2.070e+09   ,-2.5  ,0.1  ,0.1
3344  ,2.156e+09   ,-2.4  ,0.1  ,0
3356  ,1.272e+09   ,-0.3  ,2.4  ,0
3361  ,2.524e+09   ,-0.33054  ,2.5  ,4.9
3364  ,2.487e+09   ,-0.13345  ,2.5  ,4.9
3383  ,3.510e+09   ,2.4  ,2.5  ,3.5491
3402  ,1.561e+10   ,2.4  ,2.5  ,4.5345
3421  ,2.744e+09   ,-1.316  ,2.5  ,4.9
3439  ,4.964e+09   ,2.5  ,2.4  ,3.9433
3447  ,5.105e+09   ,2.4  ,2.5  ,3.9433
3451  ,4.046e+09   ,2.4  ,2.5  ,3.7462
3468  ,4.907e+09   ,1.4433  ,2.4  ,5
3480  ,3.450e+09   ,1.0491  ,2.4  ,5
3519  ,8.423e+08   ,1.5  ,2.4  ,0
3527  ,2.227e+09   ,2.3  ,-1.4729  ,0.2
3550  ,1.546e+09   ,-1.7  ,2.4  ,0
3554  ,1.801e+09   ,-1.7  ,2.5  ,0.1
3558  ,1.687e+09   ,-1.5  ,2.4  ,0
3562  ,1.884e+09   ,-1.5  ,2.5  ,0.1
3574  ,6.858e+08   ,-2.4  ,2.1  ,5
3581  ,1.537e+09   ,-2.5  ,1.7  ,0.1
3583  ,1.341e+09   ,-2.5  ,1.9  ,0.1
3584  ,8.635e+08   ,-1.9073  ,2.5  ,4.9
3591  ,9.054e+08   ,2.5  ,0.3  ,0.1
3595  ,6.307e+08   ,2.5  ,0.1  ,0.1
3603  ,2.066e+10   ,2.4577  ,2.391  ,4.7576
3663  ,5.362e+08   ,-1.933  ,-2.5  ,0.2
3669  ,1.549e+09   ,-2.1765  ,-2.5  ,0.2
3672  ,9.588e+08   ,-2.3  ,-2.3379  ,0.2
3682  ,3.364e+08   ,-1.9  ,-2.4  ,0
3700  ,2.887e+08   ,2.3  ,-2.5  ,2.7424
3712  ,6.241e+08   ,-2.1  ,-2.5  ,4.9
3715  ,2.319e+08   ,-1.9  ,-2.5  ,4.9
3740  ,8.050e+08   ,-1.3  ,-2.4  ,5
3746  ,3.146e+08   ,-1.2085  ,-2.5  ,4.8
3755  ,1.583e+09   ,-1.5  ,-2.4  ,5
3760  ,3.556e+08   ,-1.7  ,-2.5  ,4.9
3786  ,2.906e+09   ,2.4  ,2.5  ,1.5782
3813  ,3.031e+09   ,0.26073  ,2.4  ,5
3858  ,3.498e+08   ,-0.9  ,-2.4  ,5
3863  ,1.453e+09   ,-2.5  ,0.9  ,4.9
3875  ,2.568e+09   ,-1.9  ,-2.4  ,5
3885  ,2.947e+09   ,2.4  ,-0.72473  ,5
3910  ,9.665e+08   ,-2.4  ,-2.5  ,3.4
3959  ,6.984e+09   ,2.5  ,2.4  ,4.1404
3969  ,2.876e+09   ,2.5  ,1.0491  ,4.9
3992  ,1.761e+10   ,2.391  ,2.2576  ,4.9577
3993  ,1.992e+10   ,2.4577  ,2.2576  ,4.891
4016  ,4.013e+08   ,-2.3015  ,2.5  ,4.9
4018  ,3.939e+08   ,-2.4  ,2.5  ,4.8
4021  ,3.856e+09   ,1.2462  ,2.4  ,5
4042  ,6.408e+08   ,2.4  ,-1.1  ,0
4046  ,1.719e+09   ,-0.9  ,2.4  ,0
4055  ,2.184e+09   ,1.7  ,-2.5  ,4.9
4087  ,9.726e+08   ,1.7  ,2.4  ,0
4114  ,2.902e+09   ,2.5  ,-0.33054  ,4.9
4120  ,4.982e+08   ,2.4  ,-2.5  ,1.8
4125  ,1.549e+09   ,2.4  ,2.5  ,0.98691
4144  ,1.071e+10   ,2.4  ,2.5  ,4.3375
4161  ,1.069e+09   ,-2.4  ,0.3  ,5
4201  ,8.766e+08   ,1.933  ,-2.5  ,0.2
4225  ,1.080e+09   ,-2.3  ,-2.4  ,0
4230  ,5.661e+08   ,-2.3  ,-2.5  ,0.56701
4269  ,3.211e+08   ,-0.9  ,-2.5  ,4.9
4277  ,1.695e+08   ,-1.1  ,-2.4  ,5
4288  ,4.496e+09   ,-0.070055  ,2.3  ,4.8
4328  ,2.223e+09   ,-2.5  ,-2.4  ,4.2
4336  ,1.299e+09   ,-2.5  ,-2.4  ,4.4
4342  ,1.620e+09   ,-2.5  ,-2.4  ,4.6
4348  ,2.410e+09   ,-2.4  ,-2.4707  ,4.9707
4352  ,1.335e+09   ,-2.3  ,-2.5  ,4.9
4354  ,3.480e+09   ,-2.1765  ,-2.5  ,4.8
4355  ,1.836e+09   ,-2.3  ,-2.3379  ,4.8
4362  ,1.023e+09   ,2.5  ,2.4  ,0.59273
4364  ,1.866e+09   ,2.5  ,-2.4  ,2.4
4366  ,1.243e+09   ,2.5  ,-2.4  ,2.2
4372  ,1.300e+09   ,2.4  ,-2.5  ,2.2
4385  ,5.757e+08   ,-2.5  ,-1.9  ,0.1
4399  ,8.730e+08   ,-2.5  ,2.1  ,0.1
4407  ,3.945e+08   ,-0.7  ,-2.4  ,0
4436  ,1.951e+09   ,-2.5  ,-0.1  ,0.1
4462  ,2.511e+09   ,-2.3  ,2.3  ,4.0333
4491  ,2.680e+09   ,2.5  ,-0.52764  ,4.9
4494  ,2.642e+08   ,2.5  ,-2.4  ,1.4
4503  ,3.390e+08   ,2.4  ,-2.5  ,1.4
4508  ,7.061e+08   ,2.4  ,-2.5  ,1.2
4515  ,3.064e+08   ,2.5  ,-2.4  ,1.8
4517  ,2.914e+08   ,2.4  ,-2.5  ,1.6
4522  ,3.088e+09   ,0.7  ,-2.4  ,0
4538  ,2.804e+09   ,-1.1189  ,2.4  ,5
4546  ,6.230e+09   ,2.4  ,2.5  ,4.1404
4559  ,2.060e+09   ,1.7  ,-2.4  ,0
4590  ,2.576e+09   ,0.5  ,-2.4  ,0
4631  ,1.207e+09   ,2.4  ,-2.5  ,2.6
4634  ,2.626e+09   ,2.5  ,-2.4  ,2.8
4657  ,4.516e+08   ,-2.5  ,-2.4  ,2
4660  ,4.529e+08   ,-2.5  ,-2.4  ,1.8
4664  ,7.031e+08   ,-0.3  ,-2.4  ,0
4675  ,1.486e+09   ,-2.4  ,-2.5  ,4.8
4681  ,1.894e+09   ,-2.5  ,-0.3  ,0.1
4684  ,1.438e+09   ,1.7  ,-2.4  ,5
4703  ,1.715e+09   ,-2.4  ,0.7  ,5
4707  ,1.050e+09   ,-2.5  ,0.3  ,4.9
4714  ,2.678e+09   ,2.4  ,-0.33054  ,5
4723  ,3.043e+09   ,-1.5567  ,2.3  ,4.8
4739  ,4.345e+08   ,-2.1044  ,2.5  ,4.9
4763  ,1.426e+09   ,-1.9  ,2.4  ,0
4780  ,4.381e+08   ,-2.3  ,-1.9695  ,0.2
4782  ,6.858e+08   ,-2.4707  ,-2.4  ,0.029289
4784  ,5.678e+08   ,-2.4  ,-1.9  ,0
4791  ,9.780e+08   ,-2.4  ,-2.5  ,1.8
4796  ,4.292e+09   ,2.4707  ,-2.4707  ,4.9
4799  ,5.107e+09   ,2.5  ,-2.4  ,4.8
4806  ,2.504e+09   ,2.3  ,-2.5  ,4.9
4809  ,8.418e+09   ,2.3  ,2.3  ,3.9166
4833  ,1.502e+09   ,-2.4  ,2.5  ,0.4
4841  ,1.350e+09   ,-2.4  ,2.5  ,2.6
4846  ,6.394e+08   ,-2.5  ,2.1  ,4.9
4848  ,4.627e+08   ,-2.5  ,2.3  ,4.9
4849  ,4.885e+08   ,-2.5  ,2.4  ,4.8
4893  ,9.495e+08   ,-2.4  ,2.5  ,4.2
4897  ,1.330e+10   ,2.3333  ,2.1998  ,5
4900  ,1.760e+10   ,2.391  ,2.4577  ,4.7576
4908  ,2.048e+10   ,2.2576  ,2.391  ,4.9577
4911  ,1.816e+10   ,2.2576  ,2.4577  ,4.891
4926  ,1.808e+09   ,-2.5  ,2.4  ,1
4932  ,1.953e+09   ,-2.4  ,2.5  ,1.6
4937  ,2.142e+09   ,-1.1  ,2.5  ,0.1
4939  ,1.387e+10   ,2.3  ,2.2299  ,4.7299
4944  ,3.464e+09   ,2.5  ,-1.9073  ,4.9
4987  ,2.738e+09   ,-2.3  ,1.5527  ,4.8
5010  ,3.118e+10   ,2.4973  ,2.1331  ,4.923
5013  ,1.184e+10   ,2.5  ,2.0345  ,4.9
5017  ,1.288e+10   ,2.4  ,2.0345  ,5
5035  ,3.502e+09   ,1.3  ,-2.4  ,0
5038  ,2.233e+09   ,1.2085  ,-2.5  ,0.2
5092  ,5.194e+08   ,-2.4  ,-2.5  ,1.2
5123  ,3.207e+09   ,2.5  ,-2.4  ,0.6
5151  ,1.733e+09   ,-2.5  ,-0.5  ,0.1
5160  ,1.432e+09   ,-2.5  ,-0.7  ,0.1
5164  ,1.733e+09   ,-2.4  ,0.9  ,5
5168  ,1.177e+09   ,-2.4  ,0.5  ,5
5176  ,4.195e+08   ,2.5  ,-0.7  ,0.1
5179  ,2.831e+08   ,2.4  ,-0.5  ,0
5189  ,1.222e+09   ,2.4  ,-2.5  ,2.4
5194  ,7.049e+08   ,2.3  ,-2.5  ,2.2576
5198  ,1.628e+09   ,-2.3  ,-2.5  ,0.32348
5205  ,5.839e+08   ,-2.4  ,-2.5  ,0.2
5207  ,6.575e+08   ,-2.1  ,-2.5  ,0.1
5246  ,1.618e+09   ,-2.5  ,2.4  ,3.2
5257  ,9.190e+08   ,-2.5  ,1.5  ,4.9
5263  ,1.653e+09   ,-2.3  ,0.2278  ,0.2
5272  ,2.120e+09   ,-2.5  ,0.3  ,0.1
5275  ,1.161e+09   ,-2.5  ,0.5  ,4.9
5281  ,7.908e+09   ,1.8375  ,2.5  ,4.9
5297  ,2.002e+09   ,-0.9  ,2.5  ,0.1
5306  ,1.541e+09   ,-0.7  ,2.4  ,0
5309  ,1.383e+09   ,-0.5  ,2.5  ,0.1
5324  ,2.875e+09   ,2.4  ,2.5  ,2.7607
5332  ,2.626e+09   ,2.5  ,-2.4  ,0.8
5334  ,1.155e+09   ,2.4  ,-2.5  ,1
5360  ,2.992e+09   ,2.4  ,-1.7102  ,5
5362  ,2.956e+09   ,2.4  ,-1.5131  ,5
5368  ,7.804e+09   ,2.4  ,1.8375  ,5
5371  ,3.904e+10   ,2.4325  ,2.4888  ,4.6656
5372  ,2.451e+10   ,2.3333  ,2.5  ,4.6998
5376  ,3.026e+10   ,2.4707  ,2.4707  ,4.6331
5377  ,1.770e+10   ,2.5  ,2.4  ,4.5345
5379  ,5.658e+08   ,-1.5  ,-2.5  ,4.9
5406  ,3.549e+09   ,-2.5  ,-2.4  ,3.4
5420  ,1.665e+09   ,-2.3  ,-2.5  ,3.2226
5423  ,2.954e+09   ,1.5  ,-2.4  ,0
5502  ,7.261e+08   ,-2.5  ,-2.3  ,0.1
5504  ,1.053e+09   ,-2.5  ,-2.4  ,0.2
5506  ,8.113e+08   ,-2.4  ,-2.3  ,0
5511  ,6.734e+08   ,-2.5  ,-2.1  ,0.1
5513  ,2.046e+09   ,-2.4  ,0.5  ,0
5517  ,9.291e+08   ,-0.9  ,-2.5  ,0.1
5532  ,2.026e+08   ,-2.4707  ,2.4707  ,4.9
5534  ,4.445e+08   ,2.4  ,-0.7  ,0
5551  ,3.836e+09   ,2.5  ,-2.4  ,3.8
5566  ,2.288e+09   ,2.5  ,2.4  ,1.3811
5603  ,3.059e+08   ,2.4  ,-0.3  ,0
5617  ,1.502e+09   ,-2.1  ,2.5  ,0.1
5637  ,1.410e+09   ,-2.3  ,-1.9695  ,4.8
5641  ,7.051e+08   ,2.3  ,-2.5  ,3.4636
5645  ,1.007e+09   ,-2.4  ,-2.5  ,2
5649  ,1.045e+09   ,-2.4  ,-2.5  ,2.2
5659  ,1.310e+09   ,-2.3  ,-2.5  ,1.7774
5662  ,7.551e+09   ,2.1765  ,-2.5  ,4.8
5666  ,2.525e+09   ,2.4  ,-2.5  ,4.8
5669  ,4.611e+09   ,2.3  ,-2.3412  ,4.8
5695  ,2.058e+09   ,-2.4  ,0.7  ,0
5701  ,1.643e+09   ,-2.5  ,2.4  ,1.6
5715  ,1.704e+09   ,-2.4  ,2.5  ,1.8
5726  ,1.728e+09   ,-0.7  ,2.5  ,0.1
5727  ,1.810e+09   ,-1.1  ,2.4  ,0
5730  ,1.291e+09   ,2.3  ,-2.5  ,1.7774
5746  ,2.820e+09   ,2.5  ,2.4  ,1.7753
5755  ,1.455e+09   ,2.5  ,-2.4  ,4.4
5763  ,2.245e+09   ,2.4  ,-2.5  ,4.4
5773  ,3.364e+09   ,1.0491  ,2.5  ,4.9
5791  ,2.742e+09   ,-0.72473  ,2.4  ,5
5795  ,8.886e+09   ,1.8375  ,2.4  ,5
5803  ,9.472e+08   ,-0.3  ,-2.4  ,5
5810  ,5.764e+09   ,2.4  ,1.6404  ,5
5836  ,9.770e+08   ,-2.5  ,1.3  ,4.9
5860  ,1.961e+08   ,2.5  ,-2.4  ,1.6
5866  ,1.251e+09   ,1.5  ,-2.5  ,0.1
5884  ,5.729e+08   ,-2.4  ,-0.3  ,5
5888  ,4.231e+08   ,-2.5  ,-0.5  ,4.9
5901  ,4.007e+08   ,2.3  ,-2.5  ,2.5
5908  ,7.987e+08   ,2.5  ,-2.4  ,1.2
5909  ,4.145e+08   ,2.5  ,-2.4  ,2
5934  ,1.970e+09   ,1.9  ,-2.5  ,4.9
5938  ,4.098e+09   ,1.933  ,-2.5  ,4.8
5948  ,1.718e+09   ,-2.4  ,-2.5  ,4.6
5950  ,1.969e+09   ,-2.4707  ,-2.4707  ,4.9
5951  ,2.071e+09   ,-2.5  ,-2.4  ,4.8
5952  ,1.401e+09   ,-2.5  ,-2.3  ,4.9
5986  ,5.057e+08   ,2.3  ,-2.5  ,3.7085
5990  ,2.895e+09   ,-0.92182  ,2.5  ,4.9
6019  ,7.649e+08   ,2.5  ,1.9  ,0.1
6025  ,6.700e+08   ,2.4  ,-1.3  ,0
6035  ,9.133e+08   ,-2.5  ,1.9  ,4.9
6044  ,2.090e+09   ,0.1  ,2.5  ,0.1
6054  ,5.352e+08   ,2.4  ,0.1  ,0
6070  ,4.572e+08   ,-2.4  ,2.3  ,0
6071  ,6.627e+08   ,-2.3  ,2.4  ,0
6076  ,9.836e+08   ,-2.4  ,2.1  ,0
6083  ,1.847e+09   ,2.1  ,-2.4  ,0
6084  ,4.574e+08   ,2.4  ,2.3  ,0
6087  ,4.154e+08   ,2.3  ,2.4  ,0
6092  ,7.685e+08   ,-2.4  ,-2.5  ,0.4
6096  ,5.762e+08   ,-2.3  ,-2.5  ,0.1
6099  ,8.492e+08   ,0.7  ,-2.5  ,0.1
6149  ,1.135e+09   ,-2.4  ,-0.9  ,0
6159  ,1.531e+09   ,-2.5  ,-2.4  ,2.6
6183  ,3.884e+09   ,1.2462  ,2.5  ,4.9
6224  ,2.986e+09   ,2.5  ,-2.4  ,4
6228  ,2.191e+09   ,2.4  ,-2.5  ,3.8
6237  ,1.937e+09   ,2.5  ,0.7  ,0.1
6241  ,1.881e+10   ,2.5  ,2.3333  ,4.6998
6245  ,2.332e+09   ,2.5  ,2.4  ,1.5782
6259  ,3.658e+09   ,2.5  ,-2.1044  ,4.9
6265  ,3.087e+09   ,2.3  ,-1.9804  ,4.8
6267  ,4.065e+09   ,2.5  ,-2.3015  ,4.9
6268  ,3.670e+09   ,2.4707  ,-2.4  ,4.9707
6270  ,3.724e+09   ,2.4  ,-2.1044  ,5
6317  ,2.779e+09   ,-2.3  ,0.2278  ,4.8
6349  ,2.908e+09   ,-0.52764  ,2.4  ,5
6391  ,2.795e+09   ,2.4  ,2.5  ,1.7753
6440  ,1.095e+09   ,-2.5  ,2.4  ,3.8
6471  ,2.779e+09   ,2.5  ,-0.92182  ,4.9
6489  ,3.480e+09   ,2.5  ,1.2462  ,4.9
6523  ,8.205e+08   ,-1.1  ,-2.4  ,0
6528  ,8.079e+08   ,-1.1  ,-2.5  ,0.1
6535  ,6.022e+08   ,-0.9  ,-2.4  ,0
6538  ,2.934e+09   ,1.5  ,-2.4  ,5
6541  ,2.286e+09   ,1.5  ,-2.5  ,4.9
6551  ,2.708e+09   ,2.5  ,-0.72473  ,4.9
6564  ,4.773e+10   ,2.1331  ,2.4973  ,4.923
6565  ,1.608e+10   ,2.0345  ,2.5  ,4.9
6572  ,8.997e+08   ,2.4  ,-1.7  ,0
6581  ,3.701e+09   ,0  ,2.3  ,0.2
6592  ,1.494e+09   ,2.3  ,-1.9695  ,0.2
6594  ,1.435e+09   ,0.3  ,2.4  ,0
6601  ,1.821e+09   ,0.5  ,2.5  ,0.1
6605  ,6.621e+08   ,-2.4  ,-1.3  ,0
6606  ,8.294e+08   ,-2.4  ,-1.1  ,0
6615  ,2.135e+09   ,-2.4  ,-0.3  ,0
6634  ,2.605e+09   ,2.1  ,-2.5  ,4.9
6635  ,4.249e+09   ,2.4  ,-2.4707  ,4.9707
6636  ,4.834e+09   ,2.3  ,-2.4  ,5
6647  ,7.799e+08   ,0.5  ,-2.5  ,0.1
6704  ,3.078e+08   ,-2.4707  ,2.4707  ,0.1
6708  ,6.151e+08   ,-2.5  ,2.4  ,0.2
6712  ,1.075e+09   ,-2.4  ,2.5  ,3.6
6715  ,1.524e+09   ,-2.4  ,2.5  ,3.4
6728  ,1.513e+09   ,-2.5  ,0.7  ,4.9
6753  ,6.407e+08   ,-2.1044  ,2.4  ,5
6788  ,1.091e+10   ,2.5  ,2.4  ,4.3375
6791  ,3.111e+09   ,-1.933  ,-2.5  ,4.8
6795  ,2.478e+10   ,2.1998  ,2.5  ,4.8333
6837  ,8.766e+07   ,-2.3  ,-2.5  ,0.8063
6869  ,3.162e+09   ,2.5  ,-1.7102  ,4.9
6873  ,3.728e+09   ,2.4  ,-1.9073  ,5
6880  ,2.900e+09   ,2.4  ,-0.92182  ,5
6885  ,2.751e+09   ,2.4  ,-0.52764  ,5
6893  ,3.254e+09   ,2.4  ,1.2462  ,5
6914  ,2.000e+09   ,0.7  ,2.5  ,0.1
6920  ,1.724e+09   ,0.9  ,2.4  ,0
6923  ,1.737e+09   ,0.7  ,2.4  ,0
6936  ,1.836e+09   ,2.4  ,-2.5  ,3.4
6939  ,5.535e+08   ,2.3  ,-2.5  ,3.2226
6961  ,1.131e+09   ,-0.1  ,-2.5  ,4.9
6967  ,9.580e+08   ,-2.5  ,-1.5  ,4.9
6975  ,1.217e+09   ,-2.4  ,1.1  ,5
6978  ,9.999e+08   ,-2.4  ,2.5  ,0.2
6987  ,2.866e+09   ,2.4  ,-1.316  ,5
6994  ,9.459e+08   ,2.4  ,-1.5  ,0
7004  ,2.008e+09   ,2.4  ,-2.5  ,3.6
7011  ,2.669e+09   ,2.4  ,0.65491  ,5
7016  ,2.445e+09   ,2.4  ,0.45782  ,5
7019  ,2.613e+09   ,2.5  ,2.4  ,2.1695
7021  ,2.704e+09   ,2.5  ,2.4  ,1.9724
7052  ,1.929e+09   ,-1.3  ,2.5  ,0.1
7054  ,4.045e+08   ,-2.4  ,-2.5  ,0.8
7057  ,8.594e+08   ,0.3  ,-2.5  ,0.1
7065  ,4.829e+08   ,0.24243  ,-2.5  ,0.2
7075  ,3.621e+10   ,2.4888  ,2.4325  ,4.6656
7113  ,9.221e+08   ,-2.4  ,-2.5  ,2.6
7121  ,8.424e+08   ,-2.4  ,-2.5  ,2.8
7126  ,1.894e+09   ,-2.5  ,-2.4  ,2.8
7128  ,8.995e+08   ,-2.4707  ,-2.4707  ,0.1
7129  ,8.923e+08   ,-2.4  ,-2.4707  ,0.029289
7141  ,2.300e+09   ,-1.7  ,-2.4  ,5
7145  ,1.306e+09   ,1.1  ,2.4  ,0
7163  ,1.182e+09   ,-1.7102  ,2.4  ,5
7172  ,3.629e+09   ,2.5  ,-2.4  ,3.2
7174  ,1.215e+09   ,-2.5  ,2.4  ,3.6
7183  ,1.419e+09   ,-1.4531  ,-2.5  ,4.8
7204  ,5.967e+09   ,2.3  ,-0.81068  ,4.8
7220  ,2.882e+09   ,2.5  ,0.063638  ,4.9
7227  ,1.341e+09   ,2.5  ,-1.9  ,0.1
7256  ,1.696e+09   ,-0.1  ,-2.4  ,5
7280  ,2.601e+09   ,-0.33054  ,2.4  ,5
7299  ,2.858e+09   ,2.5  ,-1.1189  ,4.9
7316  ,5.998e+08   ,-2.5  ,-2.4  ,0.8
7323  ,4.229e+08   ,-2.4  ,-2.5  ,1
7396  ,3.906e+09   ,1.1  ,-2.4  ,5
7400  ,2.101e+09   ,-2.5  ,0.7  ,0.1
7409  ,3.672e+09   ,1.3  ,-2.4  ,5
7420  ,8.033e+08   ,2.5  ,2.1  ,0.1
7429  ,9.935e+08   ,2.4  ,1.9  ,0
7436  ,1.157e+09   ,2.5  ,-1.7  ,0.1
7438  ,1.329e+09   ,2.4  ,-2.5  ,2.8
7445  ,3.013e+10   ,2.4325  ,2.1656  ,4.9888
7464  ,8.058e+08   ,2.5  ,-1.5  ,0.1
7480  ,2.390e+09   ,2.5  ,-2.4  ,0.2
7482  ,1.330e+09   ,1.9  ,-2.5  ,0.1
7483  ,1.336e+09   ,1.7  ,-2.5  ,0.1
7486  ,1.373e+09   ,1.9  ,-2.4  ,5
7488  ,2.029e+09   ,1.6937  ,-2.5  ,4.8
7492  ,4.675e+09   ,2.1  ,-2.4  ,5
7495  ,8.701e+08   ,0.1  ,-2.5  ,0.1
7504  ,1.933e+09   ,0.3  ,-2.4  ,0
7507  ,7.627e+08   ,0.9  ,-2.5  ,0.1
7533  ,2.050e+09   ,-2.5  ,0.9  ,0.1
7536  ,8.347e+08   ,-2.4  ,-2.5  ,3.2
7540  ,9.225e+08   ,-2.4  ,-2.5  ,3
7545  ,2.379e+09   ,-2.5  ,-2.4  ,3
7582  ,9.014e+08   ,1.3  ,2.5  ,0.1
7588  ,2.892e+09   ,2.5  ,2.4  ,2.3665
7598  ,1.017e+09   ,-2.5  ,2.4  ,4.2
7607  ,2.595e+09   ,1.5333  ,2.3  ,0.2
7627  ,1.108e+09   ,-2.5  ,1.1  ,4.9
7651  ,1.187e+09   ,2.4  ,-1.9  ,0
7656  ,6.862e+08   ,2.5  ,2.4  ,0.39564
7660  ,1.386e+10   ,2.2299  ,2.3  ,4.7299
7668  ,5.247e+08   ,1.4531  ,-2.5  ,4.8
7676  ,1.177e+09   ,0.1  ,-2.5  ,4.9
7683  ,2.410e+09   ,0.1  ,-2.4  ,5
7686  ,7.755e+08   ,-2.4  ,-1.1  ,5
7702  ,1.018e+09   ,-2.3  ,-2.5  ,4.433
7710  ,2.083e+09   ,-2.3  ,-2.5  ,4.6765
7752  ,3.913e+09   ,0.9  ,-2.4  ,5
7763  ,3.418e+08   ,0.24243  ,-2.5  ,4.8
7767  ,3.092e+09   ,-2.5  ,-2.4  ,3.2
7768  ,7.058e+08   ,-2.4  ,-2.1  ,0
7776  ,2.090e+09   ,-2.4  ,0.9  ,0
7786  ,1.106e+09   ,-0.4838  ,-2.5  ,4.8
7800  ,4.911e+09   ,2.5  ,-2.4  ,4.6
7805  ,6.088e+08   ,-2.5  ,-1.3  ,4.9
7811  ,5.632e+08   ,-2.5  ,-1.1  ,4.9
7820  ,1.527e+09   ,2.5  ,-2.1  ,0.1
7824  ,1.299e+09   ,2.4  ,-2.1  ,0
7828  ,2.325e+09   ,2.4  ,-2.5  ,4.2
7831  ,2.148e+09   ,2.4  ,-2.5  ,4
7838  ,1.542e+09   ,2.5  ,-2.4  ,4.2
7839  ,2.897e+09   ,2.5  ,2.4  ,2.7607
7840  ,3.138e+09   ,2.5  ,2.4  ,2.9578
7863  ,5.966e+08   ,-2.4  ,-1.5  ,0
7890  ,1.528e+09   ,2.4  ,0.9  ,0
7897  ,1.425e+09   ,-2.4  ,-0.7  ,0
7912  ,9.859e+08   ,-1.5  ,-2.4  ,0
7917  ,6.668e+08   ,-1.3  ,-2.5  ,0.1
7931  ,1.511e+09   ,0.5  ,2.4  ,0
7934  ,3.691e+09   ,1.1  ,-2.4  ,0
7937  ,1.028e+09   ,2.4  ,-2.5  ,0.8
7941  ,4.826e+08   ,-2.4  ,-2.5  ,0.6
7969  ,4.007e+08   ,-2.5  ,2.3  ,0.1
7971  ,1.303e+09   ,-2.4  ,1.9  ,0
7972  ,1.779e+09   ,-1.9  ,2.5  ,0.1
7978  ,2.021e+09   ,-2.4  ,1.1  ,0
7996  ,5.726e+08   ,-2.4  ,-0.5  ,5
8000  ,1.439e+08   ,-2.5  ,-2.4  ,0.6
8003  ,1.035e+09   ,-2.5  ,-2.4  ,0.4
8025  ,1.823e+09   ,0.9  ,2.5  ,0.1
8035  ,1.914e+09   ,0.3  ,2.5  ,0.1
8039  ,3.284e+09   ,2.3  ,-2.5  ,0.32348
8041  ,1.802e+09   ,2.3  ,-2.3379  ,0.2
8043  ,1.939e+09   ,2.1765  ,-2.5  ,0.2
8045  ,9.869e+08   ,-0.96359  ,-2.5  ,0.2
8054  ,9.954e+08   ,1.3  ,2.4  ,0
8058  ,1.247e+09   ,1.1  ,2.5  ,0.1
8062  ,1.880e+09   ,-2.5  ,2.4  ,1.4
8067  ,1.677e+09   ,-2.5  ,2.4  ,0.8
8087  ,1.720e+09   ,-2.5  ,1.5  ,0.1
8132  ,2.879e+09   ,-0.13345  ,2.4  ,5
8183  ,6.897e+08   ,2.5  ,-0.9  ,0.1
8184  ,1.653e+09   ,1.6937  ,-2.5  ,0.2
8214  ,1.512e+09   ,-2.4707  ,-2.4  ,4.9707
8217  ,2.988e+09   ,-2.1  ,-2.4  ,5
8219  ,1.620e+09   ,-2.4  ,-2.5  ,4.4
8227  ,3.405e+09   ,2.5  ,2.4  ,3.1549
8242  ,1.731e+09   ,0.7  ,-2.5  ,4.9
8248  ,4.179e+09   ,2.5  ,-2.4  ,3.6
8254  ,4.638e+08   ,2.5  ,-0.3  ,0.1
8256  ,4.211e+08   ,2.5  ,-0.5  ,0.1
8258  ,9.666e+08   ,-0.3  ,-2.5  ,4.9
8263  ,7.320e+08   ,-0.5  ,-2.5  ,4.9
8268  ,2.124e+09   ,-2.3  ,-2.5  ,3.7085
8277  ,9.827e+08   ,-0.1  ,-2.5  ,0.1
8285  ,1.900e+09   ,1.1  ,-2.5  ,4.9
8307  ,1.329e+09   ,0.1  ,2.4  ,0
8308  ,1.130e+09   ,-0.1  ,2.5  ,0.1
8309  ,1.246e+09   ,-0.1  ,2.4  ,0
8313  ,1.499e+09   ,2.5  ,-2.3  ,0.1
8318  ,3.132e+09   ,2.5  ,-2.4  ,3
8338  ,3.278e+09   ,2.5  ,2.4  ,3.352
8339  ,3.403e+09   ,2.4  ,2.5  ,3.1549
8344  ,1.543e+09   ,-2.5  ,2.4  ,3.4
8357  ,2.917e+10   ,2.4888  ,2.1656  ,4.9325
8358  ,1.453e+10   ,2.5  ,2.1998  ,4.8333
8383  ,7.065e+08   ,-1.7  ,-2.4  ,0
8396  ,8.847e+08   ,1.1  ,-2.5  ,0.1
8399  ,3.113e+10   ,2.4526  ,2.1331  ,4.9851
8405  ,1.750e+09   ,2.5  ,-2.4  ,1
8412  ,2.476e+09   ,2.3  ,-2.5  ,0.8063
8417  ,4.531e+08   ,-2.3  ,-2.5  ,2.5
8434  ,7.823e+08   ,0.9636  ,-2.5  ,4.8
8438  ,1.070e+09   ,-0.3  ,-2.5  ,0.1
8452  ,7.100e+08   ,-2.4  ,-0.1  ,5
8468  ,4.119e+09   ,2.5  ,2.4  ,3.7462
8471  ,5.899e+08   ,-1.3  ,-2.5  ,4.9
8493  ,3.272e+08   ,-1.1  ,-2.5  ,4.9
8509  ,4.553e+08   ,-2.5  ,-1.7  ,0.1
8517  ,1.511e+09   ,-2.4  ,2.5  ,3
8531  ,1.533e+09   ,-2.4  ,1.7  ,0
8556  ,3.790e+09   ,2.5  ,2.4  ,3.5491
8573  ,2.347e+09   ,-1.316  ,2.4  ,5
8576  ,1.914e+09   ,-2.4  ,1.3  ,0
8611  ,2.713e+08   ,2.3  ,-2.5  ,1.2915
8618  ,8.952e+08   ,-2.4  ,2.5  ,4
8646  ,2.053e+09   ,-2.5  ,1.1  ,0.1
8656  ,9.607e+08   ,2.5  ,-1.3  ,0.1
8657  ,7.431e+08   ,2.4  ,2.1  ,0
8673  ,1.690e+09   ,-1.3  ,2.4  ,0
8692  ,6.847e+08   ,0.72263  ,-2.5  ,4.8
8696  ,1.179e+09   ,2.3  ,-2.5  ,1.0469
8706  ,2.529e+09   ,2.5  ,0.65491  ,4.9
8721  ,8.122e+08   ,-2.4  ,-2.5  ,1.6
8725  ,3.360e+09   ,0.65491  ,2.4  ,5
8739  ,3.442e+10   ,2.1656  ,2.4325  ,4.9888
8741  ,2.009e+10   ,2.1998  ,2.3333  ,5
8746  ,9.493e+08   ,-2.1  ,-2.4  ,0
8748  ,9.613e+08   ,-2.5  ,-2.4  ,1.2
8752  ,4.446e+10   ,2.1331  ,2.4526  ,4.9851
8759  ,1.544e+08   ,-2.3  ,-2.5  ,1.0469
8787  ,1.145e+09   ,-0.1  ,-2.4  ,0
8793  ,9.423e+08   ,-2.3  ,-2.5  ,2.2576
8795  ,9.875e+08   ,-2.4  ,-2.5  ,2.4
8798  ,1.619e+09   ,-2.3  ,-2.5  ,4.1937
8808  ,2.142e+09   ,-2.3  ,-2.5  ,3.9531
8814  ,1.319e+09   ,-2.4  ,-1.5  ,5
8849  ,4.394e+08   ,0.4838  ,-2.5  ,4.8
8851  ,1.404e+09   ,-2.4  ,-2.5  ,4.2
8868  ,1.528e+09   ,2.4  ,-2.5  ,3
8874  ,3.541e+09   ,0.852  ,2.4  ,5
8883  ,3.107e+08   ,-0.5  ,-2.4  ,5
8886  ,1.165e+09   ,-0.72262  ,-2.5  ,4.8
8893  ,6.031e+08   ,-0.7  ,-2.5  ,4.9
8897  ,3.576e+09   ,-2.5  ,-2.4  ,3.6
8899  ,1.999e+09   ,-2.3  ,-2.5  ,3.4636
8900  ,4.818e+08   ,-2.3  ,-1.4729  ,0.2
8906  ,7.176e+08   ,-2.5  ,-1.3  ,0.1
8910  ,3.418e+09   ,0.852  ,2.5  ,4.9
8925  ,1.977e+09   ,-2.4  ,2.5  ,1.4
8941  ,3.279e+08   ,2.4707  ,2.4  ,0.029289
8942  ,5.614e+08   ,2.5  ,2.3  ,0.1
8945  ,9.966e+08   ,-2.5  ,0.1  ,4.9
8950  ,2.954e+08   ,2.4707  ,2.4707  ,0.1
8951  ,2.317e+08   ,2.4  ,2.4707  ,0.029289
8959  ,2.252e+09   ,2.4  ,0.26073  ,5
8965  ,3.001e+09   ,0.45782  ,2.4  ,5
8978  ,2.209e+09   ,2.4  ,0.852  ,5
8983  ,7.941e+08   ,2.5  ,-1.1  ,0.1
8991  ,1.488e+09   ,-2.5  ,2.4  ,0.6
9008  ,2.388e+09   ,2.5  ,0.852  ,4.9
9011  ,1.763e+09   ,-2.4  ,-0.5  ,0
9025  ,4.960e+08   ,-1.5  ,-2.5  ,0.1
9038  ,8.614e+08   ,2.4  ,-2.5  ,2
9041  ,1.875e+09   ,2.5  ,0.9  ,0.1
9050  ,1.272e+09   ,2.5  ,0.5  ,0.1
9054  ,3.423e+09   ,0.9  ,-2.4  ,0
9060  ,7.833e+08   ,2.4  ,-2.5  ,0.4
9062  ,3.274e+09   ,2.3  ,-2.5  ,0.56701
9064  ,3.178e+09   ,2.5  ,-2.4  ,0.4
9069  ,2.311e+08   ,2.4  ,-2.5  ,0.6
9071  ,2.206e+09   ,1.4531  ,-2.5  ,0.2
9082  ,1.730e+08   ,-2.3  ,-2.5  ,1.2915
9086  ,6.450e+08   ,-2.4  ,-2.5  ,1.4
9091  ,7.337e+08   ,-2.5  ,-2.4  ,1.4
9094  ,1.944e+09   ,1.3  ,-2.5  ,4.9
9097  ,1.019e+09   ,-0.7  ,-2.5  ,0.1
9137  ,4.924e+08   ,-2.5  ,-0.7  ,4.9
9143  ,6.026e+08   ,-2.5  ,-0.1  ,4.9
9146  ,1.208e+09   ,-2.1  ,2.4  ,0
9148  ,9.256e+08   ,-2.5  ,1.7  ,4.9
9173  ,1.427e+09   ,-2.5  ,2.4  ,3
9192  ,4.339e+08   ,-0.7  ,-2.4  ,5
9195  ,1.925e+09   ,0.72263  ,-2.5  ,0.2
9209  ,3.962e+09   ,2.5  ,-2.4  ,3.4
9215  ,2.052e+09   ,0.9636  ,-2.5  ,0.2
9217  ,1.749e+09   ,2.4  ,-2.5  ,3.2
9218  ,6.142e+08   ,-0.96359  ,-2.5  ,4.8
9229  ,1.517e+09   ,-2.4  ,2.5  ,2.8
9248  ,4.230e+09   ,2.3  ,-2.5  ,4.433
9255  ,1.075e+09   ,2.5  ,1.3  ,0.1
9257  ,8.918e+08   ,2.4  ,1.5  ,0
9262  ,2.948e+09   ,0.5  ,-2.4  ,5
9264  ,2.285e+09   ,2.4  ,-0.13345  ,5
9272  ,2.658e+09   ,0.063638  ,2.4  ,5
9277  ,1.860e+09   ,-2.5  ,2.4  ,1.2
9279  ,2.532e+09   ,2.5  ,0.26073  ,4.9
9282  ,4.888e+08   ,1.2085  ,-2.5  ,4.8
9286  ,1.759e+09   ,0.9  ,-2.5  ,4.9
9292  ,2.473e+08   ,-2.4  ,2.4707  ,4.9707
9293  ,2.558e+08   ,-2.3015  ,2.4  ,5
9296  ,1.419e+09   ,-2.4  ,-2.1  ,5
9303  ,1.468e+09   ,-2.4  ,-1.9  ,5
9311  ,4.857e+08   ,-2.4  ,2.3  ,5
9313  ,8.636e+08   ,-2.4  ,0.1  ,5
9319  ,3.976e+08   ,-0.5  ,-2.4  ,0
9328  ,8.289e+08   ,-2.3  ,-2.5  ,1.5364
9334  ,1.045e+09   ,-2.3  ,2.5  ,0.1
9338  ,1.197e+09   ,-2.5  ,-2.4  ,2.4
9339  ,1.862e+09   ,-2.5  ,1.3  ,0.1
9341  ,1.983e+08   ,-2.3  ,-2.5  ,2.7424
9344  ,8.105e+08   ,-2.5  ,-2.4  ,2.2
9358  ,5.040e+09   ,-2.3  ,2.3  ,2.5
9364  ,1.315e+09   ,-2.5  ,-2.1  ,4.9
9367  ,1.629e+09   ,-2.4  ,-2.3  ,5
9374  ,9.547e+08   ,-2.4  ,-1.3  ,5
9378  ,1.470e+09   ,-2.5  ,2.4  ,1.8
9384  ,1.279e+09   ,2.3  ,-2.5  ,2.0162
9385  ,9.852e+08   ,-2.5  ,2.4  ,4.4
9389  ,1.408e+09   ,-2.5  ,2.4  ,2
9395  ,3.698e+09   ,2.4  ,-2.3015  ,5
9396  ,4.966e+08   ,-2.4  ,-1.7  ,0
9407  ,2.178e+09   ,-2.3  ,-1.4729  ,4.8
9411  ,8.117e+08   ,-2.5  ,-1.7  ,4.9
9423  ,8.413e+08   ,-2.4  ,-2.5  ,3.6
9432  ,3.653e+09   ,0.7  ,-2.4  ,5
9438  ,4.973e+08   ,-2.5  ,-0.9  ,4.9
9443  ,4.631e+08   ,-2.5  ,-0.3  ,4.9
9445  ,2.857e+08   ,-2.4707  ,2.4  ,4.9707
9448  ,2.678e+09   ,2.4  ,-1.1189  ,5
9453  ,1.649e+09   ,2.4  ,0.7  ,0
9455  ,2.322e+09   ,2.5  ,-2.4  ,2.6
9457  ,3.555e+08   ,2.3  ,-2.5  ,2.9838
9494  ,1.990e+09   ,-2.4  ,2.5  ,1
9500  ,1.301e+09   ,0.3  ,-2.5  ,4.9
9504  ,2.663e+09   ,0.3  ,-2.4  ,5
9506  ,1.311e+09   ,2.1  ,-2.5  ,0.1
9518  ,5.835e+08   ,-1.9  ,-2.5  ,0.1
9528  ,1.503e+09   ,2.3  ,-2.5  ,0.1
9531  ,2.329e+09   ,2.4707  ,-2.4707  ,0.1
9533  ,1.464e+09   ,2.4707  ,-2.4  ,0.029289
9534  ,1.878e+09   ,2.4  ,-2.4707  ,0.029289
9541  ,1.559e+09   ,0.5  ,-2.5  ,4.9
9544  ,1.085e+09   ,-0.5  ,-2.5  ,0.1
9559  ,1.030e+09   ,-2.5  ,-1.9  ,4.9
9562  ,8.385e+08   ,-2.5  ,2.4  ,4.6
9565  ,1.580e+09   ,-2.4  ,2.5  ,2
9571  ,3.525e+09   ,-2.5  ,-2.4  ,3.8
9574  ,8.299e+08   ,-2.4  ,-2.5  ,3.8
9577  ,9.952e+08   ,1.3  ,-2.5  ,0.1
9582  ,1.168e+09   ,-2.5  ,-0.9  ,0.1
9596  ,6.809e+08   ,2.1  ,2.4  ,0
9598  ,1.699e+09   ,-2.4  ,2.5  ,3.2
9602  ,8.755e+08   ,1.5  ,2.5  ,0.1
9610  ,6.642e+08   ,2.4  ,2.5  ,0.39564
9612  ,3.068e+09   ,-0.72473  ,2.5  ,4.9
9614  ,8.661e+08   ,1.7  ,2.5  ,0.1
9635  ,9.064e+08   ,2.5  ,1.7  ,0.1
9646  ,4.650e+08   ,2.3  ,2.5  ,0.1
9651  ,3.522e+10   ,2.1656  ,2.4888  ,4.9325
9653  ,2.774e+09   ,2.5  ,-1.316  ,4.9
9656  ,1.182e+09   ,-2.4  ,-1.7  ,5
9659  ,7.798e+09   ,2.3  ,-2.5  ,4.6765
9661  ,5.400e+08   ,2.3  ,-2.5  ,3.9531
9664  ,2.276e+09   ,-2.3  ,-2.4  ,5
9666  ,1.227e+09   ,1.9  ,-2.4  ,0
9677  ,1.186e+09   ,2.4  ,0.5  ,0
9678  ,9.144e+08   ,-2.5  ,-1.1  ,0.1
9680  ,2.229e+09   ,2.5  ,2.4  ,1.184
9681  ,4.248e+08   ,2.5  ,2.4  ,0.19855
9696  ,1.413e+09   ,-2.3  ,-2.5  ,2.0162
9698  ,1.461e+09   ,2.4  ,-2.3  ,0
9699  ,1.079e+09   ,-0.24243  ,-2.5  ,0.2
9701  ,1.457e+09   ,0.1  ,-2.4  ,0
9704  ,1.610e+09   ,-0.4838  ,-2.5  ,0.2
9718  ,1.546e+09   ,-0.72262  ,-2.5  ,0.2
9726  ,2.277e+09   ,2.3  ,-0.76628  ,0.2
9727  ,1.319e+09   ,-2.5  ,2.4  ,0.4
9730  ,3.767e+08   ,1.9433E-06  ,-2.5  ,4.8
9731  ,5.689e+08   ,-0.24243  ,-2.5  ,4.8
9732  ,1.279e+09   ,-2.5  ,2.4  ,2.2
9738  ,3.124e+09   ,-2.5  ,-2.4  ,4
9743  ,2.438e+09   ,-1.6937  ,-2.5  ,4.8
9744  ,9.079e+08   ,-2.4  ,-2.5  ,4
9750  ,3.869e+08   ,-1.7  ,-2.5  ,0.1
9752  ,1.215e+08   ,-1.6937  ,-2.5  ,0.2
9754  ,9.685e+08   ,-1.3  ,-2.4  ,0
9759  ,1.853e+08   ,-2.4707  ,2.4  ,0.029289
9760  ,2.576e+08   ,-2.4  ,2.4707  ,0.029289
9768  ,2.044e+09   ,2.3  ,-2.5  ,4.1937
9770  ,4.289e+08   ,1.9433E-06  ,-2.5  ,0.2
9771  ,1.421e+09   ,0.4838  ,-2.5  ,0.2
9772  ,1.557e+09   ,2.4  ,-2.5  ,0.2
9773  ,2.807e+09   ,2.4  ,-2.5  ,4.6
9776  ,2.248e+09   ,2.4  ,0.063638  ,5
9780  ,3.407e+09   ,0.65491  ,2.5  ,4.9
9781  ,3.811e+08   ,2.4  ,2.5  ,0.19855
9782  ,9.422e+08   ,-2.3  ,-2.5  ,2.9838
9786  ,3.956e+08   ,-1.2085  ,-2.5  ,0.2
9787  ,1.241e+08   ,-1.4531  ,-2.5  ,0.2
9790  ,1.883e+09   ,2.3  ,-2.4  ,0
9793  ,1.685e+10   ,2.0345  ,2.4  ,5
9797  ,6.294e+08   ,2.3  ,-2.5  ,1.5364
9798  ,2.469e+09   ,2.4  ,1.0491  ,5
9809  ,3.468e+09   ,2.4  ,2.5  ,3.352
