Date:  12:56, Monday, July 10, 2023
Model name: Hollow_DropBox
Study name: DropTest_300fts(-Default-)
Plot type:  Stress1
Plot step: 21   time : 110.204 Microseconds
Result Type: von Mises 


Node  ,Value (N/m^2)  ,X (in)  ,Y (in)  ,Z (in)
1  ,8.284e+09   ,2.5  ,2.1331  ,4.9
2  ,2.494e+10   ,2.4577  ,2.1908  ,4.9577
3  ,1.855e+10   ,2.4894  ,2.1331  ,4.9447
4  ,2.829e+10   ,2.1331  ,2.5  ,4.9
5  ,4.981e+10   ,2.1331  ,2.4894  ,4.9447
6  ,2.332e+10   ,2.1908  ,2.4577  ,4.9577
7  ,3.711e+08   ,-2.4  ,2.4  ,5
8  ,3.281e+09   ,-2.4  ,-2.4  ,5
9  ,5.421e+09   ,2.4  ,-2.4  ,5
10  ,7.794e+09   ,2.4  ,2.1331  ,5
11  ,2.062e+10   ,2.1331  ,2.4  ,5
12  ,5.845e+09   ,2.5  ,-2.4  ,4.9
13  ,3.114e+09   ,2.5  ,-2.4  ,0.1
14  ,3.766e+08   ,2.5  ,2.4  ,0.1
15  ,2.073e+10   ,2.5  ,2.4  ,4.6331
16  ,3.572e+08   ,2.4  ,2.5  ,0.1
17  ,6.556e+08   ,-2.4  ,2.5  ,0.1
18  ,2.415e+08   ,-2.4  ,2.5  ,4.9
19  ,2.838e+10   ,2.4  ,2.5  ,4.6331
20  ,3.746e+08   ,-2.5  ,2.4  ,0.1
21  ,2.195e+08   ,-2.5  ,-2.4  ,0.1
22  ,2.175e+09   ,-2.5  ,-2.4  ,4.9
23  ,4.913e+08   ,-2.5  ,2.4  ,4.9
24  ,1.137e+09   ,-2.3  ,-2.5  ,0.2
25  ,2.119e+09   ,-2.3  ,-2.5  ,4.8
26  ,5.357e+09   ,2.3  ,-2.5  ,4.8
27  ,2.293e+09   ,2.3  ,-2.5  ,0.2
28  ,3.003e+09   ,-2.4  ,-2.5  ,4.9
29  ,5.391e+09   ,2.4  ,-2.5  ,4.9
30  ,1.671e+08   ,-2.4  ,-2.5  ,0.1
31  ,3.099e+09   ,2.4  ,-2.5  ,0.1
32  ,2.381e+09   ,2.4  ,-2.4  ,0
33  ,4.258e+08   ,2.4  ,2.4  ,0
34  ,3.327e+08   ,-2.4  ,-2.4  ,0
35  ,4.858e+08   ,-2.4  ,2.4  ,0
36  ,3.055e+10   ,2.4577  ,2.4577  ,4.6908
37  ,9.708e+08   ,-2.3  ,2.3  ,4.8
38  ,1.316e+10   ,2.1599  ,2.3  ,4.8
39  ,1.222e+10   ,2.3  ,2.1599  ,4.8
40  ,1.314e+10   ,2.3  ,2.3  ,4.6599
41  ,9.822e+08   ,2.3  ,2.3  ,0.2
42  ,8.435e+08   ,-2.3  ,2.3  ,0.2
43  ,9.310e+08   ,-2.4  ,2.2  ,5
44  ,1.218e+09   ,-2.4  ,2  ,5
45  ,1.265e+09   ,-2.4  ,1.8  ,5
46  ,1.225e+09   ,-2.4  ,1.6  ,5
47  ,1.172e+09   ,-2.4  ,1.4  ,5
48  ,1.316e+09   ,-2.4  ,1.2  ,5
49  ,1.581e+09   ,-2.4  ,1  ,5
50  ,1.882e+09   ,-2.4  ,0.8  ,5
51  ,1.112e+09   ,-2.4  ,0.6  ,5
52  ,9.064e+08   ,-2.4  ,0.4  ,5
53  ,1.026e+09   ,-2.4  ,0.2  ,5
54  ,1.057e+09   ,-2.4  ,5.8879E-16  ,5
55  ,8.643e+08   ,-2.4  ,-0.2  ,5
56  ,5.434e+08   ,-2.4  ,-0.4  ,5
57  ,3.802e+08   ,-2.4  ,-0.6  ,5
58  ,4.582e+08   ,-2.4  ,-0.8  ,5
59  ,8.383e+08   ,-2.4  ,-1  ,5
60  ,8.785e+08   ,-2.4  ,-1.2  ,5
61  ,1.641e+09   ,-2.4  ,-1.4  ,5
62  ,1.492e+09   ,-2.4  ,-1.6  ,5
63  ,1.511e+09   ,-2.4  ,-1.8  ,5
64  ,2.136e+09   ,-2.4  ,-2  ,5
65  ,1.918e+09   ,-2.4  ,-2.2  ,5
66  ,4.162e+09   ,-2.2  ,-2.4  ,5
67  ,3.030e+09   ,-2  ,-2.4  ,5
68  ,2.405e+09   ,-1.8  ,-2.4  ,5
69  ,1.558e+09   ,-1.6  ,-2.4  ,5
70  ,1.358e+09   ,-1.4  ,-2.4  ,5
71  ,1.340e+09   ,-1.2  ,-2.4  ,5
72  ,1.083e+09   ,-1  ,-2.4  ,5
73  ,9.408e+08   ,-0.8  ,-2.4  ,5
74  ,1.054e+09   ,-0.6  ,-2.4  ,5
75  ,1.566e+09   ,-0.4  ,-2.4  ,5
76  ,1.882e+09   ,-0.2  ,-2.4  ,5
77  ,2.514e+09   ,-5.8879E-16  ,-2.4  ,5
78  ,3.144e+09   ,0.2  ,-2.4  ,5
79  ,3.497e+09   ,0.4  ,-2.4  ,5
80  ,4.226e+09   ,0.6  ,-2.4  ,5
81  ,4.184e+09   ,0.8  ,-2.4  ,5
82  ,4.036e+09   ,1  ,-2.4  ,5
83  ,3.612e+09   ,1.2  ,-2.4  ,5
84  ,2.855e+09   ,1.4  ,-2.4  ,5
85  ,1.515e+09   ,1.6  ,-2.4  ,5
86  ,2.023e+09   ,1.8  ,-2.4  ,5
87  ,3.249e+09   ,2  ,-2.4  ,5
88  ,8.544e+09   ,2.2  ,-2.4  ,5
89  ,4.821e+09   ,2.4  ,-2.2029  ,5
90  ,5.377e+09   ,2.4  ,-2.0058  ,5
91  ,4.187e+09   ,2.4  ,-1.8087  ,5
92  ,3.885e+09   ,2.4  ,-1.6116  ,5
93  ,4.227e+09   ,2.4  ,-1.4145  ,5
94  ,3.643e+09   ,2.4  ,-1.2175  ,5
95  ,3.973e+09   ,2.4  ,-1.0204  ,5
96  ,3.853e+09   ,2.4  ,-0.82327  ,5
97  ,3.821e+09   ,2.4  ,-0.62618  ,5
98  ,3.274e+09   ,2.4  ,-0.42909  ,5
99  ,3.128e+09   ,2.4  ,-0.232  ,5
100  ,2.707e+09   ,2.4  ,-0.034907  ,5
101  ,2.278e+09   ,2.4  ,0.16218  ,5
102  ,2.138e+09   ,2.4  ,0.35927  ,5
103  ,2.652e+09   ,2.4  ,0.55637  ,5
104  ,2.303e+09   ,2.4  ,0.75346  ,5
105  ,1.983e+09   ,2.4  ,0.95055  ,5
106  ,2.448e+09   ,2.4  ,1.1476  ,5
107  ,3.247e+09   ,2.4  ,1.3447  ,5
108  ,4.208e+09   ,2.4  ,1.5418  ,5
109  ,5.269e+09   ,2.4  ,1.7389  ,5
110  ,7.109e+09   ,2.4  ,1.936  ,5
111  ,1.138e+10   ,2.2665  ,2.2665  ,5
112  ,1.126e+10   ,1.936  ,2.4  ,5
113  ,6.066e+09   ,1.7389  ,2.4  ,5
114  ,4.625e+09   ,1.5418  ,2.4  ,5
115  ,3.324e+09   ,1.3447  ,2.4  ,5
116  ,2.699e+09   ,1.1476  ,2.4  ,5
117  ,2.831e+09   ,0.95055  ,2.4  ,5
118  ,2.697e+09   ,0.75346  ,2.4  ,5
119  ,2.933e+09   ,0.55637  ,2.4  ,5
120  ,2.471e+09   ,0.35927  ,2.4  ,5
121  ,2.432e+09   ,0.16218  ,2.4  ,5
122  ,2.651e+09   ,-0.034907  ,2.4  ,5
123  ,3.075e+09   ,-0.232  ,2.4  ,5
124  ,2.993e+09   ,-0.42909  ,2.4  ,5
125  ,2.471e+09   ,-0.62618  ,2.4  ,5
126  ,3.409e+09   ,-0.82327  ,2.4  ,5
127  ,3.594e+09   ,-1.0204  ,2.4  ,5
128  ,3.598e+09   ,-1.2175  ,2.4  ,5
129  ,2.850e+09   ,-1.4145  ,2.4  ,5
130  ,1.966e+09   ,-1.6116  ,2.4  ,5
131  ,1.235e+09   ,-1.8087  ,2.4  ,5
132  ,9.330e+08   ,-2.0058  ,2.4  ,5
133  ,5.960e+08   ,-2.2029  ,2.4  ,5
294  ,4.067e+09   ,2.5  ,-2.2029  ,4.9
295  ,5.153e+09   ,2.5  ,-2.0058  ,4.9
296  ,4.139e+09   ,2.5  ,-1.8087  ,4.9
297  ,4.331e+09   ,2.5  ,-1.6116  ,4.9
298  ,3.607e+09   ,2.5  ,-1.4145  ,4.9
299  ,3.603e+09   ,2.5  ,-1.2175  ,4.9
300  ,4.013e+09   ,2.5  ,-1.0204  ,4.9
301  ,3.107e+09   ,2.5  ,-0.82327  ,4.9
302  ,3.571e+09   ,2.5  ,-0.62618  ,4.9
303  ,3.390e+09   ,2.5  ,-0.42909  ,4.9
304  ,3.761e+09   ,2.5  ,-0.232  ,4.9
305  ,3.930e+09   ,2.5  ,-0.034907  ,4.9
306  ,2.874e+09   ,2.5  ,0.16218  ,4.9
307  ,2.420e+09   ,2.5  ,0.35927  ,4.9
308  ,2.425e+09   ,2.5  ,0.55637  ,4.9
309  ,2.487e+09   ,2.5  ,0.75346  ,4.9
310  ,2.384e+09   ,2.5  ,0.95055  ,4.9
311  ,2.837e+09   ,2.5  ,1.1476  ,4.9
312  ,3.371e+09   ,2.5  ,1.3447  ,4.9
313  ,4.101e+09   ,2.5  ,1.5418  ,4.9
314  ,5.701e+09   ,2.5  ,1.7389  ,4.9
315  ,7.849e+09   ,2.5  ,1.936  ,4.9
316  ,8.594e+09   ,2.5  ,-2.4  ,4.7
317  ,3.180e+09   ,2.5  ,-2.4  ,4.5
318  ,2.046e+09   ,2.5  ,-2.4  ,4.3
319  ,1.613e+09   ,2.5  ,-2.4  ,4.1
320  ,2.809e+09   ,2.5  ,-2.4  ,3.9
321  ,3.835e+09   ,2.5  ,-2.4  ,3.7
322  ,4.369e+09   ,2.5  ,-2.4  ,3.5
323  ,4.292e+09   ,2.5  ,-2.4  ,3.3
324  ,4.167e+09   ,2.5  ,-2.4  ,3.1
325  ,3.640e+09   ,2.5  ,-2.4  ,2.9
326  ,3.183e+09   ,2.5  ,-2.4  ,2.7
327  ,2.522e+09   ,2.5  ,-2.4  ,2.5
328  ,1.875e+09   ,2.5  ,-2.4  ,2.3
329  ,1.619e+09   ,2.5  ,-2.4  ,2.1
330  ,1.227e+09   ,2.5  ,-2.4  ,1.9
331  ,9.021e+08   ,2.5  ,-2.4  ,1.7
332  ,7.568e+08   ,2.5  ,-2.4  ,1.5
333  ,1.009e+09   ,2.5  ,-2.4  ,1.3
334  ,1.256e+09   ,2.5  ,-2.4  ,1.1
335  ,1.436e+09   ,2.5  ,-2.4  ,0.9
336  ,2.125e+09   ,2.5  ,-2.4  ,0.7
337  ,2.819e+09   ,2.5  ,-2.4  ,0.5
338  ,3.895e+09   ,2.5  ,-2.4  ,0.3
339  ,1.879e+09   ,2.5  ,-2.2  ,0.1
340  ,2.073e+09   ,2.5  ,-2  ,0.1
341  ,1.385e+09   ,2.5  ,-1.8  ,0.1
342  ,1.307e+09   ,2.5  ,-1.6  ,0.1
343  ,8.517e+08   ,2.5  ,-1.4  ,0.1
344  ,8.244e+08   ,2.5  ,-1.2  ,0.1
345  ,7.383e+08   ,2.5  ,-1  ,0.1
346  ,4.109e+08   ,2.5  ,-0.8  ,0.1
347  ,4.467e+08   ,2.5  ,-0.6  ,0.1
348  ,2.167e+08   ,2.5  ,-0.4  ,0.1
349  ,4.716e+08   ,2.5  ,-0.2  ,0.1
350  ,5.708e+08   ,2.5  ,-1.7664E-15  ,0.1
351  ,6.870e+08   ,2.5  ,0.2  ,0.1
352  ,9.640e+08   ,2.5  ,0.4  ,0.1
353  ,1.515e+09   ,2.5  ,0.6  ,0.1
354  ,2.214e+09   ,2.5  ,0.8  ,0.1
355  ,1.641e+09   ,2.5  ,1  ,0.1
356  ,1.513e+09   ,2.5  ,1.2  ,0.1
357  ,1.269e+09   ,2.5  ,1.4  ,0.1
358  ,1.223e+09   ,2.5  ,1.6  ,0.1
359  ,1.028e+09   ,2.5  ,1.8  ,0.1
360  ,1.063e+09   ,2.5  ,2  ,0.1
361  ,8.834e+08   ,2.5  ,2.2  ,0.1
362  ,1.210e+10   ,2.5  ,2.4  ,4.436
363  ,7.511e+09   ,2.5  ,2.4  ,4.2389
364  ,4.342e+09   ,2.5  ,2.4  ,4.0418
365  ,3.652e+09   ,2.5  ,2.4  ,3.8447
366  ,2.814e+09   ,2.5  ,2.4  ,3.6476
367  ,2.558e+09   ,2.5  ,2.4  ,3.4505
368  ,2.504e+09   ,2.5  ,2.4  ,3.2535
369  ,2.731e+09   ,2.5  ,2.4  ,3.0564
370  ,2.608e+09   ,2.5  ,2.4  ,2.8593
371  ,2.443e+09   ,2.5  ,2.4  ,2.6622
372  ,2.919e+09   ,2.5  ,2.4  ,2.4651
373  ,2.929e+09   ,2.5  ,2.4  ,2.268
374  ,3.114e+09   ,2.5  ,2.4  ,2.0709
375  ,3.081e+09   ,2.5  ,2.4  ,1.8738
376  ,3.354e+09   ,2.5  ,2.4  ,1.6767
377  ,2.878e+09   ,2.5  ,2.4  ,1.4796
378  ,3.069e+09   ,2.5  ,2.4  ,1.2825
379  ,2.860e+09   ,2.5  ,2.4  ,1.0855
380  ,2.531e+09   ,2.5  ,2.4  ,0.88836
381  ,1.981e+09   ,2.5  ,2.4  ,0.69127
382  ,9.801e+08   ,2.5  ,2.4  ,0.49418
383  ,6.904e+08   ,2.5  ,2.4  ,0.29709
384  ,1.131e+10   ,2.5  ,2.2665  ,4.7665
544  ,1.011e+09   ,2.2  ,2.5  ,0.1
545  ,1.300e+09   ,2  ,2.5  ,0.1
546  ,1.355e+09   ,1.8  ,2.5  ,0.1
547  ,1.565e+09   ,1.6  ,2.5  ,0.1
548  ,1.331e+09   ,1.4  ,2.5  ,0.1
549  ,1.591e+09   ,1.2  ,2.5  ,0.1
550  ,1.891e+09   ,1  ,2.5  ,0.1
551  ,2.621e+09   ,0.8  ,2.5  ,0.1
552  ,2.009e+09   ,0.6  ,2.5  ,0.1
553  ,1.246e+09   ,0.4  ,2.5  ,0.1
554  ,1.082e+09   ,0.2  ,2.5  ,0.1
555  ,8.576e+08   ,5.8879E-16  ,2.5  ,0.1
556  ,1.605e+09   ,-0.2  ,2.5  ,0.1
557  ,1.415e+09   ,-0.4  ,2.5  ,0.1
558  ,1.452e+09   ,-0.6  ,2.5  ,0.1
559  ,2.205e+09   ,-0.8  ,2.5  ,0.1
560  ,2.163e+09   ,-1  ,2.5  ,0.1
561  ,2.283e+09   ,-1.2  ,2.5  ,0.1
562  ,2.033e+09   ,-1.4  ,2.5  ,0.1
563  ,2.014e+09   ,-1.6  ,2.5  ,0.1
564  ,1.941e+09   ,-1.8  ,2.5  ,0.1
565  ,1.786e+09   ,-2  ,2.5  ,0.1
566  ,1.370e+09   ,-2.2  ,2.5  ,0.1
567  ,7.036e+08   ,-2.4  ,2.5  ,4.7
568  ,1.213e+09   ,-2.4  ,2.5  ,4.5
569  ,1.342e+09   ,-2.4  ,2.5  ,4.3
570  ,1.536e+09   ,-2.4  ,2.5  ,4.1
571  ,1.286e+09   ,-2.4  ,2.5  ,3.9
572  ,1.342e+09   ,-2.4  ,2.5  ,3.7
573  ,1.771e+09   ,-2.4  ,2.5  ,3.5
574  ,2.508e+09   ,-2.4  ,2.5  ,3.3
575  ,1.758e+09   ,-2.4  ,2.5  ,3.1
576  ,1.264e+09   ,-2.4  ,2.5  ,2.9
577  ,1.289e+09   ,-2.4  ,2.5  ,2.7
578  ,1.169e+09   ,-2.4  ,2.5  ,2.5
579  ,1.283e+09   ,-2.4  ,2.5  ,2.3
580  ,1.463e+09   ,-2.4  ,2.5  ,2.1
581  ,1.531e+09   ,-2.4  ,2.5  ,1.9
582  ,1.896e+09   ,-2.4  ,2.5  ,1.7
583  ,2.000e+09   ,-2.4  ,2.5  ,1.5
584  ,2.152e+09   ,-2.4  ,2.5  ,1.3
585  ,2.102e+09   ,-2.4  ,2.5  ,1.1
586  ,2.126e+09   ,-2.4  ,2.5  ,0.9
587  ,1.940e+09   ,-2.4  ,2.5  ,0.7
588  ,1.712e+09   ,-2.4  ,2.5  ,0.5
589  ,1.381e+09   ,-2.4  ,2.5  ,0.3
590  ,1.337e+10   ,1.936  ,2.5  ,4.9
591  ,5.601e+09   ,1.7389  ,2.5  ,4.9
592  ,4.103e+09   ,1.5418  ,2.5  ,4.9
593  ,3.307e+09   ,1.3447  ,2.5  ,4.9
594  ,2.604e+09   ,1.1476  ,2.5  ,4.9
595  ,2.710e+09   ,0.95055  ,2.5  ,4.9
596  ,2.750e+09   ,0.75346  ,2.5  ,4.9
597  ,2.697e+09   ,0.55637  ,2.5  ,4.9
598  ,2.732e+09   ,0.35927  ,2.5  ,4.9
599  ,2.388e+09   ,0.16218  ,2.5  ,4.9
600  ,2.321e+09   ,-0.034907  ,2.5  ,4.9
601  ,2.386e+09   ,-0.232  ,2.5  ,4.9
602  ,3.737e+09   ,-0.42909  ,2.5  ,4.9
603  ,3.934e+09   ,-0.62618  ,2.5  ,4.9
604  ,3.731e+09   ,-0.82327  ,2.5  ,4.9
605  ,4.424e+09   ,-1.0204  ,2.5  ,4.9
606  ,3.818e+09   ,-1.2175  ,2.5  ,4.9
607  ,2.991e+09   ,-1.4145  ,2.5  ,4.9
608  ,2.345e+09   ,-1.6116  ,2.5  ,4.9
609  ,1.617e+09   ,-1.8087  ,2.5  ,4.9
610  ,1.190e+09   ,-2.0058  ,2.5  ,4.9
611  ,7.122e+08   ,-2.2029  ,2.5  ,4.9
612  ,1.781e+10   ,2.2665  ,2.5  ,4.7665
613  ,1.177e+10   ,2.4  ,2.5  ,4.436
614  ,6.974e+09   ,2.4  ,2.5  ,4.2389
615  ,4.616e+09   ,2.4  ,2.5  ,4.0418
616  ,3.247e+09   ,2.4  ,2.5  ,3.8447
617  ,2.717e+09   ,2.4  ,2.5  ,3.6476
618  ,2.418e+09   ,2.4  ,2.5  ,3.4505
619  ,2.482e+09   ,2.4  ,2.5  ,3.2535
620  ,2.603e+09   ,2.4  ,2.5  ,3.0564
621  ,2.373e+09   ,2.4  ,2.5  ,2.8593
622  ,2.368e+09   ,2.4  ,2.5  ,2.6622
623  ,2.383e+09   ,2.4  ,2.5  ,2.4651
624  ,2.356e+09   ,2.4  ,2.5  ,2.268
625  ,2.618e+09   ,2.4  ,2.5  ,2.0709
626  ,3.000e+09   ,2.4  ,2.5  ,1.8738
627  ,3.488e+09   ,2.4  ,2.5  ,1.6767
628  ,4.036e+09   ,2.4  ,2.5  ,1.4796
629  ,4.190e+09   ,2.4  ,2.5  ,1.2825
630  ,2.887e+09   ,2.4  ,2.5  ,1.0855
631  ,2.144e+09   ,2.4  ,2.5  ,0.88836
632  ,1.535e+09   ,2.4  ,2.5  ,0.69127
633  ,1.272e+09   ,2.4  ,2.5  ,0.49418
634  ,6.917e+08   ,2.4  ,2.5  ,0.29709
796  ,8.474e+08   ,-2.5  ,2.2  ,0.1
797  ,1.167e+09   ,-2.5  ,2  ,0.1
798  ,1.473e+09   ,-2.5  ,1.8  ,0.1
799  ,1.577e+09   ,-2.5  ,1.6  ,0.1
800  ,1.775e+09   ,-2.5  ,1.4  ,0.1
801  ,1.947e+09   ,-2.5  ,1.2  ,0.1
802  ,1.940e+09   ,-2.5  ,1  ,0.1
803  ,1.913e+09   ,-2.5  ,0.8  ,0.1
804  ,1.958e+09   ,-2.5  ,0.6  ,0.1
805  ,2.016e+09   ,-2.5  ,0.4  ,0.1
806  ,1.837e+09   ,-2.5  ,0.2  ,0.1
807  ,1.733e+09   ,-2.5  ,5.8879E-16  ,0.1
808  ,1.563e+09   ,-2.5  ,-0.2  ,0.1
809  ,1.501e+09   ,-2.5  ,-0.4  ,0.1
810  ,1.559e+09   ,-2.5  ,-0.6  ,0.1
811  ,1.461e+09   ,-2.5  ,-0.8  ,0.1
812  ,1.636e+09   ,-2.5  ,-1  ,0.1
813  ,1.375e+09   ,-2.5  ,-1.2  ,0.1
814  ,1.273e+09   ,-2.5  ,-1.4  ,0.1
815  ,9.566e+08   ,-2.5  ,-1.6  ,0.1
816  ,6.809e+08   ,-2.5  ,-1.8  ,0.1
817  ,6.381e+08   ,-2.5  ,-2  ,0.1
818  ,2.606e+08   ,-2.5  ,-2.2  ,0.1
819  ,3.076e+09   ,-2.5  ,-2.4  ,4.7
820  ,1.587e+09   ,-2.5  ,-2.4  ,4.5
821  ,1.633e+09   ,-2.5  ,-2.4  ,4.3
822  ,2.914e+09   ,-2.5  ,-2.4  ,4.1
823  ,3.653e+09   ,-2.5  ,-2.4  ,3.9
824  ,4.062e+09   ,-2.5  ,-2.4  ,3.7
825  ,4.458e+09   ,-2.5  ,-2.4  ,3.5
826  ,3.956e+09   ,-2.5  ,-2.4  ,3.3
827  ,4.168e+09   ,-2.5  ,-2.4  ,3.1
828  ,3.265e+09   ,-2.5  ,-2.4  ,2.9
829  ,2.376e+09   ,-2.5  ,-2.4  ,2.7
830  ,2.313e+09   ,-2.5  ,-2.4  ,2.5
831  ,1.958e+09   ,-2.5  ,-2.4  ,2.3
832  ,1.935e+09   ,-2.5  ,-2.4  ,2.1
833  ,1.402e+09   ,-2.5  ,-2.4  ,1.9
834  ,8.276e+08   ,-2.5  ,-2.4  ,1.7
835  ,2.750e+08   ,-2.5  ,-2.4  ,1.5
836  ,9.933e+08   ,-2.5  ,-2.4  ,1.3
837  ,1.618e+09   ,-2.5  ,-2.4  ,1.1
838  ,2.077e+09   ,-2.5  ,-2.4  ,0.9
839  ,2.070e+09   ,-2.5  ,-2.4  ,0.7
840  ,1.850e+09   ,-2.5  ,-2.4  ,0.5
841  ,8.722e+08   ,-2.5  ,-2.4  ,0.3
842  ,9.395e+08   ,-2.5  ,2.2  ,4.9
843  ,1.216e+09   ,-2.5  ,2  ,4.9
844  ,1.223e+09   ,-2.5  ,1.8  ,4.9
845  ,1.147e+09   ,-2.5  ,1.6  ,4.9
846  ,1.091e+09   ,-2.5  ,1.4  ,4.9
847  ,1.131e+09   ,-2.5  ,1.2  ,4.9
848  ,1.199e+09   ,-2.5  ,1  ,4.9
849  ,1.717e+09   ,-2.5  ,0.8  ,4.9
850  ,1.416e+09   ,-2.5  ,0.6  ,4.9
851  ,1.200e+09   ,-2.5  ,0.4  ,4.9
852  ,1.153e+09   ,-2.5  ,0.2  ,4.9
853  ,8.519e+08   ,-2.5  ,5.8879E-16  ,4.9
854  ,8.712e+08   ,-2.5  ,-0.2  ,4.9
855  ,5.679e+08   ,-2.5  ,-0.4  ,4.9
856  ,4.544e+08   ,-2.5  ,-0.6  ,4.9
857  ,5.293e+08   ,-2.5  ,-0.8  ,4.9
858  ,6.315e+08   ,-2.5  ,-1  ,4.9
859  ,8.333e+08   ,-2.5  ,-1.2  ,4.9
860  ,1.100e+09   ,-2.5  ,-1.4  ,4.9
861  ,1.097e+09   ,-2.5  ,-1.6  ,4.9
862  ,1.279e+09   ,-2.5  ,-1.8  ,4.9
863  ,1.769e+09   ,-2.5  ,-2  ,4.9
864  ,1.746e+09   ,-2.5  ,-2.2  ,4.9
865  ,8.218e+08   ,-2.5  ,2.4  ,4.7
866  ,1.286e+09   ,-2.5  ,2.4  ,4.5
867  ,1.480e+09   ,-2.5  ,2.4  ,4.3
868  ,1.184e+09   ,-2.5  ,2.4  ,4.1
869  ,1.347e+09   ,-2.5  ,2.4  ,3.9
870  ,1.349e+09   ,-2.5  ,2.4  ,3.7
871  ,1.671e+09   ,-2.5  ,2.4  ,3.5
872  ,2.212e+09   ,-2.5  ,2.4  ,3.3
873  ,1.739e+09   ,-2.5  ,2.4  ,3.1
874  ,9.918e+08   ,-2.5  ,2.4  ,2.9
875  ,1.015e+09   ,-2.5  ,2.4  ,2.7
876  ,1.112e+09   ,-2.5  ,2.4  ,2.5
877  ,1.152e+09   ,-2.5  ,2.4  ,2.3
878  ,1.325e+09   ,-2.5  ,2.4  ,2.1
879  ,1.018e+09   ,-2.5  ,2.4  ,1.9
880  ,1.523e+09   ,-2.5  ,2.4  ,1.7
881  ,2.117e+09   ,-2.5  ,2.4  ,1.5
882  ,2.314e+09   ,-2.5  ,2.4  ,1.3
883  ,2.084e+09   ,-2.5  ,2.4  ,1.1
884  ,2.085e+09   ,-2.5  ,2.4  ,0.9
885  ,1.836e+09   ,-2.5  ,2.4  ,0.7
886  ,1.674e+09   ,-2.5  ,2.4  ,0.5
887  ,1.214e+09   ,-2.5  ,2.4  ,0.3
1044  ,8.011e+08   ,-2.3  ,-2.5  ,0.44697
1045  ,1.273e+09   ,-2.3  ,-2.5  ,0.68705
1046  ,1.406e+09   ,-2.3  ,-2.5  ,0.92554
1047  ,1.202e+09   ,-2.3  ,-2.5  ,1.1682
1048  ,7.483e+08   ,-2.3  ,-2.5  ,1.4148
1049  ,4.075e+08   ,-2.3  ,-2.5  ,1.6581
1050  ,7.465e+08   ,-2.3  ,-2.5  ,1.8967
1051  ,1.153e+09   ,-2.3  ,-2.5  ,2.1357
1052  ,1.152e+09   ,-2.3  ,-2.5  ,2.3794
1053  ,1.052e+09   ,-2.3  ,-2.5  ,2.6206
1054  ,1.680e+09   ,-2.3  ,-2.5  ,2.8643
1055  ,2.436e+09   ,-2.3  ,-2.5  ,3.1033
1056  ,2.643e+09   ,-2.3  ,-2.5  ,3.342
1057  ,2.883e+09   ,-2.3  ,-2.5  ,3.5852
1058  ,2.735e+09   ,-2.3  ,-2.5  ,3.8318
1059  ,1.898e+09   ,-2.3  ,-2.5  ,4.0745
1060  ,9.664e+08   ,-2.3  ,-2.5  ,4.3129
1061  ,2.067e+09   ,-2.3  ,-2.5  ,4.553
1062  ,4.105e+09   ,-2.053  ,-2.5  ,4.8
1063  ,2.711e+09   ,-1.8129  ,-2.5  ,4.8
1064  ,1.710e+09   ,-1.5745  ,-2.5  ,4.8
1065  ,1.174e+09   ,-1.3318  ,-2.5  ,4.8
1066  ,9.940e+08   ,-1.0852  ,-2.5  ,4.8
1067  ,7.135e+08   ,-0.84195  ,-2.5  ,4.8
1068  ,6.112e+08   ,-0.60329  ,-2.5  ,4.8
1069  ,7.528e+08   ,-0.3643  ,-2.5  ,4.8
1070  ,1.019e+09   ,-0.12055  ,-2.5  ,4.8
1071  ,1.491e+09   ,0.12056  ,-2.5  ,4.8
1072  ,1.861e+09   ,0.3643  ,-2.5  ,4.8
1073  ,1.785e+09   ,0.6033  ,-2.5  ,4.8
1074  ,1.758e+09   ,0.84195  ,-2.5  ,4.8
1075  ,1.183e+09   ,1.0852  ,-2.5  ,4.8
1076  ,3.910e+08   ,1.3318  ,-2.5  ,4.8
1077  ,2.001e+09   ,1.5745  ,-2.5  ,4.8
1078  ,4.181e+09   ,1.8129  ,-2.5  ,4.8
1079  ,7.779e+09   ,2.053  ,-2.5  ,4.8
1080  ,7.712e+09   ,2.3  ,-2.5  ,4.553
1081  ,4.071e+09   ,2.3  ,-2.5  ,4.3129
1082  ,2.398e+09   ,2.3  ,-2.5  ,4.0745
1083  ,6.839e+08   ,2.3  ,-2.5  ,3.8318
1084  ,1.066e+09   ,2.3  ,-2.5  ,3.5852
1085  ,1.703e+09   ,2.3  ,-2.5  ,3.3419
1086  ,1.857e+09   ,2.3  ,-2.5  ,3.1033
1087  ,1.872e+09   ,2.3  ,-2.5  ,2.8643
1088  ,1.444e+09   ,2.3  ,-2.5  ,2.6206
1089  ,1.060e+09   ,2.3  ,-2.5  ,2.3794
1090  ,7.674e+08   ,2.3  ,-2.5  ,2.1357
1091  ,9.353e+08   ,2.3  ,-2.5  ,1.8967
1092  ,7.169e+08   ,2.3  ,-2.5  ,1.658
1093  ,7.130e+08   ,2.3  ,-2.5  ,1.4148
1094  ,1.077e+09   ,2.3  ,-2.5  ,1.1682
1095  ,1.790e+09   ,2.3  ,-2.5  ,0.92554
1096  ,2.756e+09   ,2.3  ,-2.5  ,0.68705
1097  ,4.193e+09   ,2.3  ,-2.5  ,0.44697
1098  ,9.915e+08   ,-2.053  ,-2.5  ,0.2
1099  ,1.257e+09   ,-1.8129  ,-2.5  ,0.2
1100  ,1.331e+09   ,-1.5745  ,-2.5  ,0.2
1101  ,1.050e+09   ,-1.3318  ,-2.5  ,0.2
1102  ,7.540e+08   ,-1.0852  ,-2.5  ,0.2
1103  ,3.350e+08   ,-0.84195  ,-2.5  ,0.2
1104  ,6.668e+08   ,-0.60329  ,-2.5  ,0.2
1105  ,9.911e+08   ,-0.3643  ,-2.5  ,0.2
1106  ,1.002e+09   ,-0.12055  ,-2.5  ,0.2
1107  ,9.557e+08   ,0.12056  ,-2.5  ,0.2
1108  ,1.271e+09   ,0.3643  ,-2.5  ,0.2
1109  ,1.915e+09   ,0.6033  ,-2.5  ,0.2
1110  ,2.465e+09   ,0.84195  ,-2.5  ,0.2
1111  ,2.664e+09   ,1.0852  ,-2.5  ,0.2
1112  ,2.765e+09   ,1.3318  ,-2.5  ,0.2
1113  ,2.045e+09   ,1.5745  ,-2.5  ,0.2
1114  ,9.763e+08   ,1.8129  ,-2.5  ,0.2
1115  ,2.328e+09   ,2.053  ,-2.5  ,0.2
1116  ,1.537e+09   ,-2.2  ,-2.5  ,4.9
1117  ,6.139e+08   ,-2  ,-2.5  ,4.9
1118  ,9.512e+08   ,-1.8  ,-2.5  ,4.9
1119  ,1.073e+09   ,-1.6  ,-2.5  ,4.9
1120  ,1.051e+09   ,-1.4  ,-2.5  ,4.9
1121  ,1.012e+09   ,-1.2  ,-2.5  ,4.9
1122  ,6.675e+08   ,-1  ,-2.5  ,4.9
1123  ,3.529e+08   ,-0.8  ,-2.5  ,4.9
1124  ,2.936e+08   ,-0.6  ,-2.5  ,4.9
1125  ,4.915e+08   ,-0.4  ,-2.5  ,4.9
1126  ,8.112e+08   ,-0.2  ,-2.5  ,4.9
1127  ,1.127e+09   ,-1.7664E-15  ,-2.5  ,4.9
1128  ,1.388e+09   ,0.2  ,-2.5  ,4.9
1129  ,1.633e+09   ,0.4  ,-2.5  ,4.9
1130  ,1.318e+09   ,0.6  ,-2.5  ,4.9
1131  ,1.516e+09   ,0.8  ,-2.5  ,4.9
1132  ,1.583e+09   ,1  ,-2.5  ,4.9
1133  ,2.042e+09   ,1.2  ,-2.5  ,4.9
1134  ,2.041e+09   ,1.4  ,-2.5  ,4.9
1135  ,2.371e+09   ,1.6  ,-2.5  ,4.9
1136  ,2.510e+09   ,1.8  ,-2.5  ,4.9
1137  ,2.252e+09   ,2  ,-2.5  ,4.9
1138  ,2.056e+09   ,2.2  ,-2.5  ,4.9
1139  ,1.927e+09   ,-2.4  ,-2.5  ,4.7
1140  ,1.781e+09   ,-2.4  ,-2.5  ,4.5
1141  ,1.653e+09   ,-2.4  ,-2.5  ,4.3
1142  ,1.510e+09   ,-2.4  ,-2.5  ,4.1
1143  ,1.233e+09   ,-2.4  ,-2.5  ,3.9
1144  ,1.285e+09   ,-2.4  ,-2.5  ,3.7
1145  ,5.643e+08   ,-2.4  ,-2.5  ,3.5
1146  ,1.168e+09   ,-2.4  ,-2.5  ,3.3
1147  ,9.887e+08   ,-2.4  ,-2.5  ,3.1
1148  ,1.382e+09   ,-2.4  ,-2.5  ,2.9
1149  ,1.131e+09   ,-2.4  ,-2.5  ,2.7
1150  ,7.384e+08   ,-2.4  ,-2.5  ,2.5
1151  ,7.308e+08   ,-2.4  ,-2.5  ,2.3
1152  ,6.503e+08   ,-2.4  ,-2.5  ,2.1
1153  ,8.340e+08   ,-2.4  ,-2.5  ,1.9
1154  ,7.522e+08   ,-2.4  ,-2.5  ,1.7
1155  ,4.484e+08   ,-2.4  ,-2.5  ,1.5
1156  ,3.007e+08   ,-2.4  ,-2.5  ,1.3
1157  ,4.280e+08   ,-2.4  ,-2.5  ,1.1
1158  ,8.411e+08   ,-2.4  ,-2.5  ,0.9
1159  ,1.145e+09   ,-2.4  ,-2.5  ,0.7
1160  ,1.095e+09   ,-2.4  ,-2.5  ,0.5
1161  ,1.160e+09   ,-2.4  ,-2.5  ,0.3
1162  ,1.406e+09   ,-2.2  ,-2.5  ,0.1
1163  ,1.432e+09   ,-2  ,-2.5  ,0.1
1164  ,1.353e+09   ,-1.8  ,-2.5  ,0.1
1165  ,9.138e+08   ,-1.6  ,-2.5  ,0.1
1166  ,5.828e+08   ,-1.4  ,-2.5  ,0.1
1167  ,3.664e+08   ,-1.2  ,-2.5  ,0.1
1168  ,5.217e+08   ,-1  ,-2.5  ,0.1
1169  ,7.987e+08   ,-0.8  ,-2.5  ,0.1
1170  ,7.463e+08   ,-0.6  ,-2.5  ,0.1
1171  ,6.629e+08   ,-0.4  ,-2.5  ,0.1
1172  ,7.071e+08   ,-0.2  ,-2.5  ,0.1
1173  ,9.137e+08   ,-1.7664E-15  ,-2.5  ,0.1
1174  ,1.127e+09   ,0.2  ,-2.5  ,0.1
1175  ,1.439e+09   ,0.4  ,-2.5  ,0.1
1176  ,1.752e+09   ,0.6  ,-2.5  ,0.1
1177  ,1.165e+09   ,0.8  ,-2.5  ,0.1
1178  ,1.016e+09   ,1  ,-2.5  ,0.1
1179  ,1.025e+09   ,1.2  ,-2.5  ,0.1
1180  ,1.205e+09   ,1.4  ,-2.5  ,0.1
1181  ,1.679e+09   ,1.6  ,-2.5  ,0.1
1182  ,1.679e+09   ,1.8  ,-2.5  ,0.1
1183  ,1.694e+09   ,2  ,-2.5  ,0.1
1184  ,2.013e+09   ,2.2  ,-2.5  ,0.1
1185  ,1.967e+09   ,2.4  ,-2.5  ,4.7
1186  ,2.214e+09   ,2.4  ,-2.5  ,4.5
1187  ,2.284e+09   ,2.4  ,-2.5  ,4.3
1188  ,2.580e+09   ,2.4  ,-2.5  ,4.1
1189  ,2.333e+09   ,2.4  ,-2.5  ,3.9
1190  ,2.148e+09   ,2.4  ,-2.5  ,3.7
1191  ,1.569e+09   ,2.4  ,-2.5  ,3.5
1192  ,1.613e+09   ,2.4  ,-2.5  ,3.3
1193  ,1.551e+09   ,2.4  ,-2.5  ,3.1
1194  ,1.667e+09   ,2.4  ,-2.5  ,2.9
1195  ,1.433e+09   ,2.4  ,-2.5  ,2.7
1196  ,1.159e+09   ,2.4  ,-2.5  ,2.5
1197  ,8.163e+08   ,2.4  ,-2.5  ,2.3
1198  ,4.006e+08   ,2.4  ,-2.5  ,2.1
1199  ,2.301e+08   ,2.4  ,-2.5  ,1.9
1200  ,1.367e+08   ,2.4  ,-2.5  ,1.7
1201  ,3.028e+08   ,2.4  ,-2.5  ,1.5
1202  ,8.152e+08   ,2.4  ,-2.5  ,1.3
1203  ,9.398e+08   ,2.4  ,-2.5  ,1.1
1204  ,1.003e+09   ,2.4  ,-2.5  ,0.9
1205  ,1.120e+09   ,2.4  ,-2.5  ,0.7
1206  ,9.161e+08   ,2.4  ,-2.5  ,0.5
1207  ,1.219e+09   ,2.4  ,-2.5  ,0.3
1208  ,1.743e+09   ,2.4  ,-2.2  ,0
1209  ,1.744e+09   ,2.4  ,-2  ,0
1210  ,1.194e+09   ,2.4  ,-1.8  ,0
1211  ,9.696e+08   ,2.4  ,-1.6  ,0
1212  ,1.060e+09   ,2.4  ,-1.4  ,0
1213  ,8.695e+08   ,2.4  ,-1.2  ,0
1214  ,8.051e+08   ,2.4  ,-1  ,0
1215  ,5.504e+08   ,2.4  ,-0.8  ,0
1216  ,2.539e+08   ,2.4  ,-0.6  ,0
1217  ,1.977e+08   ,2.4  ,-0.4  ,0
1218  ,5.477e+08   ,2.4  ,-0.2  ,0
1219  ,6.082e+08   ,2.4  ,-1.7664E-15  ,0
1220  ,7.019e+08   ,2.4  ,0.2  ,0
1221  ,1.030e+09   ,2.4  ,0.4  ,0
1222  ,1.481e+09   ,2.4  ,0.6  ,0
1223  ,1.862e+09   ,2.4  ,0.8  ,0
1224  ,1.327e+09   ,2.4  ,1  ,0
1225  ,1.254e+09   ,2.4  ,1.2  ,0
1226  ,1.138e+09   ,2.4  ,1.4  ,0
1227  ,1.143e+09   ,2.4  ,1.6  ,0
1228  ,1.442e+09   ,2.4  ,1.8  ,0
1229  ,1.398e+09   ,2.4  ,2  ,0
1230  ,1.007e+09   ,2.4  ,2.2  ,0
1231  ,1.135e+09   ,-2.2  ,-2.4  ,0
1232  ,1.898e+09   ,-2  ,-2.4  ,0
1233  ,2.300e+09   ,-1.8  ,-2.4  ,0
1234  ,2.229e+09   ,-1.6  ,-2.4  ,0
1235  ,1.735e+09   ,-1.4  ,-2.4  ,0
1236  ,1.183e+09   ,-1.2  ,-2.4  ,0
1237  ,2.868e+08   ,-1  ,-2.4  ,0
1238  ,9.526e+08   ,-0.8  ,-2.4  ,0
1239  ,1.577e+09   ,-0.6  ,-2.4  ,0
1240  ,1.856e+09   ,-0.4  ,-2.4  ,0
1241  ,2.064e+09   ,-0.2  ,-2.4  ,0
1242  ,2.388e+09   ,5.8879E-16  ,-2.4  ,0
1243  ,2.783e+09   ,0.2  ,-2.4  ,0
1244  ,3.483e+09   ,0.4  ,-2.4  ,0
1245  ,3.936e+09   ,0.6  ,-2.4  ,0
1246  ,4.645e+09   ,0.8  ,-2.4  ,0
1247  ,4.375e+09   ,1  ,-2.4  ,0
1248  ,4.413e+09   ,1.2  ,-2.4  ,0
1249  ,3.708e+09   ,1.4  ,-2.4  ,0
1250  ,2.766e+09   ,1.6  ,-2.4  ,0
1251  ,1.502e+09   ,1.8  ,-2.4  ,0
1252  ,1.511e+09   ,2  ,-2.4  ,0
1253  ,3.564e+09   ,2.2  ,-2.4  ,0
1254  ,8.625e+08   ,-2.4  ,2.2  ,0
1255  ,1.246e+09   ,-2.4  ,2  ,0
1256  ,1.334e+09   ,-2.4  ,1.8  ,0
1257  ,1.566e+09   ,-2.4  ,1.6  ,0
1258  ,1.853e+09   ,-2.4  ,1.4  ,0
1259  ,2.092e+09   ,-2.4  ,1.2  ,0
1260  ,2.082e+09   ,-2.4  ,1  ,0
1261  ,2.051e+09   ,-2.4  ,0.8  ,0
1262  ,1.933e+09   ,-2.4  ,0.6  ,0
1263  ,1.970e+09   ,-2.4  ,0.4  ,0
1264  ,1.899e+09   ,-2.4  ,0.2  ,0
1265  ,1.861e+09   ,-2.4  ,5.8879E-16  ,0
1266  ,1.872e+09   ,-2.4  ,-0.2  ,0
1267  ,1.455e+09   ,-2.4  ,-0.4  ,0
1268  ,1.656e+09   ,-2.4  ,-0.6  ,0
1269  ,1.503e+09   ,-2.4  ,-0.8  ,0
1270  ,1.569e+09   ,-2.4  ,-1  ,0
1271  ,1.352e+09   ,-2.4  ,-1.2  ,0
1272  ,1.083e+09   ,-2.4  ,-1.4  ,0
1273  ,1.021e+09   ,-2.4  ,-1.6  ,0
1274  ,8.233e+08   ,-2.4  ,-1.8  ,0
1275  ,6.570e+08   ,-2.4  ,-2  ,0
1276  ,2.850e+08   ,-2.4  ,-2.2  ,0
1277  ,8.269e+08   ,2.2  ,2.4  ,0
1278  ,1.261e+09   ,2  ,2.4  ,0
1279  ,1.432e+09   ,1.8  ,2.4  ,0
1280  ,1.209e+09   ,1.6  ,2.4  ,0
1281  ,1.032e+09   ,1.4  ,2.4  ,0
1282  ,1.330e+09   ,1.2  ,2.4  ,0
1283  ,1.592e+09   ,1  ,2.4  ,0
1284  ,2.160e+09   ,0.8  ,2.4  ,0
1285  ,1.691e+09   ,0.6  ,2.4  ,0
1286  ,8.211e+08   ,0.4  ,2.4  ,0
1287  ,5.529e+08   ,0.2  ,2.4  ,0
1288  ,2.723e+08   ,5.8879E-16  ,2.4  ,0
1289  ,8.825e+08   ,-0.2  ,2.4  ,0
1290  ,1.196e+09   ,-0.4  ,2.4  ,0
1291  ,9.697e+08   ,-0.6  ,2.4  ,0
1292  ,1.761e+09   ,-0.8  ,2.4  ,0
1293  ,2.170e+09   ,-1  ,2.4  ,0
1294  ,2.240e+09   ,-1.2  ,2.4  ,0
1295  ,1.990e+09   ,-1.4  ,2.4  ,0
1296  ,1.865e+09   ,-1.6  ,2.4  ,0
1297  ,1.780e+09   ,-1.8  ,2.4  ,0
1298  ,1.516e+09   ,-2  ,2.4  ,0
1299  ,1.344e+09   ,-2.2  ,2.4  ,0
1460  ,1.315e+10   ,2.3243  ,2.3243  ,4.9577
1461  ,1.178e+10   ,2.4577  ,2.3243  ,4.8243
1462  ,8.811e+09   ,2.3243  ,2.4577  ,4.8243
1463  ,1.657e+09   ,-2.3  ,-2.1759  ,4.8
1464  ,1.098e+09   ,-2.3  ,-1.7631  ,4.8
1465  ,1.431e+09   ,-2.3  ,-1.1827  ,4.8
1466  ,2.521e+09   ,-2.3  ,-0.34986  ,4.8
1467  ,2.913e+09   ,-2.3  ,0.80545  ,4.8
1468  ,3.018e+09   ,-0.81337  ,2.3  ,4.8
1469  ,4.057e+09   ,0.67326  ,2.3  ,4.8
1470  ,4.198e+09   ,2.3  ,-2.1824  ,4.8
1471  ,3.089e+09   ,2.3  ,-1.7784  ,4.8
1472  ,3.164e+09   ,2.3  ,-1.2138  ,4.8
1473  ,3.673e+09   ,2.3  ,-0.40752  ,4.8
1474  ,3.293e+09   ,2.3  ,0.70532  ,4.8
1516  ,2.959e+09   ,2.3  ,2.3  ,1.6866
1517  ,3.927e+09   ,2.3  ,2.3  ,3.1733
1518  ,1.735e+09   ,2.3  ,-2.1759  ,0.2
1519  ,1.136e+09   ,2.3  ,-1.7631  ,0.2
1520  ,1.350e+09   ,2.3  ,-1.1827  ,0.2
1521  ,2.389e+09   ,2.3  ,-0.34986  ,0.2
1522  ,3.158e+09   ,2.3  ,0.80545  ,0.2
1564  ,1.591e+09   ,-0.76667  ,2.3  ,0.2
1565  ,3.075e+09   ,0.76667  ,2.3  ,0.2
1566  ,1.493e+09   ,-2.3  ,2.3  ,1.7333
1567  ,3.122e+09   ,-2.3  ,2.3  ,3.2667
1574  ,7.022e+08   ,-2.3  ,-2.1759  ,0.2
1575  ,6.108e+08   ,-2.3  ,-1.7631  ,0.2
1576  ,4.070e+08   ,-2.3  ,-1.1827  ,0.2
1577  ,2.551e+08   ,-2.3  ,-0.34986  ,0.2
1578  ,4.459e+08   ,-2.3  ,0.80545  ,0.2
1777  ,3.946e+09   ,-0.52764  ,2.5  ,4.9
1801  ,1.925e+09   ,-2.3  ,1.5527  ,0.2
1825  ,1.494e+09   ,-1.5333  ,2.3  ,0.2
1841  ,2.400e+09   ,0.063638  ,2.5  ,4.9
1876  ,1.094e+09   ,-0.5  ,2.4  ,0
1894  ,2.692e+09   ,2.3  ,1.5527  ,0.2
1907  ,1.138e+09   ,2.1  ,2.5  ,0.1
1928  ,1.293e+09   ,1.9  ,2.4  ,0
1974  ,1.237e+09   ,2.4  ,1.1  ,0
1981  ,1.444e+09   ,2.4  ,2.5  ,0.59273
1987  ,1.300e+09   ,-2.5  ,2.4  ,4
2004  ,9.407e+08   ,-2.4  ,2.5  ,4.6
2009  ,1.159e+09   ,2.4  ,1.3  ,0
2020  ,1.462e+09   ,2.5  ,1.1  ,0.1
2035  ,1.231e+09   ,-2.3  ,-0.76628  ,0.2
2070  ,5.253e+09   ,1.6404  ,2.4  ,5
2081  ,2.777e+09   ,2.4  ,2.5  ,1.9724
2095  ,1.984e+09   ,2.4  ,2.5  ,0.78982
2138  ,1.649e+09   ,-2.4  ,-0.1  ,0
2146  ,3.534e+09   ,-0.92182  ,2.4  ,5
2174  ,3.304e+09   ,2.4  ,2.5  ,1.184
2190  ,2.604e+09   ,2.5  ,2.4  ,0.98691
2203  ,4.195e+09   ,2.5  ,-0.13345  ,4.9
2232  ,5.484e+09   ,2.3  ,0.1489  ,4.8
2242  ,2.548e+09   ,2.4  ,2.5  ,2.9578
2293  ,2.121e+09   ,-2.5  ,0.5  ,0.1
2311  ,5.867e+09   ,2.3  ,2.3  ,2.4299
2313  ,2.416e+09   ,2.5  ,2.4  ,0.78982
2329  ,2.445e+09   ,2.4  ,2.5  ,2.1695
2355  ,1.250e+09   ,-2.4  ,2.5  ,4.4
2380  ,1.066e+09   ,-2.5  ,-1.5  ,0.1
2383  ,2.618e+09   ,0.45782  ,2.5  ,4.9
2408  ,4.632e+09   ,2.3  ,-1.4961  ,4.8
2445  ,3.756e+09   ,2.5  ,-1.5131  ,4.9
2484  ,3.931e+08   ,-2.5  ,-2.4  ,1.6
2495  ,1.215e+09   ,-2.4  ,1.7  ,5
2508  ,8.290e+08   ,2.4  ,0.3  ,0
2514  ,3.683e+09   ,2.3  ,0.2278  ,0.2
2570  ,1.145e+09   ,-2.4  ,1.5  ,5
2580  ,5.055e+09   ,1.6404  ,2.5  ,4.9
2603  ,4.362e+09   ,-1.1189  ,2.5  ,4.9
2695  ,2.430e+09   ,2.3  ,2.3  ,0.94331
2705  ,4.323e+09   ,2.4  ,2.5  ,1.3811
2714  ,2.406e+09   ,2.5  ,0.45782  ,4.9
2734  ,6.656e+08   ,2.4  ,-0.9  ,0
2775  ,4.660e+08   ,2.5  ,-0.1  ,0.1
2779  ,5.585e+08   ,2.4  ,-0.1  ,0
2801  ,6.735e+09   ,1.4166  ,2.3  ,4.8
2814  ,3.747e+09   ,1.4433  ,2.5  ,4.9
2863  ,1.744e+09   ,-2.4  ,2.5  ,0.6
2884  ,2.046e+09   ,-2.4  ,2.5  ,0.8
2886  ,2.103e+09   ,-2.4  ,2.5  ,1.2
2967  ,1.226e+09   ,2.4  ,1.7  ,0
2973  ,1.203e+09   ,2.5  ,1.5  ,0.1
2987  ,1.381e+09   ,-0.3  ,2.5  ,0.1
3008  ,1.577e+09   ,-2.3  ,2.3  ,0.96667
3012  ,1.036e+09   ,-2.5  ,2.4  ,2.6
3021  ,1.026e+09   ,-2.5  ,2.4  ,2.8
3025  ,1.127e+09   ,-2.5  ,2.4  ,2.4
3030  ,1.191e+09   ,-2.4  ,2.5  ,2.4
3033  ,1.223e+09   ,-2.4  ,2.5  ,2.2
3047  ,2.290e+09   ,2.4  ,2.5  ,2.3665
3052  ,2.661e+09   ,2.5  ,2.4  ,2.5636
3061  ,2.332e+09   ,2.4  ,2.5  ,2.5636
3081  ,1.225e+09   ,-2.4  ,1.3  ,5
3088  ,1.034e+09   ,-1.9073  ,2.4  ,5
3099  ,1.243e+09   ,-2.4  ,1.9  ,5
3107  ,1.287e+09   ,-2.4  ,2.5  ,3.8
3139  ,2.404e+09   ,-1.5131  ,2.4  ,5
3145  ,2.633e+09   ,-1.5131  ,2.5  ,4.9
3148  ,1.982e+09   ,-1.7102  ,2.5  ,4.9
3168  ,1.650e+09   ,-2.4  ,1.5  ,0
3188  ,1.885e+09   ,-2.5  ,-2.4  ,1
3202  ,2.329e+09   ,0.26073  ,2.5  ,4.9
3212  ,4.638e+09   ,2.5  ,1.6404  ,4.9
3247  ,6.317e+09   ,2.5  ,1.8375  ,4.9
3265  ,6.593e+09   ,2.3  ,1.4326  ,4.8
3271  ,1.261e+10   ,2.2299  ,2.2299  ,4.8
3284  ,3.729e+09   ,2.4  ,1.4433  ,5
3291  ,3.578e+09   ,2.5  ,1.4433  ,4.9
3296  ,2.176e+09   ,-2.3  ,-0.76628  ,4.8
3303  ,6.804e+08   ,-2.4  ,-0.9  ,5
3311  ,4.008e+08   ,-2.4  ,-0.7  ,5
3315  ,1.285e+09   ,1.9  ,2.5  ,0.1
3336  ,1.921e+09   ,-2.4  ,0.3  ,0
3340  ,1.738e+09   ,-2.5  ,0.1  ,0.1
3344  ,1.854e+09   ,-2.4  ,0.1  ,0
3356  ,1.056e+09   ,-0.3  ,2.4  ,0
3361  ,2.696e+09   ,-0.33054  ,2.5  ,4.9
3364  ,2.283e+09   ,-0.13345  ,2.5  ,4.9
3383  ,2.578e+09   ,2.4  ,2.5  ,3.5491
3402  ,1.450e+10   ,2.4  ,2.5  ,4.5345
3421  ,3.343e+09   ,-1.316  ,2.5  ,4.9
3439  ,3.656e+09   ,2.5  ,2.4  ,3.9433
3447  ,3.995e+09   ,2.4  ,2.5  ,3.9433
3451  ,2.946e+09   ,2.4  ,2.5  ,3.7462
3468  ,3.673e+09   ,1.4433  ,2.4  ,5
3480  ,2.781e+09   ,1.0491  ,2.4  ,5
3519  ,1.160e+09   ,1.5  ,2.4  ,0
3527  ,1.455e+09   ,2.3  ,-1.4729  ,0.2
3550  ,1.783e+09   ,-1.7  ,2.4  ,0
3554  ,1.916e+09   ,-1.7  ,2.5  ,0.1
3558  ,1.957e+09   ,-1.5  ,2.4  ,0
3562  ,1.972e+09   ,-1.5  ,2.5  ,0.1
3574  ,1.063e+09   ,-2.4  ,2.1  ,5
3581  ,1.510e+09   ,-2.5  ,1.7  ,0.1
3583  ,1.305e+09   ,-2.5  ,1.9  ,0.1
3584  ,1.314e+09   ,-1.9073  ,2.5  ,4.9
3591  ,8.915e+08   ,2.5  ,0.3  ,0.1
3595  ,5.424e+08   ,2.5  ,0.1  ,0.1
3603  ,2.121e+10   ,2.4577  ,2.391  ,4.7576
3663  ,1.123e+09   ,-1.933  ,-2.5  ,0.2
3669  ,1.072e+09   ,-2.1765  ,-2.5  ,0.2
3672  ,7.845e+08   ,-2.3  ,-2.3379  ,0.2
3682  ,2.053e+09   ,-1.9  ,-2.4  ,0
3700  ,1.689e+09   ,2.3  ,-2.5  ,2.7424
3712  ,6.964e+08   ,-2.1  ,-2.5  ,4.9
3715  ,5.657e+08   ,-1.9  ,-2.5  ,4.9
3740  ,1.286e+09   ,-1.3  ,-2.4  ,5
3746  ,1.084e+09   ,-1.2085  ,-2.5  ,4.8
3755  ,1.274e+09   ,-1.5  ,-2.4  ,5
3760  ,8.547e+08   ,-1.7  ,-2.5  ,4.9
3786  ,3.546e+09   ,2.4  ,2.5  ,1.5782
3813  ,2.534e+09   ,0.26073  ,2.4  ,5
3858  ,9.381e+08   ,-0.9  ,-2.4  ,5
3863  ,1.409e+09   ,-2.5  ,0.9  ,4.9
3875  ,2.446e+09   ,-1.9  ,-2.4  ,5
3885  ,3.650e+09   ,2.4  ,-0.72473  ,5
3910  ,8.835e+08   ,-2.4  ,-2.5  ,3.4
3959  ,5.630e+09   ,2.5  ,2.4  ,4.1404
3969  ,2.643e+09   ,2.5  ,1.0491  ,4.9
3992  ,1.849e+10   ,2.391  ,2.2576  ,4.9577
3993  ,1.680e+10   ,2.4577  ,2.2576  ,4.891
4016  ,3.481e+08   ,-2.3015  ,2.5  ,4.9
4018  ,4.537e+08   ,-2.4  ,2.5  ,4.8
4021  ,3.089e+09   ,1.2462  ,2.4  ,5
4042  ,8.321e+08   ,2.4  ,-1.1  ,0
4046  ,1.956e+09   ,-0.9  ,2.4  ,0
4055  ,2.413e+09   ,1.7  ,-2.5  ,4.9
4087  ,1.435e+09   ,1.7  ,2.4  ,0
4114  ,3.541e+09   ,2.5  ,-0.33054  ,4.9
4120  ,2.259e+08   ,2.4  ,-2.5  ,1.8
4125  ,2.082e+09   ,2.4  ,2.5  ,0.98691
4144  ,9.602e+09   ,2.4  ,2.5  ,4.3375
4161  ,9.510e+08   ,-2.4  ,0.3  ,5
4201  ,9.760e+08   ,1.933  ,-2.5  ,0.2
4225  ,5.635e+08   ,-2.3  ,-2.4  ,0
4230  ,1.182e+09   ,-2.3  ,-2.5  ,0.56701
4269  ,5.337e+08   ,-0.9  ,-2.5  ,4.9
4277  ,1.143e+09   ,-1.1  ,-2.4  ,5
4288  ,4.817e+09   ,-0.070055  ,2.3  ,4.8
4328  ,2.037e+09   ,-2.5  ,-2.4  ,4.2
4336  ,1.298e+09   ,-2.5  ,-2.4  ,4.4
4342  ,2.088e+09   ,-2.5  ,-2.4  ,4.6
4348  ,3.155e+09   ,-2.4  ,-2.4707  ,4.9707
4352  ,1.729e+09   ,-2.3  ,-2.5  ,4.9
4354  ,4.496e+09   ,-2.1765  ,-2.5  ,4.8
4355  ,2.310e+09   ,-2.3  ,-2.3379  ,4.8
4362  ,1.283e+09   ,2.5  ,2.4  ,0.59273
4364  ,1.998e+09   ,2.5  ,-2.4  ,2.4
4366  ,1.620e+09   ,2.5  ,-2.4  ,2.2
4372  ,4.795e+08   ,2.4  ,-2.5  ,2.2
4385  ,6.784e+08   ,-2.5  ,-1.9  ,0.1
4399  ,9.967e+08   ,-2.5  ,2.1  ,0.1
4407  ,1.225e+09   ,-0.7  ,-2.4  ,0
4436  ,1.661e+09   ,-2.5  ,-0.1  ,0.1
4462  ,2.251e+09   ,-2.3  ,2.3  ,4.0333
4491  ,3.235e+09   ,2.5  ,-0.52764  ,4.9
4494  ,8.251e+08   ,2.5  ,-2.4  ,1.4
4503  ,4.927e+08   ,2.4  ,-2.5  ,1.4
4508  ,9.230e+08   ,2.4  ,-2.5  ,1.2
4515  ,9.966e+08   ,2.5  ,-2.4  ,1.8
4517  ,1.846e+08   ,2.4  ,-2.5  ,1.6
4522  ,4.265e+09   ,0.7  ,-2.4  ,0
4538  ,3.496e+09   ,-1.1189  ,2.4  ,5
4546  ,4.973e+09   ,2.4  ,2.5  ,4.1404
4559  ,1.981e+09   ,1.7  ,-2.4  ,0
4590  ,3.689e+09   ,0.5  ,-2.4  ,0
4631  ,1.268e+09   ,2.4  ,-2.5  ,2.6
4634  ,3.425e+09   ,2.5  ,-2.4  ,2.8
4657  ,1.617e+09   ,-2.5  ,-2.4  ,2
4660  ,1.097e+09   ,-2.5  ,-2.4  ,1.8
4664  ,1.875e+09   ,-0.3  ,-2.4  ,0
4675  ,1.749e+09   ,-2.4  ,-2.5  ,4.8
4681  ,1.473e+09   ,-2.5  ,-0.3  ,0.1
4684  ,1.085e+09   ,1.7  ,-2.4  ,5
4703  ,1.581e+09   ,-2.4  ,0.7  ,5
4707  ,1.103e+09   ,-2.5  ,0.3  ,4.9
4714  ,3.209e+09   ,2.4  ,-0.33054  ,5
4723  ,3.425e+09   ,-1.5567  ,2.3  ,4.8
4739  ,9.217e+08   ,-2.1044  ,2.5  ,4.9
4763  ,1.703e+09   ,-1.9  ,2.4  ,0
4780  ,5.628e+08   ,-2.3  ,-1.9695  ,0.2
4782  ,2.415e+08   ,-2.4707  ,-2.4  ,0.029289
4784  ,7.005e+08   ,-2.4  ,-1.9  ,0
4791  ,7.724e+08   ,-2.4  ,-2.5  ,1.8
4796  ,5.151e+09   ,2.4707  ,-2.4707  ,4.9
4799  ,6.310e+09   ,2.5  ,-2.4  ,4.8
4806  ,3.161e+09   ,2.3  ,-2.5  ,4.9
4809  ,6.816e+09   ,2.3  ,2.3  ,3.9166
4833  ,1.465e+09   ,-2.4  ,2.5  ,0.4
4841  ,1.151e+09   ,-2.4  ,2.5  ,2.6
4846  ,1.072e+09   ,-2.5  ,2.1  ,4.9
4848  ,6.772e+08   ,-2.5  ,2.3  ,4.9
4849  ,6.262e+08   ,-2.5  ,2.4  ,4.8
4893  ,1.398e+09   ,-2.4  ,2.5  ,4.2
4897  ,8.242e+09   ,2.3333  ,2.1998  ,5
4900  ,1.768e+10   ,2.391  ,2.4577  ,4.7576
4908  ,2.090e+10   ,2.2576  ,2.391  ,4.9577
4911  ,1.797e+10   ,2.2576  ,2.4577  ,4.891
4926  ,2.046e+09   ,-2.5  ,2.4  ,1
4932  ,1.884e+09   ,-2.4  ,2.5  ,1.6
4937  ,2.312e+09   ,-1.1  ,2.5  ,0.1
4939  ,1.230e+10   ,2.3  ,2.2299  ,4.7299
4944  ,4.488e+09   ,2.5  ,-1.9073  ,4.9
4987  ,2.449e+09   ,-2.3  ,1.5527  ,4.8
5010  ,1.422e+10   ,2.4973  ,2.1331  ,4.923
5013  ,7.875e+09   ,2.5  ,2.0345  ,4.9
5017  ,8.001e+09   ,2.4  ,2.0345  ,5
5035  ,3.943e+09   ,1.3  ,-2.4  ,0
5038  ,2.755e+09   ,1.2085  ,-2.5  ,0.2
5092  ,2.795e+08   ,-2.4  ,-2.5  ,1.2
5123  ,2.386e+09   ,2.5  ,-2.4  ,0.6
5151  ,1.475e+09   ,-2.5  ,-0.5  ,0.1
5160  ,1.439e+09   ,-2.5  ,-0.7  ,0.1
5164  ,1.690e+09   ,-2.4  ,0.9  ,5
5168  ,9.555e+08   ,-2.4  ,0.5  ,5
5176  ,3.625e+08   ,2.5  ,-0.7  ,0.1
5179  ,1.501e+08   ,2.4  ,-0.5  ,0
5189  ,9.961e+08   ,2.4  ,-2.5  ,2.4
5194  ,8.413e+08   ,2.3  ,-2.5  ,2.2576
5198  ,1.104e+09   ,-2.3  ,-2.5  ,0.32348
5205  ,5.724e+08   ,-2.4  ,-2.5  ,0.2
5207  ,1.436e+09   ,-2.1  ,-2.5  ,0.1
5246  ,1.988e+09   ,-2.5  ,2.4  ,3.2
5257  ,1.071e+09   ,-2.5  ,1.5  ,4.9
5263  ,1.557e+09   ,-2.3  ,0.2278  ,0.2
5272  ,1.783e+09   ,-2.5  ,0.3  ,0.1
5275  ,1.167e+09   ,-2.5  ,0.5  ,4.9
5281  ,6.764e+09   ,1.8375  ,2.5  ,4.9
5297  ,2.197e+09   ,-0.9  ,2.5  ,0.1
5306  ,1.263e+09   ,-0.7  ,2.4  ,0
5309  ,1.382e+09   ,-0.5  ,2.5  ,0.1
5324  ,2.322e+09   ,2.4  ,2.5  ,2.7607
5332  ,1.479e+09   ,2.5  ,-2.4  ,0.8
5334  ,1.044e+09   ,2.4  ,-2.5  ,1
5360  ,4.056e+09   ,2.4  ,-1.7102  ,5
5362  ,4.023e+09   ,2.4  ,-1.5131  ,5
5368  ,6.017e+09   ,2.4  ,1.8375  ,5
5371  ,3.895e+10   ,2.4325  ,2.4888  ,4.6656
5372  ,2.336e+10   ,2.3333  ,2.5  ,4.6998
5376  ,2.659e+10   ,2.4707  ,2.4707  ,4.6331
5377  ,1.500e+10   ,2.5  ,2.4  ,4.5345
5379  ,1.055e+09   ,-1.5  ,-2.5  ,4.9
5406  ,4.183e+09   ,-2.5  ,-2.4  ,3.4
5420  ,2.554e+09   ,-2.3  ,-2.5  ,3.2226
5423  ,3.145e+09   ,1.5  ,-2.4  ,0
5502  ,1.841e+08   ,-2.5  ,-2.3  ,0.1
5504  ,3.839e+08   ,-2.5  ,-2.4  ,0.2
5506  ,3.055e+08   ,-2.4  ,-2.3  ,0
5511  ,3.806e+08   ,-2.5  ,-2.1  ,0.1
5513  ,1.884e+09   ,-2.4  ,0.5  ,0
5517  ,7.560e+08   ,-0.9  ,-2.5  ,0.1
5532  ,2.497e+08   ,-2.4707  ,2.4707  ,4.9
5534  ,3.893e+08   ,2.4  ,-0.7  ,0
5551  ,3.364e+09   ,2.5  ,-2.4  ,3.8
5566  ,3.062e+09   ,2.5  ,2.4  ,1.3811
5603  ,3.915e+08   ,2.4  ,-0.3  ,0
5617  ,1.536e+09   ,-2.1  ,2.5  ,0.1
5637  ,1.230e+09   ,-2.3  ,-1.9695  ,4.8
5641  ,1.476e+09   ,2.3  ,-2.5  ,3.4636
5645  ,7.826e+08   ,-2.4  ,-2.5  ,2
5649  ,5.770e+08   ,-2.4  ,-2.5  ,2.2
5659  ,4.656e+08   ,-2.3  ,-2.5  ,1.7774
5662  ,8.825e+09   ,2.1765  ,-2.5  ,4.8
5666  ,3.239e+09   ,2.4  ,-2.5  ,4.8
5669  ,5.165e+09   ,2.3  ,-2.3412  ,4.8
5695  ,1.918e+09   ,-2.4  ,0.7  ,0
5701  ,1.807e+09   ,-2.5  ,2.4  ,1.6
5715  ,1.647e+09   ,-2.4  ,2.5  ,1.8
5726  ,1.728e+09   ,-0.7  ,2.5  ,0.1
5727  ,2.155e+09   ,-1.1  ,2.4  ,0
5730  ,8.669e+08   ,2.3  ,-2.5  ,1.7774
5746  ,3.263e+09   ,2.5  ,2.4  ,1.7753
5755  ,2.428e+09   ,2.5  ,-2.4  ,4.4
5763  ,2.055e+09   ,2.4  ,-2.5  ,4.4
5773  ,2.739e+09   ,1.0491  ,2.5  ,4.9
5791  ,2.971e+09   ,-0.72473  ,2.4  ,5
5795  ,7.574e+09   ,1.8375  ,2.4  ,5
5803  ,1.650e+09   ,-0.3  ,-2.4  ,5
5810  ,4.440e+09   ,2.4  ,1.6404  ,5
5836  ,1.030e+09   ,-2.5  ,1.3  ,4.9
5860  ,7.326e+08   ,2.5  ,-2.4  ,1.6
5866  ,1.611e+09   ,1.5  ,-2.5  ,0.1
5884  ,7.261e+08   ,-2.4  ,-0.3  ,5
5888  ,4.035e+08   ,-2.5  ,-0.5  ,4.9
5901  ,1.253e+09   ,2.3  ,-2.5  ,2.5
5908  ,1.118e+09   ,2.5  ,-2.4  ,1.2
5909  ,1.311e+09   ,2.5  ,-2.4  ,2
5934  ,2.242e+09   ,1.9  ,-2.5  ,4.9
5938  ,5.454e+09   ,1.933  ,-2.5  ,4.8
5948  ,1.896e+09   ,-2.4  ,-2.5  ,4.6
5950  ,2.454e+09   ,-2.4707  ,-2.4707  ,4.9
5951  ,2.544e+09   ,-2.5  ,-2.4  ,4.8
5952  ,1.804e+09   ,-2.5  ,-2.3  ,4.9
5986  ,6.675e+08   ,2.3  ,-2.5  ,3.7085
5990  ,3.819e+09   ,-0.92182  ,2.5  ,4.9
6019  ,1.025e+09   ,2.5  ,1.9  ,0.1
6025  ,8.544e+08   ,2.4  ,-1.3  ,0
6035  ,1.181e+09   ,-2.5  ,1.9  ,4.9
6044  ,9.643e+08   ,0.1  ,2.5  ,0.1
6054  ,6.094e+08   ,2.4  ,0.1  ,0
6070  ,6.008e+08   ,-2.4  ,2.3  ,0
6071  ,8.675e+08   ,-2.3  ,2.4  ,0
6076  ,1.046e+09   ,-2.4  ,2.1  ,0
6083  ,2.633e+09   ,2.1  ,-2.4  ,0
6084  ,6.427e+08   ,2.4  ,2.3  ,0
6087  ,5.896e+08   ,2.3  ,2.4  ,0
6092  ,1.074e+09   ,-2.4  ,-2.5  ,0.4
6096  ,6.931e+08   ,-2.3  ,-2.5  ,0.1
6099  ,1.551e+09   ,0.7  ,-2.5  ,0.1
6149  ,1.562e+09   ,-2.4  ,-0.9  ,0
6159  ,2.224e+09   ,-2.5  ,-2.4  ,2.6
6183  ,2.914e+09   ,1.2462  ,2.5  ,4.9
6224  ,2.298e+09   ,2.5  ,-2.4  ,4
6228  ,2.314e+09   ,2.4  ,-2.5  ,3.8
6237  ,1.809e+09   ,2.5  ,0.7  ,0.1
6241  ,1.335e+10   ,2.5  ,2.3333  ,4.6998
6245  ,2.950e+09   ,2.5  ,2.4  ,1.5782
6259  ,4.605e+09   ,2.5  ,-2.1044  ,4.9
6265  ,4.123e+09   ,2.3  ,-1.9804  ,4.8
6267  ,4.853e+09   ,2.5  ,-2.3015  ,4.9
6268  ,4.469e+09   ,2.4707  ,-2.4  ,4.9707
6270  ,4.736e+09   ,2.4  ,-2.1044  ,5
6317  ,2.884e+09   ,-2.3  ,0.2278  ,4.8
6349  ,3.181e+09   ,-0.52764  ,2.4  ,5
6391  ,3.223e+09   ,2.4  ,2.5  ,1.7753
6440  ,1.298e+09   ,-2.5  ,2.4  ,3.8
6471  ,3.535e+09   ,2.5  ,-0.92182  ,4.9
6489  ,3.071e+09   ,2.5  ,1.2462  ,4.9
6523  ,7.229e+08   ,-1.1  ,-2.4  ,0
6528  ,4.187e+08   ,-1.1  ,-2.5  ,0.1
6535  ,4.459e+08   ,-0.9  ,-2.4  ,0
6538  ,2.102e+09   ,1.5  ,-2.4  ,5
6541  ,2.381e+09   ,1.5  ,-2.5  ,4.9
6551  ,3.478e+09   ,2.5  ,-0.72473  ,4.9
6564  ,4.508e+10   ,2.1331  ,2.4973  ,4.923
6565  ,1.486e+10   ,2.0345  ,2.5  ,4.9
6572  ,9.964e+08   ,2.4  ,-1.7  ,0
6581  ,3.609e+09   ,0  ,2.3  ,0.2
6592  ,1.212e+09   ,2.3  ,-1.9695  ,0.2
6594  ,6.531e+08   ,0.3  ,2.4  ,0
6601  ,1.570e+09   ,0.5  ,2.5  ,0.1
6605  ,1.176e+09   ,-2.4  ,-1.3  ,0
6606  ,1.344e+09   ,-2.4  ,-1.1  ,0
6615  ,1.689e+09   ,-2.4  ,-0.3  ,0
6634  ,3.059e+09   ,2.1  ,-2.5  ,4.9
6635  ,5.140e+09   ,2.4  ,-2.4707  ,4.9707
6636  ,6.223e+09   ,2.3  ,-2.4  ,5
6647  ,1.369e+09   ,0.5  ,-2.5  ,0.1
6704  ,4.012e+08   ,-2.4707  ,2.4707  ,0.1
6708  ,7.810e+08   ,-2.5  ,2.4  ,0.2
6712  ,1.513e+09   ,-2.4  ,2.5  ,3.6
6715  ,2.071e+09   ,-2.4  ,2.5  ,3.4
6728  ,1.512e+09   ,-2.5  ,0.7  ,4.9
6753  ,7.370e+08   ,-2.1044  ,2.4  ,5
6788  ,9.038e+09   ,2.5  ,2.4  ,4.3375
6791  ,3.413e+09   ,-1.933  ,-2.5  ,4.8
6795  ,2.354e+10   ,2.1998  ,2.5  ,4.8333
6837  ,1.382e+09   ,-2.3  ,-2.5  ,0.8063
6869  ,4.165e+09   ,2.5  ,-1.7102  ,4.9
6873  ,4.871e+09   ,2.4  ,-1.9073  ,5
6880  ,3.759e+09   ,2.4  ,-0.92182  ,5
6885  ,3.441e+09   ,2.4  ,-0.52764  ,5
6893  ,2.870e+09   ,2.4  ,1.2462  ,5
6914  ,2.254e+09   ,0.7  ,2.5  ,0.1
6920  ,1.889e+09   ,0.9  ,2.4  ,0
6923  ,1.967e+09   ,0.7  ,2.4  ,0
6936  ,1.506e+09   ,2.4  ,-2.5  ,3.4
6939  ,1.837e+09   ,2.3  ,-2.5  ,3.2226
6961  ,9.361e+08   ,-0.1  ,-2.5  ,4.9
6967  ,1.339e+09   ,-2.5  ,-1.5  ,4.9
6975  ,1.403e+09   ,-2.4  ,1.1  ,5
6978  ,9.518e+08   ,-2.4  ,2.5  ,0.2
6987  ,3.818e+09   ,2.4  ,-1.316  ,5
6994  ,1.107e+09   ,2.4  ,-1.5  ,0
7004  ,1.977e+09   ,2.4  ,-2.5  ,3.6
7011  ,2.586e+09   ,2.4  ,0.65491  ,5
7016  ,2.340e+09   ,2.4  ,0.45782  ,5
7019  ,2.845e+09   ,2.5  ,2.4  ,2.1695
7021  ,2.933e+09   ,2.5  ,2.4  ,1.9724
7052  ,2.028e+09   ,-1.3  ,2.5  ,0.1
7054  ,8.431e+08   ,-2.4  ,-2.5  ,0.8
7057  ,1.180e+09   ,0.3  ,-2.5  ,0.1
7065  ,1.094e+09   ,0.24243  ,-2.5  ,0.2
7075  ,3.388e+10   ,2.4888  ,2.4325  ,4.6656
7113  ,8.367e+08   ,-2.4  ,-2.5  ,2.6
7121  ,1.321e+09   ,-2.4  ,-2.5  ,2.8
7126  ,2.805e+09   ,-2.5  ,-2.4  ,2.8
7128  ,1.116e+08   ,-2.4707  ,-2.4707  ,0.1
7129  ,1.690e+08   ,-2.4  ,-2.4707  ,0.029289
7141  ,1.757e+09   ,-1.7  ,-2.4  ,5
7145  ,1.370e+09   ,1.1  ,2.4  ,0
7163  ,1.434e+09   ,-1.7102  ,2.4  ,5
7172  ,4.022e+09   ,2.5  ,-2.4  ,3.2
7174  ,1.388e+09   ,-2.5  ,2.4  ,3.6
7183  ,1.443e+09   ,-1.4531  ,-2.5  ,4.8
7204  ,7.750e+09   ,2.3  ,-0.81068  ,4.8
7220  ,3.023e+09   ,2.5  ,0.063638  ,4.9
7227  ,1.672e+09   ,2.5  ,-1.9  ,0.1
7256  ,1.996e+09   ,-0.1  ,-2.4  ,5
7280  ,2.908e+09   ,-0.33054  ,2.4  ,5
7299  ,3.714e+09   ,2.5  ,-1.1189  ,4.9
7316  ,1.989e+09   ,-2.5  ,-2.4  ,0.8
7323  ,5.643e+08   ,-2.4  ,-2.5  ,1
7396  ,3.909e+09   ,1.1  ,-2.4  ,5
7400  ,1.898e+09   ,-2.5  ,0.7  ,0.1
7409  ,3.254e+09   ,1.3  ,-2.4  ,5
7420  ,1.096e+09   ,2.5  ,2.1  ,0.1
7429  ,1.372e+09   ,2.4  ,1.9  ,0
7436  ,1.336e+09   ,2.5  ,-1.7  ,0.1
7438  ,1.392e+09   ,2.4  ,-2.5  ,2.8
7445  ,2.123e+10   ,2.4325  ,2.1656  ,4.9888
7464  ,8.582e+08   ,2.5  ,-1.5  ,0.1
7480  ,3.013e+09   ,2.5  ,-2.4  ,0.2
7482  ,1.565e+09   ,1.9  ,-2.5  ,0.1
7483  ,1.624e+09   ,1.7  ,-2.5  ,0.1
7486  ,2.476e+09   ,1.9  ,-2.4  ,5
7488  ,3.353e+09   ,1.6937  ,-2.5  ,4.8
7492  ,6.390e+09   ,2.1  ,-2.4  ,5
7495  ,8.999e+08   ,0.1  ,-2.5  ,0.1
7504  ,2.966e+09   ,0.3  ,-2.4  ,0
7507  ,1.022e+09   ,0.9  ,-2.5  ,0.1
7533  ,1.907e+09   ,-2.5  ,0.9  ,0.1
7536  ,8.510e+08   ,-2.4  ,-2.5  ,3.2
7540  ,1.362e+09   ,-2.4  ,-2.5  ,3
7545  ,3.621e+09   ,-2.5  ,-2.4  ,3
7582  ,1.337e+09   ,1.3  ,2.5  ,0.1
7588  ,2.948e+09   ,2.5  ,2.4  ,2.3665
7598  ,1.420e+09   ,-2.5  ,2.4  ,4.2
7607  ,2.363e+09   ,1.5333  ,2.3  ,0.2
7627  ,1.098e+09   ,-2.5  ,1.1  ,4.9
7651  ,1.460e+09   ,2.4  ,-1.9  ,0
7656  ,8.519e+08   ,2.5  ,2.4  ,0.39564
7660  ,1.195e+10   ,2.2299  ,2.3  ,4.7299
7668  ,1.060e+09   ,1.4531  ,-2.5  ,4.8
7676  ,1.234e+09   ,0.1  ,-2.5  ,4.9
7683  ,2.685e+09   ,0.1  ,-2.4  ,5
7686  ,8.407e+08   ,-2.4  ,-1.1  ,5
7702  ,1.164e+09   ,-2.3  ,-2.5  ,4.433
7710  ,2.785e+09   ,-2.3  ,-2.5  ,4.6765
7752  ,4.160e+09   ,0.9  ,-2.4  ,5
7763  ,1.724e+09   ,0.24243  ,-2.5  ,4.8
7767  ,4.018e+09   ,-2.5  ,-2.4  ,3.2
7768  ,4.056e+08   ,-2.4  ,-2.1  ,0
7776  ,2.048e+09   ,-2.4  ,0.9  ,0
7786  ,6.582e+08   ,-0.4838  ,-2.5  ,4.8
7800  ,6.382e+09   ,2.5  ,-2.4  ,4.6
7805  ,9.166e+08   ,-2.5  ,-1.3  ,4.9
7811  ,7.192e+08   ,-2.5  ,-1.1  ,4.9
7820  ,1.961e+09   ,2.5  ,-2.1  ,0.1
7824  ,1.650e+09   ,2.4  ,-2.1  ,0
7828  ,2.341e+09   ,2.4  ,-2.5  ,4.2
7831  ,2.618e+09   ,2.4  ,-2.5  ,4
7838  ,1.177e+09   ,2.5  ,-2.4  ,4.2
7839  ,2.420e+09   ,2.5  ,2.4  ,2.7607
7840  ,2.627e+09   ,2.5  ,2.4  ,2.9578
7863  ,1.069e+09   ,-2.4  ,-1.5  ,0
7890  ,1.541e+09   ,2.4  ,0.9  ,0
7897  ,1.538e+09   ,-2.4  ,-0.7  ,0
7912  ,2.009e+09   ,-1.5  ,-2.4  ,0
7917  ,4.214e+08   ,-1.3  ,-2.5  ,0.1
7931  ,1.093e+09   ,0.5  ,2.4  ,0
7934  ,4.297e+09   ,1.1  ,-2.4  ,0
7937  ,1.186e+09   ,2.4  ,-2.5  ,0.8
7941  ,1.030e+09   ,-2.4  ,-2.5  ,0.6
7969  ,5.641e+08   ,-2.5  ,2.3  ,0.1
7971  ,1.267e+09   ,-2.4  ,1.9  ,0
7972  ,1.849e+09   ,-1.9  ,2.5  ,0.1
7978  ,1.977e+09   ,-2.4  ,1.1  ,0
7996  ,3.805e+08   ,-2.4  ,-0.5  ,5
8000  ,1.807e+09   ,-2.5  ,-2.4  ,0.6
8003  ,1.265e+09   ,-2.5  ,-2.4  ,0.4
8025  ,2.195e+09   ,0.9  ,2.5  ,0.1
8035  ,1.138e+09   ,0.3  ,2.5  ,0.1
8039  ,4.752e+09   ,2.3  ,-2.5  ,0.32348
8041  ,2.503e+09   ,2.3  ,-2.3379  ,0.2
8043  ,2.993e+09   ,2.1765  ,-2.5  ,0.2
8045  ,5.526e+08   ,-0.96359  ,-2.5  ,0.2
8054  ,1.124e+09   ,1.3  ,2.4  ,0
8058  ,1.663e+09   ,1.1  ,2.5  ,0.1
8062  ,2.229e+09   ,-2.5  ,2.4  ,1.4
8067  ,1.919e+09   ,-2.5  ,2.4  ,0.8
8087  ,1.647e+09   ,-2.5  ,1.5  ,0.1
8132  ,2.947e+09   ,-0.13345  ,2.4  ,5
8183  ,6.195e+08   ,2.5  ,-0.9  ,0.1
8184  ,1.570e+09   ,1.6937  ,-2.5  ,0.2
8214  ,1.947e+09   ,-2.4707  ,-2.4  ,4.9707
8217  ,3.661e+09   ,-2.1  ,-2.4  ,5
8219  ,1.660e+09   ,-2.4  ,-2.5  ,4.4
8227  ,2.695e+09   ,2.5  ,2.4  ,3.1549
8242  ,1.454e+09   ,0.7  ,-2.5  ,4.9
8248  ,4.076e+09   ,2.5  ,-2.4  ,3.6
8254  ,3.651e+08   ,2.5  ,-0.3  ,0.1
8256  ,2.484e+08   ,2.5  ,-0.5  ,0.1
8258  ,5.815e+08   ,-0.3  ,-2.5  ,4.9
8263  ,3.499e+08   ,-0.5  ,-2.5  ,4.9
8268  ,2.844e+09   ,-2.3  ,-2.5  ,3.7085
8277  ,6.936e+08   ,-0.1  ,-2.5  ,0.1
8285  ,1.833e+09   ,1.1  ,-2.5  ,4.9
8307  ,3.230e+08   ,0.1  ,2.4  ,0
8308  ,1.898e+09   ,-0.1  ,2.5  ,0.1
8309  ,5.824e+08   ,-0.1  ,2.4  ,0
8313  ,1.985e+09   ,2.5  ,-2.3  ,0.1
8318  ,3.825e+09   ,2.5  ,-2.4  ,3
8338  ,2.532e+09   ,2.5  ,2.4  ,3.352
8339  ,2.541e+09   ,2.4  ,2.5  ,3.1549
8344  ,1.955e+09   ,-2.5  ,2.4  ,3.4
8357  ,2.079e+10   ,2.4888  ,2.1656  ,4.9325
8358  ,8.268e+09   ,2.5  ,2.1998  ,4.8333
8383  ,2.188e+09   ,-1.7  ,-2.4  ,0
8396  ,8.335e+08   ,1.1  ,-2.5  ,0.1
8399  ,9.920e+09   ,2.4526  ,2.1331  ,4.9851
8405  ,1.244e+09   ,2.5  ,-2.4  ,1
8412  ,2.262e+09   ,2.3  ,-2.5  ,0.8063
8417  ,1.083e+09   ,-2.3  ,-2.5  ,2.5
8434  ,1.573e+09   ,0.9636  ,-2.5  ,4.8
8438  ,5.712e+08   ,-0.3  ,-2.5  ,0.1
8452  ,9.257e+08   ,-2.4  ,-0.1  ,5
8468  ,3.157e+09   ,2.5  ,2.4  ,3.7462
8471  ,1.050e+09   ,-1.3  ,-2.5  ,4.9
8493  ,8.797e+08   ,-1.1  ,-2.5  ,4.9
8509  ,8.427e+08   ,-2.5  ,-1.7  ,0.1
8517  ,1.478e+09   ,-2.4  ,2.5  ,3
8531  ,1.419e+09   ,-2.4  ,1.7  ,0
8556  ,2.778e+09   ,2.5  ,2.4  ,3.5491
8573  ,2.986e+09   ,-1.316  ,2.4  ,5
8576  ,1.876e+09   ,-2.4  ,1.3  ,0
8611  ,8.554e+08   ,2.3  ,-2.5  ,1.2915
8618  ,1.322e+09   ,-2.4  ,2.5  ,4
8646  ,2.004e+09   ,-2.5  ,1.1  ,0.1
8656  ,1.016e+09   ,2.5  ,-1.3  ,0.1
8657  ,1.231e+09   ,2.4  ,2.1  ,0
8673  ,2.031e+09   ,-1.3  ,2.4  ,0
8692  ,1.773e+09   ,0.72263  ,-2.5  ,4.8
8696  ,1.450e+09   ,2.3  ,-2.5  ,1.0469
8706  ,2.426e+09   ,2.5  ,0.65491  ,4.9
8721  ,6.640e+08   ,-2.4  ,-2.5  ,1.6
8725  ,2.853e+09   ,0.65491  ,2.4  ,5
8739  ,3.225e+10   ,2.1656  ,2.4325  ,4.9888
8741  ,1.423e+10   ,2.1998  ,2.3333  ,5
8746  ,1.439e+09   ,-2.1  ,-2.4  ,0
8748  ,1.335e+09   ,-2.5  ,-2.4  ,1.2
8752  ,4.002e+10   ,2.1331  ,2.4526  ,4.9851
8759  ,1.341e+09   ,-2.3  ,-2.5  ,1.0469
8787  ,2.130e+09   ,-0.1  ,-2.4  ,0
8793  ,1.176e+09   ,-2.3  ,-2.5  ,2.2576
8795  ,7.230e+08   ,-2.4  ,-2.5  ,2.4
8798  ,1.372e+09   ,-2.3  ,-2.5  ,4.1937
8808  ,2.382e+09   ,-2.3  ,-2.5  ,3.9531
8814  ,1.676e+09   ,-2.4  ,-1.5  ,5
8849  ,1.902e+09   ,0.4838  ,-2.5  ,4.8
8851  ,1.693e+09   ,-2.4  ,-2.5  ,4.2
8868  ,1.451e+09   ,2.4  ,-2.5  ,3
8874  ,2.744e+09   ,0.852  ,2.4  ,5
8883  ,1.157e+09   ,-0.5  ,-2.4  ,5
8886  ,5.932e+08   ,-0.72262  ,-2.5  ,4.8
8893  ,2.090e+08   ,-0.7  ,-2.5  ,4.9
8897  ,4.135e+09   ,-2.5  ,-2.4  ,3.6
8899  ,2.769e+09   ,-2.3  ,-2.5  ,3.4636
8900  ,7.793e+08   ,-2.3  ,-1.4729  ,0.2
8906  ,1.323e+09   ,-2.5  ,-1.3  ,0.1
8910  ,2.661e+09   ,0.852  ,2.5  ,4.9
8925  ,1.992e+09   ,-2.4  ,2.5  ,1.4
8941  ,3.278e+08   ,2.4707  ,2.4  ,0.029289
8942  ,6.474e+08   ,2.5  ,2.3  ,0.1
8945  ,1.099e+09   ,-2.5  ,0.1  ,4.9
8950  ,3.164e+08   ,2.4707  ,2.4707  ,0.1
8951  ,2.132e+08   ,2.4  ,2.4707  ,0.029289
8959  ,2.077e+09   ,2.4  ,0.26073  ,5
8965  ,2.712e+09   ,0.45782  ,2.4  ,5
8978  ,2.018e+09   ,2.4  ,0.852  ,5
8983  ,7.625e+08   ,2.5  ,-1.1  ,0.1
8991  ,1.684e+09   ,-2.5  ,2.4  ,0.6
9008  ,2.309e+09   ,2.5  ,0.852  ,4.9
9011  ,1.540e+09   ,-2.4  ,-0.5  ,0
9025  ,7.036e+08   ,-1.5  ,-2.5  ,0.1
9038  ,2.872e+08   ,2.4  ,-2.5  ,2
9041  ,1.898e+09   ,2.5  ,0.9  ,0.1
9050  ,1.163e+09   ,2.5  ,0.5  ,0.1
9054  ,4.351e+09   ,0.9  ,-2.4  ,0
9060  ,1.069e+09   ,2.4  ,-2.5  ,0.4
9062  ,3.427e+09   ,2.3  ,-2.5  ,0.56701
9064  ,3.242e+09   ,2.5  ,-2.4  ,0.4
9069  ,8.714e+08   ,2.4  ,-2.5  ,0.6
9071  ,2.525e+09   ,1.4531  ,-2.5  ,0.2
9082  ,9.930e+08   ,-2.3  ,-2.5  ,1.2915
9086  ,2.857e+08   ,-2.4  ,-2.5  ,1.4
9091  ,6.163e+08   ,-2.5  ,-2.4  ,1.4
9094  ,1.899e+09   ,1.3  ,-2.5  ,4.9
9097  ,7.112e+08   ,-0.7  ,-2.5  ,0.1
9137  ,5.006e+08   ,-2.5  ,-0.7  ,4.9
9143  ,9.444e+08   ,-2.5  ,-0.1  ,4.9
9146  ,1.401e+09   ,-2.1  ,2.4  ,0
9148  ,1.146e+09   ,-2.5  ,1.7  ,4.9
9173  ,1.269e+09   ,-2.5  ,2.4  ,3
9192  ,9.256e+08   ,-0.7  ,-2.4  ,5
9195  ,2.227e+09   ,0.72263  ,-2.5  ,0.2
9209  ,4.157e+09   ,2.5  ,-2.4  ,3.4
9215  ,2.575e+09   ,0.9636  ,-2.5  ,0.2
9217  ,1.478e+09   ,2.4  ,-2.5  ,3.2
9218  ,8.495e+08   ,-0.96359  ,-2.5  ,4.8
9229  ,1.287e+09   ,-2.4  ,2.5  ,2.8
9248  ,5.278e+09   ,2.3  ,-2.5  ,4.433
9255  ,1.355e+09   ,2.5  ,1.3  ,0.1
9257  ,1.020e+09   ,2.4  ,1.5  ,0
9262  ,3.689e+09   ,0.5  ,-2.4  ,5
9264  ,2.728e+09   ,2.4  ,-0.13345  ,5
9272  ,2.288e+09   ,0.063638  ,2.4  ,5
9277  ,2.173e+09   ,-2.5  ,2.4  ,1.2
9279  ,2.491e+09   ,2.5  ,0.26073  ,4.9
9282  ,6.970e+08   ,1.2085  ,-2.5  ,4.8
9286  ,1.451e+09   ,0.9  ,-2.5  ,4.9
9292  ,2.613e+08   ,-2.4  ,2.4707  ,4.9707
9293  ,4.098e+08   ,-2.3015  ,2.4  ,5
9296  ,1.937e+09   ,-2.4  ,-2.1  ,5
9303  ,1.904e+09   ,-2.4  ,-1.9  ,5
9311  ,6.516e+08   ,-2.4  ,2.3  ,5
9313  ,9.483e+08   ,-2.4  ,0.1  ,5
9319  ,1.659e+09   ,-0.5  ,-2.4  ,0
9328  ,5.588e+08   ,-2.3  ,-2.5  ,1.5364
9334  ,1.046e+09   ,-2.3  ,2.5  ,0.1
9338  ,2.031e+09   ,-2.5  ,-2.4  ,2.4
9339  ,1.796e+09   ,-2.5  ,1.3  ,0.1
9341  ,1.335e+09   ,-2.3  ,-2.5  ,2.7424
9344  ,1.889e+09   ,-2.5  ,-2.4  ,2.2
9358  ,5.383e+09   ,-2.3  ,2.3  ,2.5
9364  ,1.782e+09   ,-2.5  ,-2.1  ,4.9
9367  ,2.222e+09   ,-2.4  ,-2.3  ,5
9374  ,1.163e+09   ,-2.4  ,-1.3  ,5
9378  ,1.145e+09   ,-2.5  ,2.4  ,1.8
9384  ,8.686e+08   ,2.3  ,-2.5  ,2.0162
9385  ,1.338e+09   ,-2.5  ,2.4  ,4.4
9389  ,1.218e+09   ,-2.5  ,2.4  ,2
9395  ,4.566e+09   ,2.4  ,-2.3015  ,5
9396  ,8.843e+08   ,-2.4  ,-1.7  ,0
9407  ,1.327e+09   ,-2.3  ,-1.4729  ,4.8
9411  ,1.118e+09   ,-2.5  ,-1.7  ,4.9
9423  ,7.768e+08   ,-2.4  ,-2.5  ,3.6
9432  ,4.017e+09   ,0.7  ,-2.4  ,5
9438  ,5.530e+08   ,-2.5  ,-0.9  ,4.9
9443  ,6.957e+08   ,-2.5  ,-0.3  ,4.9
9445  ,2.912e+08   ,-2.4707  ,2.4  ,4.9707
9448  ,3.661e+09   ,2.4  ,-1.1189  ,5
9453  ,1.656e+09   ,2.4  ,0.7  ,0
9455  ,2.669e+09   ,2.5  ,-2.4  ,2.6
9457  ,1.944e+09   ,2.3  ,-2.5  ,2.9838
9494  ,2.012e+09   ,-2.4  ,2.5  ,1
9500  ,1.359e+09   ,0.3  ,-2.5  ,4.9
9504  ,3.311e+09   ,0.3  ,-2.4  ,5
9506  ,1.507e+09   ,2.1  ,-2.5  ,0.1
9518  ,1.239e+09   ,-1.9  ,-2.5  ,0.1
9528  ,1.842e+09   ,2.3  ,-2.5  ,0.1
9531  ,3.256e+09   ,2.4707  ,-2.4707  ,0.1
9533  ,1.998e+09   ,2.4707  ,-2.4  ,0.029289
9534  ,2.558e+09   ,2.4  ,-2.4707  ,0.029289
9541  ,1.426e+09   ,0.5  ,-2.5  ,4.9
9544  ,6.050e+08   ,-0.5  ,-2.5  ,0.1
9559  ,1.422e+09   ,-2.5  ,-1.9  ,4.9
9562  ,1.037e+09   ,-2.5  ,2.4  ,4.6
9565  ,1.621e+09   ,-2.4  ,2.5  ,2
9571  ,3.906e+09   ,-2.5  ,-2.4  ,3.8
9574  ,9.814e+08   ,-2.4  ,-2.5  ,3.8
9577  ,1.057e+09   ,1.3  ,-2.5  ,0.1
9582  ,1.529e+09   ,-2.5  ,-0.9  ,0.1
9596  ,1.028e+09   ,2.1  ,2.4  ,0
9598  ,2.125e+09   ,-2.4  ,2.5  ,3.2
9602  ,1.366e+09   ,1.5  ,2.5  ,0.1
9610  ,9.213e+08   ,2.4  ,2.5  ,0.39564
9612  ,3.683e+09   ,-0.72473  ,2.5  ,4.9
9614  ,1.384e+09   ,1.7  ,2.5  ,0.1
9635  ,1.223e+09   ,2.5  ,1.7  ,0.1
9646  ,6.364e+08   ,2.3  ,2.5  ,0.1
9651  ,3.361e+10   ,2.1656  ,2.4888  ,4.9325
9653  ,3.618e+09   ,2.5  ,-1.316  ,4.9
9656  ,1.480e+09   ,-2.4  ,-1.7  ,5
9659  ,8.778e+09   ,2.3  ,-2.5  ,4.6765
9661  ,1.529e+09   ,2.3  ,-2.5  ,3.9531
9664  ,3.017e+09   ,-2.3  ,-2.4  ,5
9666  ,1.255e+09   ,1.9  ,-2.4  ,0
9677  ,1.266e+09   ,2.4  ,0.5  ,0
9678  ,1.498e+09   ,-2.5  ,-1.1  ,0.1
9680  ,2.915e+09   ,2.5  ,2.4  ,1.184
9681  ,4.554e+08   ,2.5  ,2.4  ,0.19855
9696  ,1.010e+09   ,-2.3  ,-2.5  ,2.0162
9698  ,2.044e+09   ,2.4  ,-2.3  ,0
9699  ,1.026e+09   ,-0.24243  ,-2.5  ,0.2
9701  ,2.441e+09   ,0.1  ,-2.4  ,0
9704  ,8.619e+08   ,-0.4838  ,-2.5  ,0.2
9718  ,4.154e+08   ,-0.72262  ,-2.5  ,0.2
9726  ,2.421e+09   ,2.3  ,-0.76628  ,0.2
9727  ,1.478e+09   ,-2.5  ,2.4  ,0.4
9730  ,1.254e+09   ,1.9433E-06  ,-2.5  ,4.8
9731  ,8.522e+08   ,-0.24243  ,-2.5  ,4.8
9732  ,1.289e+09   ,-2.5  ,2.4  ,2.2
9738  ,3.218e+09   ,-2.5  ,-2.4  ,4
9743  ,2.273e+09   ,-1.6937  ,-2.5  ,4.8
9744  ,1.399e+09   ,-2.4  ,-2.5  ,4
9750  ,9.704e+08   ,-1.7  ,-2.5  ,0.1
9752  ,1.308e+09   ,-1.6937  ,-2.5  ,0.2
9754  ,1.486e+09   ,-1.3  ,-2.4  ,0
9759  ,3.357e+08   ,-2.4707  ,2.4  ,0.029289
9760  ,3.693e+08   ,-2.4  ,2.4707  ,0.029289
9768  ,3.468e+09   ,2.3  ,-2.5  ,4.1937
9770  ,9.667e+08   ,1.9433E-06  ,-2.5  ,0.2
9771  ,1.617e+09   ,0.4838  ,-2.5  ,0.2
9772  ,1.638e+09   ,2.4  ,-2.5  ,0.2
9773  ,3.009e+09   ,2.4  ,-2.5  ,4.6
9776  ,2.496e+09   ,2.4  ,0.063638  ,5
9780  ,2.777e+09   ,0.65491  ,2.5  ,4.9
9781  ,4.440e+08   ,2.4  ,2.5  ,0.19855
9782  ,2.139e+09   ,-2.3  ,-2.5  ,2.9838
9786  ,8.968e+08   ,-1.2085  ,-2.5  ,0.2
9787  ,1.216e+09   ,-1.4531  ,-2.5  ,0.2
9790  ,2.614e+09   ,2.3  ,-2.4  ,0
9793  ,1.382e+10   ,2.0345  ,2.4  ,5
9797  ,6.666e+08   ,2.3  ,-2.5  ,1.5364
9798  ,2.478e+09   ,2.4  ,1.0491  ,5
9809  ,2.419e+09   ,2.4  ,2.5  ,3.352
