Date:  12:50, Monday, July 10, 2023
Model name: Hollow_DropBox
Study name: DropTest_300fts(-Default-)
Plot type:  Stress1
Plot step: 7   time : 36.735 Microseconds
Result Type: von Mises 


Node  ,Value (N/m^2)  ,X (in)  ,Y (in)  ,Z (in)
1  ,2.081e+10   ,2.5  ,2.1331  ,4.9
2  ,2.501e+10   ,2.4577  ,2.1908  ,4.9577
3  ,4.157e+10   ,2.4894  ,2.1331  ,4.9447
4  ,2.115e+10   ,2.1331  ,2.5  ,4.9
5  ,4.262e+10   ,2.1331  ,2.4894  ,4.9447
6  ,2.398e+10   ,2.1908  ,2.4577  ,4.9577
7  ,1.796e+08   ,-2.4  ,2.4  ,5
8  ,3.591e+08   ,-2.4  ,-2.4  ,5
9  ,2.152e+08   ,2.4  ,-2.4  ,5
10  ,1.810e+10   ,2.4  ,2.1331  ,5
11  ,2.093e+10   ,2.1331  ,2.4  ,5
12  ,2.180e+08   ,2.5  ,-2.4  ,4.9
13  ,3.478e+08   ,2.5  ,-2.4  ,0.1
14  ,1.939e+08   ,2.5  ,2.4  ,0.1
15  ,2.097e+10   ,2.5  ,2.4  ,4.6331
16  ,1.934e+08   ,2.4  ,2.5  ,0.1
17  ,1.233e+08   ,-2.4  ,2.5  ,0.1
18  ,1.257e+08   ,-2.4  ,2.5  ,4.9
19  ,2.107e+10   ,2.4  ,2.5  ,4.6331
20  ,1.677e+08   ,-2.5  ,2.4  ,0.1
21  ,2.275e+06   ,-2.5  ,-2.4  ,0.1
22  ,1.973e+08   ,-2.5  ,-2.4  ,4.9
23  ,2.375e+08   ,-2.5  ,2.4  ,4.9
24  ,6.403e+06   ,-2.3  ,-2.5  ,0.2
25  ,5.880e+08   ,-2.3  ,-2.5  ,4.8
26  ,2.179e+08   ,2.3  ,-2.5  ,4.8
27  ,5.724e+08   ,2.3  ,-2.5  ,0.2
28  ,2.574e+08   ,-2.4  ,-2.5  ,4.9
29  ,2.014e+08   ,2.4  ,-2.5  ,4.9
30  ,4.934e+06   ,-2.4  ,-2.5  ,0.1
31  ,3.046e+08   ,2.4  ,-2.5  ,0.1
32  ,2.232e+08   ,2.4  ,-2.4  ,0
33  ,2.485e+08   ,2.4  ,2.4  ,0
34  ,2.974e+06   ,-2.4  ,-2.4  ,0
35  ,1.667e+08   ,-2.4  ,2.4  ,0
36  ,3.037e+10   ,2.4577  ,2.4577  ,4.6908
37  ,2.467e+08   ,-2.3  ,2.3  ,4.8
38  ,1.364e+10   ,2.1599  ,2.3  ,4.8
39  ,1.341e+10   ,2.3  ,2.1599  ,4.8
40  ,1.352e+10   ,2.3  ,2.3  ,4.6599
41  ,2.197e+08   ,2.3  ,2.3  ,0.2
42  ,2.421e+08   ,-2.3  ,2.3  ,0.2
43  ,3.326e+08   ,-2.4  ,2.2  ,5
44  ,3.375e+08   ,-2.4  ,2  ,5
45  ,2.667e+08   ,-2.4  ,1.8  ,5
46  ,3.106e+08   ,-2.4  ,1.6  ,5
47  ,2.898e+08   ,-2.4  ,1.4  ,5
48  ,3.243e+08   ,-2.4  ,1.2  ,5
49  ,3.122e+08   ,-2.4  ,1  ,5
50  ,4.165e+08   ,-2.4  ,0.8  ,5
51  ,4.612e+08   ,-2.4  ,0.6  ,5
52  ,4.496e+08   ,-2.4  ,0.4  ,5
53  ,4.484e+08   ,-2.4  ,0.2  ,5
54  ,3.292e+08   ,-2.4  ,5.8879E-16  ,5
55  ,3.910e+08   ,-2.4  ,-0.2  ,5
56  ,4.287e+08   ,-2.4  ,-0.4  ,5
57  ,3.591e+08   ,-2.4  ,-0.6  ,5
58  ,3.645e+08   ,-2.4  ,-0.8  ,5
59  ,4.070e+08   ,-2.4  ,-1  ,5
60  ,4.435e+08   ,-2.4  ,-1.2  ,5
61  ,4.215e+08   ,-2.4  ,-1.4  ,5
62  ,3.214e+08   ,-2.4  ,-1.6  ,5
63  ,1.568e+08   ,-2.4  ,-1.8  ,5
64  ,2.144e+08   ,-2.4  ,-2  ,5
65  ,2.345e+08   ,-2.4  ,-2.2  ,5
66  ,3.327e+08   ,-2.2  ,-2.4  ,5
67  ,3.333e+08   ,-2  ,-2.4  ,5
68  ,4.318e+08   ,-1.8  ,-2.4  ,5
69  ,4.737e+08   ,-1.6  ,-2.4  ,5
70  ,4.262e+08   ,-1.4  ,-2.4  ,5
71  ,4.152e+08   ,-1.2  ,-2.4  ,5
72  ,2.877e+08   ,-1  ,-2.4  ,5
73  ,3.214e+08   ,-0.8  ,-2.4  ,5
74  ,4.648e+08   ,-0.6  ,-2.4  ,5
75  ,6.140e+08   ,-0.4  ,-2.4  ,5
76  ,6.400e+08   ,-0.2  ,-2.4  ,5
77  ,6.327e+08   ,-5.8879E-16  ,-2.4  ,5
78  ,5.010e+08   ,0.2  ,-2.4  ,5
79  ,5.054e+08   ,0.4  ,-2.4  ,5
80  ,4.763e+08   ,0.6  ,-2.4  ,5
81  ,3.724e+08   ,0.8  ,-2.4  ,5
82  ,3.774e+08   ,1  ,-2.4  ,5
83  ,4.729e+08   ,1.2  ,-2.4  ,5
84  ,5.465e+08   ,1.4  ,-2.4  ,5
85  ,4.977e+08   ,1.6  ,-2.4  ,5
86  ,2.887e+08   ,1.8  ,-2.4  ,5
87  ,2.132e+08   ,2  ,-2.4  ,5
88  ,2.854e+08   ,2.2  ,-2.4  ,5
89  ,2.805e+08   ,2.4  ,-2.2029  ,5
90  ,4.774e+08   ,2.4  ,-2.0058  ,5
91  ,6.502e+08   ,2.4  ,-1.8087  ,5
92  ,5.844e+08   ,2.4  ,-1.6116  ,5
93  ,4.869e+08   ,2.4  ,-1.4145  ,5
94  ,3.909e+08   ,2.4  ,-1.2175  ,5
95  ,4.197e+08   ,2.4  ,-1.0204  ,5
96  ,3.850e+08   ,2.4  ,-0.82327  ,5
97  ,4.708e+08   ,2.4  ,-0.62618  ,5
98  ,6.072e+08   ,2.4  ,-0.42909  ,5
99  ,8.846e+08   ,2.4  ,-0.232  ,5
100  ,1.214e+09   ,2.4  ,-0.034907  ,5
101  ,1.456e+09   ,2.4  ,0.16218  ,5
102  ,1.693e+09   ,2.4  ,0.35927  ,5
103  ,2.120e+09   ,2.4  ,0.55637  ,5
104  ,2.399e+09   ,2.4  ,0.75346  ,5
105  ,2.525e+09   ,2.4  ,0.95055  ,5
106  ,2.199e+09   ,2.4  ,1.1476  ,5
107  ,3.182e+09   ,2.4  ,1.3447  ,5
108  ,4.262e+09   ,2.4  ,1.5418  ,5
109  ,5.954e+09   ,2.4  ,1.7389  ,5
110  ,1.071e+10   ,2.4  ,1.936  ,5
111  ,1.400e+10   ,2.2665  ,2.2665  ,5
112  ,1.070e+10   ,1.936  ,2.4  ,5
113  ,5.769e+09   ,1.7389  ,2.4  ,5
114  ,4.747e+09   ,1.5418  ,2.4  ,5
115  ,3.371e+09   ,1.3447  ,2.4  ,5
116  ,2.716e+09   ,1.1476  ,2.4  ,5
117  ,2.500e+09   ,0.95055  ,2.4  ,5
118  ,2.528e+09   ,0.75346  ,2.4  ,5
119  ,1.931e+09   ,0.55637  ,2.4  ,5
120  ,1.788e+09   ,0.35927  ,2.4  ,5
121  ,1.716e+09   ,0.16218  ,2.4  ,5
122  ,1.345e+09   ,-0.034907  ,2.4  ,5
123  ,1.094e+09   ,-0.232  ,2.4  ,5
124  ,6.615e+08   ,-0.42909  ,2.4  ,5
125  ,4.545e+08   ,-0.62618  ,2.4  ,5
126  ,2.917e+08   ,-0.82327  ,2.4  ,5
127  ,3.339e+08   ,-1.0204  ,2.4  ,5
128  ,4.026e+08   ,-1.2175  ,2.4  ,5
129  ,3.462e+08   ,-1.4145  ,2.4  ,5
130  ,4.163e+08   ,-1.6116  ,2.4  ,5
131  ,3.965e+08   ,-1.8087  ,2.4  ,5
132  ,3.856e+08   ,-2.0058  ,2.4  ,5
133  ,2.902e+08   ,-2.2029  ,2.4  ,5
294  ,2.786e+08   ,2.5  ,-2.2029  ,4.9
295  ,4.987e+08   ,2.5  ,-2.0058  ,4.9
296  ,6.600e+08   ,2.5  ,-1.8087  ,4.9
297  ,5.433e+08   ,2.5  ,-1.6116  ,4.9
298  ,4.468e+08   ,2.5  ,-1.4145  ,4.9
299  ,3.871e+08   ,2.5  ,-1.2175  ,4.9
300  ,4.591e+08   ,2.5  ,-1.0204  ,4.9
301  ,3.753e+08   ,2.5  ,-0.82327  ,4.9
302  ,3.129e+08   ,2.5  ,-0.62618  ,4.9
303  ,6.271e+08   ,2.5  ,-0.42909  ,4.9
304  ,9.150e+08   ,2.5  ,-0.232  ,4.9
305  ,1.274e+09   ,2.5  ,-0.034907  ,4.9
306  ,1.614e+09   ,2.5  ,0.16218  ,4.9
307  ,1.692e+09   ,2.5  ,0.35927  ,4.9
308  ,1.956e+09   ,2.5  ,0.55637  ,4.9
309  ,2.215e+09   ,2.5  ,0.75346  ,4.9
310  ,2.510e+09   ,2.5  ,0.95055  ,4.9
311  ,2.816e+09   ,2.5  ,1.1476  ,4.9
312  ,3.311e+09   ,2.5  ,1.3447  ,4.9
313  ,4.450e+09   ,2.5  ,1.5418  ,4.9
314  ,7.181e+09   ,2.5  ,1.7389  ,4.9
315  ,1.171e+10   ,2.5  ,1.936  ,4.9
316  ,2.908e+08   ,2.5  ,-2.4  ,4.7
317  ,2.102e+08   ,2.5  ,-2.4  ,4.5
318  ,3.056e+08   ,2.5  ,-2.4  ,4.3
319  ,5.555e+08   ,2.5  ,-2.4  ,4.1
320  ,5.773e+08   ,2.5  ,-2.4  ,3.9
321  ,5.380e+08   ,2.5  ,-2.4  ,3.7
322  ,3.780e+08   ,2.5  ,-2.4  ,3.5
323  ,4.740e+08   ,2.5  ,-2.4  ,3.3
324  ,5.617e+08   ,2.5  ,-2.4  ,3.1
325  ,5.025e+08   ,2.5  ,-2.4  ,2.9
326  ,4.868e+08   ,2.5  ,-2.4  ,2.7
327  ,5.266e+08   ,2.5  ,-2.4  ,2.5
328  ,5.125e+08   ,2.5  ,-2.4  ,2.3
329  ,4.125e+08   ,2.5  ,-2.4  ,2.1
330  ,2.349e+08   ,2.5  ,-2.4  ,1.9
331  ,1.576e+08   ,2.5  ,-2.4  ,1.7
332  ,1.782e+08   ,2.5  ,-2.4  ,1.5
333  ,2.987e+08   ,2.5  ,-2.4  ,1.3
334  ,3.709e+08   ,2.5  ,-2.4  ,1.1
335  ,4.430e+08   ,2.5  ,-2.4  ,0.9
336  ,4.476e+08   ,2.5  ,-2.4  ,0.7
337  ,2.838e+08   ,2.5  ,-2.4  ,0.5
338  ,2.967e+08   ,2.5  ,-2.4  ,0.3
339  ,2.125e+08   ,2.5  ,-2.2  ,0.1
340  ,1.788e+08   ,2.5  ,-2  ,0.1
341  ,1.802e+08   ,2.5  ,-1.8  ,0.1
342  ,3.381e+08   ,2.5  ,-1.6  ,0.1
343  ,4.126e+08   ,2.5  ,-1.4  ,0.1
344  ,4.733e+08   ,2.5  ,-1.2  ,0.1
345  ,4.039e+08   ,2.5  ,-1  ,0.1
346  ,3.297e+08   ,2.5  ,-0.8  ,0.1
347  ,3.659e+08   ,2.5  ,-0.6  ,0.1
348  ,4.008e+08   ,2.5  ,-0.4  ,0.1
349  ,3.316e+08   ,2.5  ,-0.2  ,0.1
350  ,3.295e+08   ,2.5  ,-1.7664E-15  ,0.1
351  ,3.513e+08   ,2.5  ,0.2  ,0.1
352  ,5.566e+08   ,2.5  ,0.4  ,0.1
353  ,4.842e+08   ,2.5  ,0.6  ,0.1
354  ,5.308e+08   ,2.5  ,0.8  ,0.1
355  ,4.446e+08   ,2.5  ,1  ,0.1
356  ,3.686e+08   ,2.5  ,1.2  ,0.1
357  ,3.771e+08   ,2.5  ,1.4  ,0.1
358  ,3.617e+08   ,2.5  ,1.6  ,0.1
359  ,3.198e+08   ,2.5  ,1.8  ,0.1
360  ,3.090e+08   ,2.5  ,2  ,0.1
361  ,3.804e+08   ,2.5  ,2.2  ,0.1
362  ,1.152e+10   ,2.5  ,2.4  ,4.436
363  ,7.410e+09   ,2.5  ,2.4  ,4.2389
364  ,4.442e+09   ,2.5  ,2.4  ,4.0418
365  ,3.634e+09   ,2.5  ,2.4  ,3.8447
366  ,2.634e+09   ,2.5  ,2.4  ,3.6476
367  ,2.532e+09   ,2.5  ,2.4  ,3.4505
368  ,2.434e+09   ,2.5  ,2.4  ,3.2535
369  ,2.086e+09   ,2.5  ,2.4  ,3.0564
370  ,1.793e+09   ,2.5  ,2.4  ,2.8593
371  ,1.647e+09   ,2.5  ,2.4  ,2.6622
372  ,1.509e+09   ,2.5  ,2.4  ,2.4651
373  ,9.869e+08   ,2.5  ,2.4  ,2.268
374  ,7.433e+08   ,2.5  ,2.4  ,2.0709
375  ,4.950e+08   ,2.5  ,2.4  ,1.8738
376  ,3.044e+08   ,2.5  ,2.4  ,1.6767
377  ,2.363e+08   ,2.5  ,2.4  ,1.4796
378  ,3.380e+08   ,2.5  ,2.4  ,1.2825
379  ,3.612e+08   ,2.5  ,2.4  ,1.0855
380  ,3.971e+08   ,2.5  ,2.4  ,0.88836
381  ,3.800e+08   ,2.5  ,2.4  ,0.69127
382  ,2.925e+08   ,2.5  ,2.4  ,0.49418
383  ,2.961e+08   ,2.5  ,2.4  ,0.29709
384  ,1.367e+10   ,2.5  ,2.2665  ,4.7665
544  ,2.690e+08   ,2.2  ,2.5  ,0.1
545  ,2.595e+08   ,2  ,2.5  ,0.1
546  ,2.385e+08   ,1.8  ,2.5  ,0.1
547  ,2.747e+08   ,1.6  ,2.5  ,0.1
548  ,2.654e+08   ,1.4  ,2.5  ,0.1
549  ,3.039e+08   ,1.2  ,2.5  ,0.1
550  ,2.867e+08   ,1  ,2.5  ,0.1
551  ,4.941e+08   ,0.8  ,2.5  ,0.1
552  ,5.071e+08   ,0.6  ,2.5  ,0.1
553  ,2.990e+08   ,0.4  ,2.5  ,0.1
554  ,2.578e+08   ,0.2  ,2.5  ,0.1
555  ,3.620e+08   ,5.8879E-16  ,2.5  ,0.1
556  ,6.469e+08   ,-0.2  ,2.5  ,0.1
557  ,4.642e+08   ,-0.4  ,2.5  ,0.1
558  ,3.485e+08   ,-0.6  ,2.5  ,0.1
559  ,3.787e+08   ,-0.8  ,2.5  ,0.1
560  ,2.600e+08   ,-1  ,2.5  ,0.1
561  ,3.164e+08   ,-1.2  ,2.5  ,0.1
562  ,3.812e+08   ,-1.4  ,2.5  ,0.1
563  ,4.289e+08   ,-1.6  ,2.5  ,0.1
564  ,4.121e+08   ,-1.8  ,2.5  ,0.1
565  ,3.606e+08   ,-2  ,2.5  ,0.1
566  ,2.193e+08   ,-2.2  ,2.5  ,0.1
567  ,2.911e+08   ,-2.4  ,2.5  ,4.7
568  ,2.387e+08   ,-2.4  ,2.5  ,4.5
569  ,2.086e+08   ,-2.4  ,2.5  ,4.3
570  ,2.726e+08   ,-2.4  ,2.5  ,4.1
571  ,3.047e+08   ,-2.4  ,2.5  ,3.9
572  ,3.233e+08   ,-2.4  ,2.5  ,3.7
573  ,3.425e+08   ,-2.4  ,2.5  ,3.5
574  ,5.084e+08   ,-2.4  ,2.5  ,3.3
575  ,4.861e+08   ,-2.4  ,2.5  ,3.1
576  ,4.407e+08   ,-2.4  ,2.5  ,2.9
577  ,4.369e+08   ,-2.4  ,2.5  ,2.7
578  ,4.949e+08   ,-2.4  ,2.5  ,2.5
579  ,4.486e+08   ,-2.4  ,2.5  ,2.3
580  ,4.305e+08   ,-2.4  ,2.5  ,2.1
581  ,3.456e+08   ,-2.4  ,2.5  ,1.9
582  ,3.255e+08   ,-2.4  ,2.5  ,1.7
583  ,2.859e+08   ,-2.4  ,2.5  ,1.5
584  ,3.325e+08   ,-2.4  ,2.5  ,1.3
585  ,3.859e+08   ,-2.4  ,2.5  ,1.1
586  ,3.906e+08   ,-2.4  ,2.5  ,0.9
587  ,3.628e+08   ,-2.4  ,2.5  ,0.7
588  ,2.836e+08   ,-2.4  ,2.5  ,0.5
589  ,1.702e+08   ,-2.4  ,2.5  ,0.3
590  ,1.185e+10   ,1.936  ,2.5  ,4.9
591  ,5.566e+09   ,1.7389  ,2.5  ,4.9
592  ,4.064e+09   ,1.5418  ,2.5  ,4.9
593  ,3.560e+09   ,1.3447  ,2.5  ,4.9
594  ,2.661e+09   ,1.1476  ,2.5  ,4.9
595  ,2.583e+09   ,0.95055  ,2.5  ,4.9
596  ,2.607e+09   ,0.75346  ,2.5  ,4.9
597  ,2.120e+09   ,0.55637  ,2.5  ,4.9
598  ,1.930e+09   ,0.35927  ,2.5  ,4.9
599  ,1.627e+09   ,0.16218  ,2.5  ,4.9
600  ,1.267e+09   ,-0.034907  ,2.5  ,4.9
601  ,9.085e+08   ,-0.232  ,2.5  ,4.9
602  ,7.600e+08   ,-0.42909  ,2.5  ,4.9
603  ,5.152e+08   ,-0.62618  ,2.5  ,4.9
604  ,3.096e+08   ,-0.82327  ,2.5  ,4.9
605  ,3.056e+08   ,-1.0204  ,2.5  ,4.9
606  ,3.050e+08   ,-1.2175  ,2.5  ,4.9
607  ,4.142e+08   ,-1.4145  ,2.5  ,4.9
608  ,4.441e+08   ,-1.6116  ,2.5  ,4.9
609  ,3.996e+08   ,-1.8087  ,2.5  ,4.9
610  ,3.975e+08   ,-2.0058  ,2.5  ,4.9
611  ,3.500e+08   ,-2.2029  ,2.5  ,4.9
612  ,1.383e+10   ,2.2665  ,2.5  ,4.7665
613  ,1.032e+10   ,2.4  ,2.5  ,4.436
614  ,6.394e+09   ,2.4  ,2.5  ,4.2389
615  ,4.347e+09   ,2.4  ,2.5  ,4.0418
616  ,3.322e+09   ,2.4  ,2.5  ,3.8447
617  ,2.803e+09   ,2.4  ,2.5  ,3.6476
618  ,2.608e+09   ,2.4  ,2.5  ,3.4505
619  ,2.442e+09   ,2.4  ,2.5  ,3.2535
620  ,2.098e+09   ,2.4  ,2.5  ,3.0564
621  ,1.797e+09   ,2.4  ,2.5  ,2.8593
622  ,1.572e+09   ,2.4  ,2.5  ,2.6622
623  ,1.318e+09   ,2.4  ,2.5  ,2.4651
624  ,9.479e+08   ,2.4  ,2.5  ,2.268
625  ,6.454e+08   ,2.4  ,2.5  ,2.0709
626  ,4.744e+08   ,2.4  ,2.5  ,1.8738
627  ,3.355e+08   ,2.4  ,2.5  ,1.6767
628  ,3.881e+08   ,2.4  ,2.5  ,1.4796
629  ,3.811e+08   ,2.4  ,2.5  ,1.2825
630  ,3.444e+08   ,2.4  ,2.5  ,1.0855
631  ,4.030e+08   ,2.4  ,2.5  ,0.88836
632  ,3.873e+08   ,2.4  ,2.5  ,0.69127
633  ,3.064e+08   ,2.4  ,2.5  ,0.49418
634  ,3.000e+08   ,2.4  ,2.5  ,0.29709
796  ,1.347e+08   ,-2.5  ,2.2  ,0.1
797  ,1.611e+08   ,-2.5  ,2  ,0.1
798  ,2.508e+08   ,-2.5  ,1.8  ,0.1
799  ,3.044e+08   ,-2.5  ,1.6  ,0.1
800  ,3.072e+08   ,-2.5  ,1.4  ,0.1
801  ,2.683e+08   ,-2.5  ,1.2  ,0.1
802  ,1.559e+08   ,-2.5  ,1  ,0.1
803  ,4.155e+07   ,-2.5  ,0.8  ,0.1
804  ,4.505e+07   ,-2.5  ,0.6  ,0.1
805  ,3.770e+07   ,-2.5  ,0.4  ,0.1
806  ,2.898e+07   ,-2.5  ,0.2  ,0.1
807  ,2.198e+07   ,-2.5  ,5.8879E-16  ,0.1
808  ,2.944e+07   ,-2.5  ,-0.2  ,0.1
809  ,4.174e+07   ,-2.5  ,-0.4  ,0.1
810  ,1.092e+07   ,-2.5  ,-0.6  ,0.1
811  ,2.699e+07   ,-2.5  ,-0.8  ,0.1
812  ,2.816e+07   ,-2.5  ,-1  ,0.1
813  ,1.567e+07   ,-2.5  ,-1.2  ,0.1
814  ,7.677e+06   ,-2.5  ,-1.4  ,0.1
815  ,7.305e+06   ,-2.5  ,-1.6  ,0.1
816  ,3.714e+06   ,-2.5  ,-1.8  ,0.1
817  ,4.680e+06   ,-2.5  ,-2  ,0.1
818  ,3.402e+06   ,-2.5  ,-2.2  ,0.1
819  ,3.429e+08   ,-2.5  ,-2.4  ,4.7
820  ,6.498e+08   ,-2.5  ,-2.4  ,4.5
821  ,5.146e+08   ,-2.5  ,-2.4  ,4.3
822  ,2.593e+08   ,-2.5  ,-2.4  ,4.1
823  ,1.181e+08   ,-2.5  ,-2.4  ,3.9
824  ,1.091e+08   ,-2.5  ,-2.4  ,3.7
825  ,8.146e+07   ,-2.5  ,-2.4  ,3.5
826  ,5.926e+07   ,-2.5  ,-2.4  ,3.3
827  ,5.190e+07   ,-2.5  ,-2.4  ,3.1
828  ,4.580e+07   ,-2.5  ,-2.4  ,2.9
829  ,3.194e+07   ,-2.5  ,-2.4  ,2.7
830  ,1.206e+07   ,-2.5  ,-2.4  ,2.5
831  ,1.707e+07   ,-2.5  ,-2.4  ,2.3
832  ,1.582e+07   ,-2.5  ,-2.4  ,2.1
833  ,9.512e+06   ,-2.5  ,-2.4  ,1.9
834  ,1.113e+07   ,-2.5  ,-2.4  ,1.7
835  ,1.175e+07   ,-2.5  ,-2.4  ,1.5
836  ,9.286e+06   ,-2.5  ,-2.4  ,1.3
837  ,7.679e+06   ,-2.5  ,-2.4  ,1.1
838  ,4.586e+06   ,-2.5  ,-2.4  ,0.9
839  ,5.460e+06   ,-2.5  ,-2.4  ,0.7
840  ,7.443e+06   ,-2.5  ,-2.4  ,0.5
841  ,3.008e+06   ,-2.5  ,-2.4  ,0.3
842  ,3.958e+08   ,-2.5  ,2.2  ,4.9
843  ,2.837e+08   ,-2.5  ,2  ,4.9
844  ,2.949e+08   ,-2.5  ,1.8  ,4.9
845  ,2.501e+08   ,-2.5  ,1.6  ,4.9
846  ,2.129e+08   ,-2.5  ,1.4  ,4.9
847  ,2.362e+08   ,-2.5  ,1.2  ,4.9
848  ,2.566e+08   ,-2.5  ,1  ,4.9
849  ,4.090e+08   ,-2.5  ,0.8  ,4.9
850  ,3.331e+08   ,-2.5  ,0.6  ,4.9
851  ,3.341e+08   ,-2.5  ,0.4  ,4.9
852  ,3.931e+08   ,-2.5  ,0.2  ,4.9
853  ,4.003e+08   ,-2.5  ,5.8879E-16  ,4.9
854  ,3.974e+08   ,-2.5  ,-0.2  ,4.9
855  ,3.761e+08   ,-2.5  ,-0.4  ,4.9
856  ,3.278e+08   ,-2.5  ,-0.6  ,4.9
857  ,3.347e+08   ,-2.5  ,-0.8  ,4.9
858  ,3.500e+08   ,-2.5  ,-1  ,4.9
859  ,3.524e+08   ,-2.5  ,-1.2  ,4.9
860  ,3.192e+08   ,-2.5  ,-1.4  ,4.9
861  ,2.948e+08   ,-2.5  ,-1.6  ,4.9
862  ,2.883e+08   ,-2.5  ,-1.8  ,4.9
863  ,2.263e+08   ,-2.5  ,-2  ,4.9
864  ,2.013e+08   ,-2.5  ,-2.2  ,4.9
865  ,3.718e+08   ,-2.5  ,2.4  ,4.7
866  ,2.958e+08   ,-2.5  ,2.4  ,4.5
867  ,3.512e+08   ,-2.5  ,2.4  ,4.3
868  ,2.933e+08   ,-2.5  ,2.4  ,4.1
869  ,3.981e+08   ,-2.5  ,2.4  ,3.9
870  ,3.971e+08   ,-2.5  ,2.4  ,3.7
871  ,4.073e+08   ,-2.5  ,2.4  ,3.5
872  ,4.585e+08   ,-2.5  ,2.4  ,3.3
873  ,4.636e+08   ,-2.5  ,2.4  ,3.1
874  ,6.221e+08   ,-2.5  ,2.4  ,2.9
875  ,5.227e+08   ,-2.5  ,2.4  ,2.7
876  ,5.087e+08   ,-2.5  ,2.4  ,2.5
877  ,3.684e+08   ,-2.5  ,2.4  ,2.3
878  ,3.351e+08   ,-2.5  ,2.4  ,2.1
879  ,3.032e+08   ,-2.5  ,2.4  ,1.9
880  ,2.631e+08   ,-2.5  ,2.4  ,1.7
881  ,2.144e+08   ,-2.5  ,2.4  ,1.5
882  ,2.497e+08   ,-2.5  ,2.4  ,1.3
883  ,3.125e+08   ,-2.5  ,2.4  ,1.1
884  ,3.684e+08   ,-2.5  ,2.4  ,0.9
885  ,3.618e+08   ,-2.5  ,2.4  ,0.7
886  ,3.276e+08   ,-2.5  ,2.4  ,0.5
887  ,2.310e+08   ,-2.5  ,2.4  ,0.3
1044  ,4.805e+06   ,-2.3  ,-2.5  ,0.44697
1045  ,4.386e+06   ,-2.3  ,-2.5  ,0.68705
1046  ,5.789e+06   ,-2.3  ,-2.5  ,0.92554
1047  ,3.735e+06   ,-2.3  ,-2.5  ,1.1682
1048  ,3.488e+06   ,-2.3  ,-2.5  ,1.4148
1049  ,5.366e+06   ,-2.3  ,-2.5  ,1.6581
1050  ,4.304e+06   ,-2.3  ,-2.5  ,1.8967
1051  ,1.792e+07   ,-2.3  ,-2.5  ,2.1357
1052  ,2.572e+07   ,-2.3  ,-2.5  ,2.3794
1053  ,2.584e+07   ,-2.3  ,-2.5  ,2.6206
1054  ,2.931e+07   ,-2.3  ,-2.5  ,2.8643
1055  ,4.187e+07   ,-2.3  ,-2.5  ,3.1033
1056  ,8.572e+07   ,-2.3  ,-2.5  ,3.342
1057  ,1.192e+08   ,-2.3  ,-2.5  ,3.5852
1058  ,1.900e+08   ,-2.3  ,-2.5  ,3.8318
1059  ,2.068e+08   ,-2.3  ,-2.5  ,4.0745
1060  ,1.026e+08   ,-2.3  ,-2.5  ,4.3129
1061  ,2.041e+08   ,-2.3  ,-2.5  ,4.553
1062  ,6.478e+08   ,-2.053  ,-2.5  ,4.8
1063  ,2.697e+08   ,-1.8129  ,-2.5  ,4.8
1064  ,2.876e+08   ,-1.5745  ,-2.5  ,4.8
1065  ,4.474e+08   ,-1.3318  ,-2.5  ,4.8
1066  ,4.106e+08   ,-1.0852  ,-2.5  ,4.8
1067  ,2.386e+08   ,-0.84195  ,-2.5  ,4.8
1068  ,1.610e+08   ,-0.60329  ,-2.5  ,4.8
1069  ,3.507e+08   ,-0.3643  ,-2.5  ,4.8
1070  ,4.968e+08   ,-0.12055  ,-2.5  ,4.8
1071  ,4.866e+08   ,0.12056  ,-2.5  ,4.8
1072  ,4.400e+08   ,0.3643  ,-2.5  ,4.8
1073  ,4.634e+08   ,0.6033  ,-2.5  ,4.8
1074  ,5.727e+08   ,0.84195  ,-2.5  ,4.8
1075  ,4.834e+08   ,1.0852  ,-2.5  ,4.8
1076  ,2.871e+08   ,1.3318  ,-2.5  ,4.8
1077  ,1.115e+08   ,1.5745  ,-2.5  ,4.8
1078  ,1.992e+08   ,1.8129  ,-2.5  ,4.8
1079  ,2.722e+08   ,2.053  ,-2.5  ,4.8
1080  ,3.035e+08   ,2.3  ,-2.5  ,4.553
1081  ,2.065e+08   ,2.3  ,-2.5  ,4.3129
1082  ,1.597e+08   ,2.3  ,-2.5  ,4.0745
1083  ,3.854e+08   ,2.3  ,-2.5  ,3.8318
1084  ,6.113e+08   ,2.3  ,-2.5  ,3.5852
1085  ,6.184e+08   ,2.3  ,-2.5  ,3.3419
1086  ,4.671e+08   ,2.3  ,-2.5  ,3.1033
1087  ,4.628e+08   ,2.3  ,-2.5  ,2.8643
1088  ,4.725e+08   ,2.3  ,-2.5  ,2.6206
1089  ,4.158e+08   ,2.3  ,-2.5  ,2.3794
1090  ,2.063e+08   ,2.3  ,-2.5  ,2.1357
1091  ,7.950e+07   ,2.3  ,-2.5  ,1.8967
1092  ,2.011e+08   ,2.3  ,-2.5  ,1.658
1093  ,3.410e+08   ,2.3  ,-2.5  ,1.4148
1094  ,3.889e+08   ,2.3  ,-2.5  ,1.1682
1095  ,2.513e+08   ,2.3  ,-2.5  ,0.92554
1096  ,2.129e+08   ,2.3  ,-2.5  ,0.68705
1097  ,6.338e+08   ,2.3  ,-2.5  ,0.44697
1098  ,5.024e+06   ,-2.053  ,-2.5  ,0.2
1099  ,4.432e+06   ,-1.8129  ,-2.5  ,0.2
1100  ,5.379e+06   ,-1.5745  ,-2.5  ,0.2
1101  ,8.255e+06   ,-1.3318  ,-2.5  ,0.2
1102  ,8.054e+06   ,-1.0852  ,-2.5  ,0.2
1103  ,6.799e+06   ,-0.84195  ,-2.5  ,0.2
1104  ,9.669e+06   ,-0.60329  ,-2.5  ,0.2
1105  ,8.449e+06   ,-0.3643  ,-2.5  ,0.2
1106  ,8.276e+06   ,-0.12055  ,-2.5  ,0.2
1107  ,1.451e+07   ,0.12056  ,-2.5  ,0.2
1108  ,2.568e+07   ,0.3643  ,-2.5  ,0.2
1109  ,2.296e+07   ,0.6033  ,-2.5  ,0.2
1110  ,6.801e+07   ,0.84195  ,-2.5  ,0.2
1111  ,1.005e+08   ,1.0852  ,-2.5  ,0.2
1112  ,1.740e+08   ,1.3318  ,-2.5  ,0.2
1113  ,2.054e+08   ,1.5745  ,-2.5  ,0.2
1114  ,1.398e+08   ,1.8129  ,-2.5  ,0.2
1115  ,2.023e+08   ,2.053  ,-2.5  ,0.2
1116  ,3.307e+08   ,-2.2  ,-2.5  ,4.9
1117  ,4.259e+08   ,-2  ,-2.5  ,4.9
1118  ,3.879e+08   ,-1.8  ,-2.5  ,4.9
1119  ,3.655e+08   ,-1.6  ,-2.5  ,4.9
1120  ,4.134e+08   ,-1.4  ,-2.5  ,4.9
1121  ,4.245e+08   ,-1.2  ,-2.5  ,4.9
1122  ,2.770e+08   ,-1  ,-2.5  ,4.9
1123  ,2.346e+08   ,-0.8  ,-2.5  ,4.9
1124  ,2.664e+08   ,-0.6  ,-2.5  ,4.9
1125  ,3.991e+08   ,-0.4  ,-2.5  ,4.9
1126  ,4.621e+08   ,-0.2  ,-2.5  ,4.9
1127  ,4.909e+08   ,-1.7664E-15  ,-2.5  ,4.9
1128  ,4.111e+08   ,0.2  ,-2.5  ,4.9
1129  ,4.327e+08   ,0.4  ,-2.5  ,4.9
1130  ,4.558e+08   ,0.6  ,-2.5  ,4.9
1131  ,4.802e+08   ,0.8  ,-2.5  ,4.9
1132  ,4.538e+08   ,1  ,-2.5  ,4.9
1133  ,4.551e+08   ,1.2  ,-2.5  ,4.9
1134  ,3.723e+08   ,1.4  ,-2.5  ,4.9
1135  ,2.661e+08   ,1.6  ,-2.5  ,4.9
1136  ,2.079e+08   ,1.8  ,-2.5  ,4.9
1137  ,1.921e+08   ,2  ,-2.5  ,4.9
1138  ,3.322e+08   ,2.2  ,-2.5  ,4.9
1139  ,4.925e+08   ,-2.4  ,-2.5  ,4.7
1140  ,3.578e+08   ,-2.4  ,-2.5  ,4.5
1141  ,3.561e+08   ,-2.4  ,-2.5  ,4.3
1142  ,2.648e+08   ,-2.4  ,-2.5  ,4.1
1143  ,1.793e+08   ,-2.4  ,-2.5  ,3.9
1144  ,1.412e+08   ,-2.4  ,-2.5  ,3.7
1145  ,1.028e+08   ,-2.4  ,-2.5  ,3.5
1146  ,7.536e+07   ,-2.4  ,-2.5  ,3.3
1147  ,4.902e+07   ,-2.4  ,-2.5  ,3.1
1148  ,3.902e+07   ,-2.4  ,-2.5  ,2.9
1149  ,2.681e+07   ,-2.4  ,-2.5  ,2.7
1150  ,1.753e+07   ,-2.4  ,-2.5  ,2.5
1151  ,1.911e+07   ,-2.4  ,-2.5  ,2.3
1152  ,1.622e+07   ,-2.4  ,-2.5  ,2.1
1153  ,8.227e+06   ,-2.4  ,-2.5  ,1.9
1154  ,6.936e+06   ,-2.4  ,-2.5  ,1.7
1155  ,6.349e+06   ,-2.4  ,-2.5  ,1.5
1156  ,6.480e+06   ,-2.4  ,-2.5  ,1.3
1157  ,5.918e+06   ,-2.4  ,-2.5  ,1.1
1158  ,4.671e+06   ,-2.4  ,-2.5  ,0.9
1159  ,3.732e+06   ,-2.4  ,-2.5  ,0.7
1160  ,6.499e+06   ,-2.4  ,-2.5  ,0.5
1161  ,5.034e+06   ,-2.4  ,-2.5  ,0.3
1162  ,3.603e+06   ,-2.2  ,-2.5  ,0.1
1163  ,7.506e+06   ,-2  ,-2.5  ,0.1
1164  ,4.657e+06   ,-1.8  ,-2.5  ,0.1
1165  ,4.434e+06   ,-1.6  ,-2.5  ,0.1
1166  ,6.752e+06   ,-1.4  ,-2.5  ,0.1
1167  ,5.725e+06   ,-1.2  ,-2.5  ,0.1
1168  ,7.284e+06   ,-1  ,-2.5  ,0.1
1169  ,9.020e+06   ,-0.8  ,-2.5  ,0.1
1170  ,1.033e+07   ,-0.6  ,-2.5  ,0.1
1171  ,7.904e+06   ,-0.4  ,-2.5  ,0.1
1172  ,8.061e+06   ,-0.2  ,-2.5  ,0.1
1173  ,7.191e+06   ,-1.7664E-15  ,-2.5  ,0.1
1174  ,1.646e+07   ,0.2  ,-2.5  ,0.1
1175  ,3.120e+07   ,0.4  ,-2.5  ,0.1
1176  ,3.726e+07   ,0.6  ,-2.5  ,0.1
1177  ,5.600e+07   ,0.8  ,-2.5  ,0.1
1178  ,7.919e+07   ,1  ,-2.5  ,0.1
1179  ,1.166e+08   ,1.2  ,-2.5  ,0.1
1180  ,1.634e+08   ,1.4  ,-2.5  ,0.1
1181  ,2.691e+08   ,1.6  ,-2.5  ,0.1
1182  ,3.866e+08   ,1.8  ,-2.5  ,0.1
1183  ,2.753e+08   ,2  ,-2.5  ,0.1
1184  ,4.467e+08   ,2.2  ,-2.5  ,0.1
1185  ,2.724e+08   ,2.4  ,-2.5  ,4.7
1186  ,2.099e+08   ,2.4  ,-2.5  ,4.5
1187  ,2.062e+08   ,2.4  ,-2.5  ,4.3
1188  ,2.647e+08   ,2.4  ,-2.5  ,4.1
1189  ,4.584e+08   ,2.4  ,-2.5  ,3.9
1190  ,5.475e+08   ,2.4  ,-2.5  ,3.7
1191  ,4.978e+08   ,2.4  ,-2.5  ,3.5
1192  ,5.346e+08   ,2.4  ,-2.5  ,3.3
1193  ,5.005e+08   ,2.4  ,-2.5  ,3.1
1194  ,4.517e+08   ,2.4  ,-2.5  ,2.9
1195  ,4.228e+08   ,2.4  ,-2.5  ,2.7
1196  ,4.319e+08   ,2.4  ,-2.5  ,2.5
1197  ,3.765e+08   ,2.4  ,-2.5  ,2.3
1198  ,2.530e+08   ,2.4  ,-2.5  ,2.1
1199  ,1.317e+08   ,2.4  ,-2.5  ,1.9
1200  ,1.519e+08   ,2.4  ,-2.5  ,1.7
1201  ,2.090e+08   ,2.4  ,-2.5  ,1.5
1202  ,3.433e+08   ,2.4  ,-2.5  ,1.3
1203  ,3.668e+08   ,2.4  ,-2.5  ,1.1
1204  ,3.460e+08   ,2.4  ,-2.5  ,0.9
1205  ,3.571e+08   ,2.4  ,-2.5  ,0.7
1206  ,4.577e+08   ,2.4  ,-2.5  ,0.5
1207  ,3.323e+08   ,2.4  ,-2.5  ,0.3
1208  ,1.931e+08   ,2.4  ,-2.2  ,0
1209  ,2.363e+08   ,2.4  ,-2  ,0
1210  ,2.977e+08   ,2.4  ,-1.8  ,0
1211  ,3.178e+08   ,2.4  ,-1.6  ,0
1212  ,3.484e+08   ,2.4  ,-1.4  ,0
1213  ,3.457e+08   ,2.4  ,-1.2  ,0
1214  ,3.181e+08   ,2.4  ,-1  ,0
1215  ,3.254e+08   ,2.4  ,-0.8  ,0
1216  ,2.981e+08   ,2.4  ,-0.6  ,0
1217  ,3.062e+08   ,2.4  ,-0.4  ,0
1218  ,3.352e+08   ,2.4  ,-0.2  ,0
1219  ,3.300e+08   ,2.4  ,-1.7664E-15  ,0
1220  ,4.625e+08   ,2.4  ,0.2  ,0
1221  ,4.237e+08   ,2.4  ,0.4  ,0
1222  ,3.594e+08   ,2.4  ,0.6  ,0
1223  ,4.206e+08   ,2.4  ,0.8  ,0
1224  ,3.516e+08   ,2.4  ,1  ,0
1225  ,3.353e+08   ,2.4  ,1.2  ,0
1226  ,2.900e+08   ,2.4  ,1.4  ,0
1227  ,2.014e+08   ,2.4  ,1.6  ,0
1228  ,2.141e+08   ,2.4  ,1.8  ,0
1229  ,2.624e+08   ,2.4  ,2  ,0
1230  ,4.802e+08   ,2.4  ,2.2  ,0
1231  ,5.997e+06   ,-2.2  ,-2.4  ,0
1232  ,9.586e+06   ,-2  ,-2.4  ,0
1233  ,5.754e+06   ,-1.8  ,-2.4  ,0
1234  ,3.760e+06   ,-1.6  ,-2.4  ,0
1235  ,4.940e+06   ,-1.4  ,-2.4  ,0
1236  ,5.417e+06   ,-1.2  ,-2.4  ,0
1237  ,6.738e+06   ,-1  ,-2.4  ,0
1238  ,9.313e+06   ,-0.8  ,-2.4  ,0
1239  ,1.081e+07   ,-0.6  ,-2.4  ,0
1240  ,9.370e+06   ,-0.4  ,-2.4  ,0
1241  ,8.701e+06   ,-0.2  ,-2.4  ,0
1242  ,7.637e+06   ,5.8879E-16  ,-2.4  ,0
1243  ,2.188e+07   ,0.2  ,-2.4  ,0
1244  ,4.031e+07   ,0.4  ,-2.4  ,0
1245  ,4.175e+07   ,0.6  ,-2.4  ,0
1246  ,4.283e+07   ,0.8  ,-2.4  ,0
1247  ,6.388e+07   ,1  ,-2.4  ,0
1248  ,9.365e+07   ,1.2  ,-2.4  ,0
1249  ,1.144e+08   ,1.4  ,-2.4  ,0
1250  ,2.755e+08   ,1.6  ,-2.4  ,0
1251  ,5.463e+08   ,1.8  ,-2.4  ,0
1252  ,6.096e+08   ,2  ,-2.4  ,0
1253  ,3.114e+08   ,2.2  ,-2.4  ,0
1254  ,1.949e+08   ,-2.4  ,2.2  ,0
1255  ,1.856e+08   ,-2.4  ,2  ,0
1256  ,2.492e+08   ,-2.4  ,1.8  ,0
1257  ,2.836e+08   ,-2.4  ,1.6  ,0
1258  ,3.101e+08   ,-2.4  ,1.4  ,0
1259  ,2.738e+08   ,-2.4  ,1.2  ,0
1260  ,1.630e+08   ,-2.4  ,1  ,0
1261  ,3.735e+07   ,-2.4  ,0.8  ,0
1262  ,5.736e+07   ,-2.4  ,0.6  ,0
1263  ,3.794e+07   ,-2.4  ,0.4  ,0
1264  ,2.604e+07   ,-2.4  ,0.2  ,0
1265  ,2.287e+07   ,-2.4  ,5.8879E-16  ,0
1266  ,3.537e+07   ,-2.4  ,-0.2  ,0
1267  ,4.340e+07   ,-2.4  ,-0.4  ,0
1268  ,2.502e+07   ,-2.4  ,-0.6  ,0
1269  ,3.564e+07   ,-2.4  ,-0.8  ,0
1270  ,3.004e+07   ,-2.4  ,-1  ,0
1271  ,1.411e+07   ,-2.4  ,-1.2  ,0
1272  ,7.775e+06   ,-2.4  ,-1.4  ,0
1273  ,5.136e+06   ,-2.4  ,-1.6  ,0
1274  ,5.549e+06   ,-2.4  ,-1.8  ,0
1275  ,7.914e+06   ,-2.4  ,-2  ,0
1276  ,7.562e+06   ,-2.4  ,-2.2  ,0
1277  ,4.085e+08   ,2.2  ,2.4  ,0
1278  ,3.576e+08   ,2  ,2.4  ,0
1279  ,3.182e+08   ,1.8  ,2.4  ,0
1280  ,2.638e+08   ,1.6  ,2.4  ,0
1281  ,2.432e+08   ,1.4  ,2.4  ,0
1282  ,3.390e+08   ,1.2  ,2.4  ,0
1283  ,3.649e+08   ,1  ,2.4  ,0
1284  ,3.963e+08   ,0.8  ,2.4  ,0
1285  ,3.378e+08   ,0.6  ,2.4  ,0
1286  ,2.359e+08   ,0.4  ,2.4  ,0
1287  ,2.232e+08   ,0.2  ,2.4  ,0
1288  ,2.955e+08   ,5.8879E-16  ,2.4  ,0
1289  ,4.570e+08   ,-0.2  ,2.4  ,0
1290  ,4.605e+08   ,-0.4  ,2.4  ,0
1291  ,3.841e+08   ,-0.6  ,2.4  ,0
1292  ,2.216e+08   ,-0.8  ,2.4  ,0
1293  ,1.635e+08   ,-1  ,2.4  ,0
1294  ,2.258e+08   ,-1.2  ,2.4  ,0
1295  ,2.782e+08   ,-1.4  ,2.4  ,0
1296  ,3.579e+08   ,-1.6  ,2.4  ,0
1297  ,4.267e+08   ,-1.8  ,2.4  ,0
1298  ,3.918e+08   ,-2  ,2.4  ,0
1299  ,3.189e+08   ,-2.2  ,2.4  ,0
1460  ,1.415e+10   ,2.3243  ,2.3243  ,4.9577
1461  ,1.295e+10   ,2.4577  ,2.3243  ,4.8243
1462  ,1.006e+10   ,2.3243  ,2.4577  ,4.8243
1463  ,3.714e+08   ,-2.3  ,-2.1759  ,4.8
1464  ,5.914e+08   ,-2.3  ,-1.7631  ,4.8
1465  ,4.545e+08   ,-2.3  ,-1.1827  ,4.8
1466  ,6.758e+08   ,-2.3  ,-0.34986  ,4.8
1467  ,5.554e+08   ,-2.3  ,0.80545  ,4.8
1468  ,7.603e+08   ,-0.81337  ,2.3  ,4.8
1469  ,3.613e+09   ,0.67326  ,2.3  ,4.8
1470  ,1.719e+08   ,2.3  ,-2.1824  ,4.8
1471  ,4.807e+08   ,2.3  ,-1.7784  ,4.8
1472  ,1.612e+08   ,2.3  ,-1.2138  ,4.8
1473  ,1.126e+09   ,2.3  ,-0.40752  ,4.8
1474  ,3.643e+09   ,2.3  ,0.70532  ,4.8
1516  ,7.447e+08   ,2.3  ,2.3  ,1.6866
1517  ,3.680e+09   ,2.3  ,2.3  ,3.1733
1518  ,3.914e+08   ,2.3  ,-2.1759  ,0.2
1519  ,5.963e+08   ,2.3  ,-1.7631  ,0.2
1520  ,4.536e+08   ,2.3  ,-1.1827  ,0.2
1521  ,7.296e+08   ,2.3  ,-0.34986  ,0.2
1522  ,5.732e+08   ,2.3  ,0.80545  ,0.2
1564  ,5.415e+08   ,-0.76667  ,2.3  ,0.2
1565  ,5.347e+08   ,0.76667  ,2.3  ,0.2
1566  ,5.167e+08   ,-2.3  ,2.3  ,1.7333
1567  ,5.271e+08   ,-2.3  ,2.3  ,3.2667
1574  ,6.081e+06   ,-2.3  ,-2.1759  ,0.2
1575  ,1.004e+07   ,-2.3  ,-1.7631  ,0.2
1576  ,1.633e+07   ,-2.3  ,-1.1827  ,0.2
1577  ,2.087e+07   ,-2.3  ,-0.34986  ,0.2
1578  ,7.416e+07   ,-2.3  ,0.80545  ,0.2
1777  ,6.046e+08   ,-0.52764  ,2.5  ,4.9
1801  ,1.704e+08   ,-2.3  ,1.5527  ,0.2
1825  ,4.814e+08   ,-1.5333  ,2.3  ,0.2
1841  ,1.499e+09   ,0.063638  ,2.5  ,4.9
1876  ,4.284e+08   ,-0.5  ,2.4  ,0
1894  ,6.588e+08   ,2.3  ,1.5527  ,0.2
1907  ,2.702e+08   ,2.1  ,2.5  ,0.1
1928  ,3.085e+08   ,1.9  ,2.4  ,0
1974  ,3.235e+08   ,2.4  ,1.1  ,0
1981  ,3.429e+08   ,2.4  ,2.5  ,0.59273
1987  ,3.703e+08   ,-2.5  ,2.4  ,4
2004  ,2.576e+08   ,-2.4  ,2.5  ,4.6
2009  ,3.017e+08   ,2.4  ,1.3  ,0
2020  ,4.023e+08   ,2.5  ,1.1  ,0.1
2035  ,1.891e+07   ,-2.3  ,-0.76628  ,0.2
2070  ,5.277e+09   ,1.6404  ,2.4  ,5
2081  ,5.497e+08   ,2.4  ,2.5  ,1.9724
2095  ,3.962e+08   ,2.4  ,2.5  ,0.78982
2138  ,2.911e+07   ,-2.4  ,-0.1  ,0
2146  ,2.964e+08   ,-0.92182  ,2.4  ,5
2174  ,3.339e+08   ,2.4  ,2.5  ,1.184
2190  ,3.515e+08   ,2.5  ,2.4  ,0.98691
2203  ,1.085e+09   ,2.5  ,-0.13345  ,4.9
2232  ,2.745e+09   ,2.3  ,0.1489  ,4.8
2242  ,2.011e+09   ,2.4  ,2.5  ,2.9578
2293  ,3.798e+07   ,-2.5  ,0.5  ,0.1
2311  ,2.979e+09   ,2.3  ,2.3  ,2.4299
2313  ,4.049e+08   ,2.5  ,2.4  ,0.78982
2329  ,7.730e+08   ,2.4  ,2.5  ,2.1695
2355  ,2.222e+08   ,-2.4  ,2.5  ,4.4
2380  ,7.130e+06   ,-2.5  ,-1.5  ,0.1
2383  ,1.908e+09   ,0.45782  ,2.5  ,4.9
2408  ,4.962e+08   ,2.3  ,-1.4961  ,4.8
2445  ,4.638e+08   ,2.5  ,-1.5131  ,4.9
2484  ,1.165e+07   ,-2.5  ,-2.4  ,1.6
2495  ,2.852e+08   ,-2.4  ,1.7  ,5
2508  ,4.309e+08   ,2.4  ,0.3  ,0
2514  ,1.109e+09   ,2.3  ,0.2278  ,0.2
2570  ,2.975e+08   ,-2.4  ,1.5  ,5
2580  ,5.194e+09   ,1.6404  ,2.5  ,4.9
2603  ,3.218e+08   ,-1.1189  ,2.5  ,4.9
2695  ,2.949e+08   ,2.3  ,2.3  ,0.94331
2705  ,4.095e+08   ,2.4  ,2.5  ,1.3811
2714  ,1.830e+09   ,2.5  ,0.45782  ,4.9
2734  ,3.005e+08   ,2.4  ,-0.9  ,0
2775  ,3.248e+08   ,2.5  ,-0.1  ,0.1
2779  ,3.130e+08   ,2.4  ,-0.1  ,0
2801  ,6.748e+09   ,1.4166  ,2.3  ,4.8
2814  ,3.699e+09   ,1.4433  ,2.5  ,4.9
2863  ,3.287e+08   ,-2.4  ,2.5  ,0.6
2884  ,3.672e+08   ,-2.4  ,2.5  ,0.8
2886  ,3.485e+08   ,-2.4  ,2.5  ,1.2
2967  ,1.929e+08   ,2.4  ,1.7  ,0
2973  ,3.619e+08   ,2.5  ,1.5  ,0.1
2987  ,5.381e+08   ,-0.3  ,2.5  ,0.1
3008  ,4.944e+08   ,-2.3  ,2.3  ,0.96667
3012  ,5.097e+08   ,-2.5  ,2.4  ,2.6
3021  ,4.873e+08   ,-2.5  ,2.4  ,2.8
3025  ,4.457e+08   ,-2.5  ,2.4  ,2.4
3030  ,4.836e+08   ,-2.4  ,2.5  ,2.4
3033  ,4.084e+08   ,-2.4  ,2.5  ,2.2
3047  ,1.156e+09   ,2.4  ,2.5  ,2.3665
3052  ,1.577e+09   ,2.5  ,2.4  ,2.5636
3061  ,1.475e+09   ,2.4  ,2.5  ,2.5636
3081  ,3.021e+08   ,-2.4  ,1.3  ,5
3088  ,3.889e+08   ,-1.9073  ,2.4  ,5
3099  ,2.657e+08   ,-2.4  ,1.9  ,5
3107  ,3.155e+08   ,-2.4  ,2.5  ,3.8
3139  ,3.851e+08   ,-1.5131  ,2.4  ,5
3145  ,4.593e+08   ,-1.5131  ,2.5  ,4.9
3148  ,4.055e+08   ,-1.7102  ,2.5  ,4.9
3168  ,3.109e+08   ,-2.4  ,1.5  ,0
3188  ,6.453e+06   ,-2.5  ,-2.4  ,1
3202  ,1.633e+09   ,0.26073  ,2.5  ,4.9
3212  ,4.981e+09   ,2.5  ,1.6404  ,4.9
3247  ,8.789e+09   ,2.5  ,1.8375  ,4.9
3265  ,7.046e+09   ,2.3  ,1.4326  ,4.8
3271  ,1.315e+10   ,2.2299  ,2.2299  ,4.8
3284  ,3.830e+09   ,2.4  ,1.4433  ,5
3291  ,3.857e+09   ,2.5  ,1.4433  ,4.9
3296  ,5.750e+08   ,-2.3  ,-0.76628  ,4.8
3303  ,3.772e+08   ,-2.4  ,-0.9  ,5
3311  ,3.281e+08   ,-2.4  ,-0.7  ,5
3315  ,2.509e+08   ,1.9  ,2.5  ,0.1
3336  ,3.184e+07   ,-2.4  ,0.3  ,0
3340  ,2.536e+07   ,-2.5  ,0.1  ,0.1
3344  ,2.388e+07   ,-2.4  ,0.1  ,0
3356  ,4.450e+08   ,-0.3  ,2.4  ,0
3361  ,8.494e+08   ,-0.33054  ,2.5  ,4.9
3364  ,1.047e+09   ,-0.13345  ,2.5  ,4.9
3383  ,2.628e+09   ,2.4  ,2.5  ,3.5491
3402  ,1.247e+10   ,2.4  ,2.5  ,4.5345
3421  ,3.279e+08   ,-1.316  ,2.5  ,4.9
3439  ,3.811e+09   ,2.5  ,2.4  ,3.9433
3447  ,3.848e+09   ,2.4  ,2.5  ,3.9433
3451  ,2.997e+09   ,2.4  ,2.5  ,3.7462
3468  ,3.849e+09   ,1.4433  ,2.4  ,5
3480  ,2.658e+09   ,1.0491  ,2.4  ,5
3519  ,3.343e+08   ,1.5  ,2.4  ,0
3527  ,6.693e+08   ,2.3  ,-1.4729  ,0.2
3550  ,3.973e+08   ,-1.7  ,2.4  ,0
3554  ,4.311e+08   ,-1.7  ,2.5  ,0.1
3558  ,3.034e+08   ,-1.5  ,2.4  ,0
3562  ,3.969e+08   ,-1.5  ,2.5  ,0.1
3574  ,3.205e+08   ,-2.4  ,2.1  ,5
3581  ,2.756e+08   ,-2.5  ,1.7  ,0.1
3583  ,2.212e+08   ,-2.5  ,1.9  ,0.1
3584  ,3.788e+08   ,-1.9073  ,2.5  ,4.9
3591  ,3.965e+08   ,2.5  ,0.3  ,0.1
3595  ,3.176e+08   ,2.5  ,0.1  ,0.1
3603  ,1.971e+10   ,2.4577  ,2.391  ,4.7576
3663  ,5.830e+06   ,-1.933  ,-2.5  ,0.2
3669  ,2.179e+06   ,-2.1765  ,-2.5  ,0.2
3672  ,6.430e+06   ,-2.3  ,-2.3379  ,0.2
3682  ,7.708e+06   ,-1.9  ,-2.4  ,0
3700  ,4.724e+08   ,2.3  ,-2.5  ,2.7424
3712  ,4.428e+08   ,-2.1  ,-2.5  ,4.9
3715  ,4.093e+08   ,-1.9  ,-2.5  ,4.9
3740  ,4.227e+08   ,-1.3  ,-2.4  ,5
3746  ,4.563e+08   ,-1.2085  ,-2.5  ,4.8
3755  ,4.604e+08   ,-1.5  ,-2.4  ,5
3760  ,3.546e+08   ,-1.7  ,-2.5  ,4.9
3786  ,3.076e+08   ,2.4  ,2.5  ,1.5782
3813  ,1.792e+09   ,0.26073  ,2.4  ,5
3858  ,2.753e+08   ,-0.9  ,-2.4  ,5
3863  ,3.410e+08   ,-2.5  ,0.9  ,4.9
3875  ,3.843e+08   ,-1.9  ,-2.4  ,5
3885  ,4.179e+08   ,2.4  ,-0.72473  ,5
3910  ,9.150e+07   ,-2.4  ,-2.5  ,3.4
3959  ,5.625e+09   ,2.5  ,2.4  ,4.1404
3969  ,2.691e+09   ,2.5  ,1.0491  ,4.9
3992  ,1.733e+10   ,2.391  ,2.2576  ,4.9577
3993  ,1.983e+10   ,2.4577  ,2.2576  ,4.891
4016  ,2.144e+08   ,-2.3015  ,2.5  ,4.9
4018  ,2.336e+08   ,-2.4  ,2.5  ,4.8
4021  ,3.015e+09   ,1.2462  ,2.4  ,5
4042  ,3.113e+08   ,2.4  ,-1.1  ,0
4046  ,1.685e+08   ,-0.9  ,2.4  ,0
4055  ,2.292e+08   ,1.7  ,-2.5  ,4.9
4087  ,3.003e+08   ,1.7  ,2.4  ,0
4114  ,7.911e+08   ,2.5  ,-0.33054  ,4.9
4120  ,1.266e+08   ,2.4  ,-2.5  ,1.8
4125  ,3.590e+08   ,2.4  ,2.5  ,0.98691
4144  ,8.329e+09   ,2.4  ,2.5  ,4.3375
4161  ,4.754e+08   ,-2.4  ,0.3  ,5
4201  ,2.574e+08   ,1.933  ,-2.5  ,0.2
4225  ,3.087e+06   ,-2.3  ,-2.4  ,0
4230  ,5.324e+06   ,-2.3  ,-2.5  ,0.56701
4269  ,2.490e+08   ,-0.9  ,-2.5  ,4.9
4277  ,3.289e+08   ,-1.1  ,-2.4  ,5
4288  ,2.528e+09   ,-0.070055  ,2.3  ,4.8
4328  ,3.822e+08   ,-2.5  ,-2.4  ,4.2
4336  ,6.207e+08   ,-2.5  ,-2.4  ,4.4
4342  ,4.271e+08   ,-2.5  ,-2.4  ,4.6
4348  ,2.987e+08   ,-2.4  ,-2.4707  ,4.9707
4352  ,1.246e+08   ,-2.3  ,-2.5  ,4.9
4354  ,8.653e+08   ,-2.1765  ,-2.5  ,4.8
4355  ,5.159e+08   ,-2.3  ,-2.3379  ,4.8
4362  ,3.189e+08   ,2.5  ,2.4  ,0.59273
4364  ,5.410e+08   ,2.5  ,-2.4  ,2.4
4366  ,4.724e+08   ,2.5  ,-2.4  ,2.2
4372  ,3.419e+08   ,2.4  ,-2.5  ,2.2
4385  ,2.712e+06   ,-2.5  ,-1.9  ,0.1
4399  ,9.862e+07   ,-2.5  ,2.1  ,0.1
4407  ,9.625e+06   ,-0.7  ,-2.4  ,0
4436  ,1.966e+07   ,-2.5  ,-0.1  ,0.1
4462  ,4.449e+08   ,-2.3  ,2.3  ,4.0333
4491  ,4.822e+08   ,2.5  ,-0.52764  ,4.9
4494  ,2.265e+08   ,2.5  ,-2.4  ,1.4
4503  ,2.615e+08   ,2.4  ,-2.5  ,1.4
4508  ,3.512e+08   ,2.4  ,-2.5  ,1.2
4515  ,1.608e+08   ,2.5  ,-2.4  ,1.8
4517  ,1.852e+08   ,2.4  ,-2.5  ,1.6
4522  ,3.884e+07   ,0.7  ,-2.4  ,0
4538  ,3.570e+08   ,-1.1189  ,2.4  ,5
4546  ,4.971e+09   ,2.4  ,2.5  ,4.1404
4559  ,4.147e+08   ,1.7  ,-2.4  ,0
4590  ,4.280e+07   ,0.5  ,-2.4  ,0
4631  ,4.163e+08   ,2.4  ,-2.5  ,2.6
4634  ,4.985e+08   ,2.5  ,-2.4  ,2.8
4657  ,1.137e+07   ,-2.5  ,-2.4  ,2
4660  ,1.090e+07   ,-2.5  ,-2.4  ,1.8
4664  ,8.737e+06   ,-0.3  ,-2.4  ,0
4675  ,2.649e+08   ,-2.4  ,-2.5  ,4.8
4681  ,3.623e+07   ,-2.5  ,-0.3  ,0.1
4684  ,3.942e+08   ,1.7  ,-2.4  ,5
4703  ,4.327e+08   ,-2.4  ,0.7  ,5
4707  ,3.622e+08   ,-2.5  ,0.3  ,4.9
4714  ,7.017e+08   ,2.4  ,-0.33054  ,5
4723  ,4.943e+08   ,-1.5567  ,2.3  ,4.8
4739  ,3.818e+08   ,-2.1044  ,2.5  ,4.9
4763  ,3.947e+08   ,-1.9  ,2.4  ,0
4780  ,6.384e+06   ,-2.3  ,-1.9695  ,0.2
4782  ,2.353e+06   ,-2.4707  ,-2.4  ,0.029289
4784  ,7.020e+06   ,-2.4  ,-1.9  ,0
4791  ,8.120e+06   ,-2.4  ,-2.5  ,1.8
4796  ,1.996e+08   ,2.4707  ,-2.4707  ,4.9
4799  ,2.021e+08   ,2.5  ,-2.4  ,4.8
4806  ,2.014e+08   ,2.3  ,-2.5  ,4.9
4809  ,7.032e+09   ,2.3  ,2.3  ,3.9166
4833  ,2.111e+08   ,-2.4  ,2.5  ,0.4
4841  ,4.781e+08   ,-2.4  ,2.5  ,2.6
4846  ,3.058e+08   ,-2.5  ,2.1  ,4.9
4848  ,3.334e+08   ,-2.5  ,2.3  ,4.9
4849  ,3.198e+08   ,-2.5  ,2.4  ,4.8
4893  ,2.536e+08   ,-2.4  ,2.5  ,4.2
4897  ,1.356e+10   ,2.3333  ,2.1998  ,5
4900  ,1.931e+10   ,2.391  ,2.4577  ,4.7576
4908  ,2.005e+10   ,2.2576  ,2.391  ,4.9577
4911  ,1.998e+10   ,2.2576  ,2.4577  ,4.891
4926  ,3.331e+08   ,-2.5  ,2.4  ,1
4932  ,3.037e+08   ,-2.4  ,2.5  ,1.6
4937  ,2.831e+08   ,-1.1  ,2.5  ,0.1
4939  ,1.295e+10   ,2.3  ,2.2299  ,4.7299
4944  ,5.723e+08   ,2.5  ,-1.9073  ,4.9
4987  ,5.345e+08   ,-2.3  ,1.5527  ,4.8
5010  ,3.542e+10   ,2.4973  ,2.1331  ,4.923
5013  ,1.244e+10   ,2.5  ,2.0345  ,4.9
5017  ,1.354e+10   ,2.4  ,2.0345  ,5
5035  ,9.926e+07   ,1.3  ,-2.4  ,0
5038  ,1.285e+08   ,1.2085  ,-2.5  ,0.2
5092  ,6.844e+06   ,-2.4  ,-2.5  ,1.2
5123  ,3.665e+08   ,2.5  ,-2.4  ,0.6
5151  ,1.958e+07   ,-2.5  ,-0.5  ,0.1
5160  ,1.751e+07   ,-2.5  ,-0.7  ,0.1
5164  ,3.595e+08   ,-2.4  ,0.9  ,5
5168  ,4.598e+08   ,-2.4  ,0.5  ,5
5176  ,3.357e+08   ,2.5  ,-0.7  ,0.1
5179  ,2.955e+08   ,2.4  ,-0.5  ,0
5189  ,4.378e+08   ,2.4  ,-2.5  ,2.4
5194  ,3.130e+08   ,2.3  ,-2.5  ,2.2576
5198  ,6.685e+06   ,-2.3  ,-2.5  ,0.32348
5205  ,5.187e+06   ,-2.4  ,-2.5  ,0.2
5207  ,5.647e+06   ,-2.1  ,-2.5  ,0.1
5246  ,4.502e+08   ,-2.5  ,2.4  ,3.2
5257  ,2.292e+08   ,-2.5  ,1.5  ,4.9
5263  ,6.683e+07   ,-2.3  ,0.2278  ,0.2
5272  ,3.460e+07   ,-2.5  ,0.3  ,0.1
5275  ,3.622e+08   ,-2.5  ,0.5  ,4.9
5281  ,6.274e+09   ,1.8375  ,2.5  ,4.9
5297  ,3.010e+08   ,-0.9  ,2.5  ,0.1
5306  ,2.816e+08   ,-0.7  ,2.4  ,0
5309  ,3.966e+08   ,-0.5  ,2.5  ,0.1
5324  ,1.605e+09   ,2.4  ,2.5  ,2.7607
5332  ,4.594e+08   ,2.5  ,-2.4  ,0.8
5334  ,3.815e+08   ,2.4  ,-2.5  ,1
5360  ,6.090e+08   ,2.4  ,-1.7102  ,5
5362  ,4.918e+08   ,2.4  ,-1.5131  ,5
5368  ,7.272e+09   ,2.4  ,1.8375  ,5
5371  ,3.508e+10   ,2.4325  ,2.4888  ,4.6656
5372  ,1.678e+10   ,2.3333  ,2.5  ,4.6998
5376  ,2.228e+10   ,2.4707  ,2.4707  ,4.6331
5377  ,1.437e+10   ,2.5  ,2.4  ,4.5345
5379  ,4.316e+08   ,-1.5  ,-2.5  ,4.9
5406  ,6.656e+07   ,-2.5  ,-2.4  ,3.4
5420  ,6.110e+07   ,-2.3  ,-2.5  ,3.2226
5423  ,1.587e+08   ,1.5  ,-2.4  ,0
5502  ,1.776e+06   ,-2.5  ,-2.3  ,0.1
5504  ,2.110e+06   ,-2.5  ,-2.4  ,0.2
5506  ,4.745e+06   ,-2.4  ,-2.3  ,0
5511  ,4.334e+06   ,-2.5  ,-2.1  ,0.1
5513  ,4.502e+07   ,-2.4  ,0.5  ,0
5517  ,8.971e+06   ,-0.9  ,-2.5  ,0.1
5532  ,1.516e+08   ,-2.4707  ,2.4707  ,4.9
5534  ,2.961e+08   ,2.4  ,-0.7  ,0
5551  ,5.826e+08   ,2.5  ,-2.4  ,3.8
5566  ,2.584e+08   ,2.5  ,2.4  ,1.3811
5603  ,3.125e+08   ,2.4  ,-0.3  ,0
5617  ,2.953e+08   ,-2.1  ,2.5  ,0.1
5637  ,4.951e+08   ,-2.3  ,-1.9695  ,4.8
5641  ,6.407e+08   ,2.3  ,-2.5  ,3.4636
5645  ,1.269e+07   ,-2.4  ,-2.5  ,2
5649  ,2.029e+07   ,-2.4  ,-2.5  ,2.2
5659  ,5.201e+06   ,-2.3  ,-2.5  ,1.7774
5662  ,3.081e+08   ,2.1765  ,-2.5  ,4.8
5666  ,1.783e+08   ,2.4  ,-2.5  ,4.8
5669  ,1.813e+08   ,2.3  ,-2.3412  ,4.8
5695  ,5.235e+07   ,-2.4  ,0.7  ,0
5701  ,2.138e+08   ,-2.5  ,2.4  ,1.6
5715  ,3.139e+08   ,-2.4  ,2.5  ,1.8
5726  ,3.515e+08   ,-0.7  ,2.5  ,0.1
5727  ,1.755e+08   ,-1.1  ,2.4  ,0
5730  ,1.412e+08   ,2.3  ,-2.5  ,1.7774
5746  ,3.819e+08   ,2.5  ,2.4  ,1.7753
5755  ,2.186e+08   ,2.5  ,-2.4  ,4.4
5763  ,2.209e+08   ,2.4  ,-2.5  ,4.4
5773  ,2.670e+09   ,1.0491  ,2.5  ,4.9
5791  ,3.475e+08   ,-0.72473  ,2.4  ,5
5795  ,7.201e+09   ,1.8375  ,2.4  ,5
5803  ,6.346e+08   ,-0.3  ,-2.4  ,5
5810  ,4.916e+09   ,2.4  ,1.6404  ,5
5836  ,2.032e+08   ,-2.5  ,1.3  ,4.9
5860  ,1.481e+08   ,2.5  ,-2.4  ,1.6
5866  ,2.056e+08   ,1.5  ,-2.5  ,0.1
5884  ,4.073e+08   ,-2.4  ,-0.3  ,5
5888  ,3.214e+08   ,-2.5  ,-0.5  ,4.9
5901  ,4.631e+08   ,2.3  ,-2.5  ,2.5
5908  ,3.280e+08   ,2.5  ,-2.4  ,1.2
5909  ,2.990e+08   ,2.5  ,-2.4  ,2
5934  ,2.072e+08   ,1.9  ,-2.5  ,4.9
5938  ,2.695e+08   ,1.933  ,-2.5  ,4.8
5948  ,3.290e+08   ,-2.4  ,-2.5  ,4.6
5950  ,2.097e+08   ,-2.4707  ,-2.4707  ,4.9
5951  ,1.616e+08   ,-2.5  ,-2.4  ,4.8
5952  ,1.902e+08   ,-2.5  ,-2.3  ,4.9
5986  ,5.023e+08   ,2.3  ,-2.5  ,3.7085
5990  ,2.760e+08   ,-0.92182  ,2.5  ,4.9
6019  ,2.996e+08   ,2.5  ,1.9  ,0.1
6025  ,3.366e+08   ,2.4  ,-1.3  ,0
6035  ,2.985e+08   ,-2.5  ,1.9  ,4.9
6044  ,2.887e+08   ,0.1  ,2.5  ,0.1
6054  ,3.738e+08   ,2.4  ,0.1  ,0
6070  ,1.986e+08   ,-2.4  ,2.3  ,0
6071  ,2.153e+08   ,-2.3  ,2.4  ,0
6076  ,1.514e+08   ,-2.4  ,2.1  ,0
6083  ,4.231e+08   ,2.1  ,-2.4  ,0
6084  ,3.757e+08   ,2.4  ,2.3  ,0
6087  ,3.425e+08   ,2.3  ,2.4  ,0
6092  ,5.456e+06   ,-2.4  ,-2.5  ,0.4
6096  ,3.077e+06   ,-2.3  ,-2.5  ,0.1
6099  ,4.707e+07   ,0.7  ,-2.5  ,0.1
6149  ,3.447e+07   ,-2.4  ,-0.9  ,0
6159  ,1.833e+07   ,-2.5  ,-2.4  ,2.6
6183  ,3.071e+09   ,1.2462  ,2.5  ,4.9
6224  ,6.001e+08   ,2.5  ,-2.4  ,4
6228  ,5.070e+08   ,2.4  ,-2.5  ,3.8
6237  ,5.051e+08   ,2.5  ,0.7  ,0.1
6241  ,1.683e+10   ,2.5  ,2.3333  ,4.6998
6245  ,2.670e+08   ,2.5  ,2.4  ,1.5782
6259  ,4.142e+08   ,2.5  ,-2.1044  ,4.9
6265  ,3.076e+08   ,2.3  ,-1.9804  ,4.8
6267  ,1.862e+08   ,2.5  ,-2.3015  ,4.9
6268  ,1.821e+08   ,2.4707  ,-2.4  ,4.9707
6270  ,3.659e+08   ,2.4  ,-2.1044  ,5
6317  ,7.558e+08   ,-2.3  ,0.2278  ,4.8
6349  ,6.429e+08   ,-0.52764  ,2.4  ,5
6391  ,3.815e+08   ,2.4  ,2.5  ,1.7753
6440  ,4.108e+08   ,-2.5  ,2.4  ,3.8
6471  ,4.349e+08   ,2.5  ,-0.92182  ,4.9
6489  ,2.994e+09   ,2.5  ,1.2462  ,4.9
6523  ,5.550e+06   ,-1.1  ,-2.4  ,0
6528  ,6.030e+06   ,-1.1  ,-2.5  ,0.1
6535  ,8.778e+06   ,-0.9  ,-2.4  ,0
6538  ,5.404e+08   ,1.5  ,-2.4  ,5
6541  ,3.474e+08   ,1.5  ,-2.5  ,4.9
6551  ,2.895e+08   ,2.5  ,-0.72473  ,4.9
6564  ,3.612e+10   ,2.1331  ,2.4973  ,4.923
6565  ,1.288e+10   ,2.0345  ,2.5  ,4.9
6572  ,3.055e+08   ,2.4  ,-1.7  ,0
6581  ,9.764e+08   ,0  ,2.3  ,0.2
6592  ,4.950e+08   ,2.3  ,-1.9695  ,0.2
6594  ,2.208e+08   ,0.3  ,2.4  ,0
6601  ,5.484e+08   ,0.5  ,2.5  ,0.1
6605  ,9.118e+06   ,-2.4  ,-1.3  ,0
6606  ,2.087e+07   ,-2.4  ,-1.1  ,0
6615  ,4.125e+07   ,-2.4  ,-0.3  ,0
6634  ,3.191e+08   ,2.1  ,-2.5  ,4.9
6635  ,1.989e+08   ,2.4  ,-2.4707  ,4.9707
6636  ,2.011e+08   ,2.3  ,-2.4  ,5
6647  ,3.544e+07   ,0.5  ,-2.5  ,0.1
6704  ,1.071e+08   ,-2.4707  ,2.4707  ,0.1
6708  ,1.686e+08   ,-2.5  ,2.4  ,0.2
6712  ,3.469e+08   ,-2.4  ,2.5  ,3.6
6715  ,4.091e+08   ,-2.4  ,2.5  ,3.4
6728  ,3.528e+08   ,-2.5  ,0.7  ,4.9
6753  ,3.309e+08   ,-2.1044  ,2.4  ,5
6788  ,8.787e+09   ,2.5  ,2.4  ,4.3375
6791  ,3.431e+08   ,-1.933  ,-2.5  ,4.8
6795  ,1.623e+10   ,2.1998  ,2.5  ,4.8333
6837  ,5.677e+06   ,-2.3  ,-2.5  ,0.8063
6869  ,6.162e+08   ,2.5  ,-1.7102  ,4.9
6873  ,5.832e+08   ,2.4  ,-1.9073  ,5
6880  ,3.803e+08   ,2.4  ,-0.92182  ,5
6885  ,5.018e+08   ,2.4  ,-0.52764  ,5
6893  ,2.616e+09   ,2.4  ,1.2462  ,5
6914  ,5.067e+08   ,0.7  ,2.5  ,0.1
6920  ,3.804e+08   ,0.9  ,2.4  ,0
6923  ,3.415e+08   ,0.7  ,2.4  ,0
6936  ,4.747e+08   ,2.4  ,-2.5  ,3.4
6939  ,5.374e+08   ,2.3  ,-2.5  ,3.2226
6961  ,5.156e+08   ,-0.1  ,-2.5  ,4.9
6967  ,2.891e+08   ,-2.5  ,-1.5  ,4.9
6975  ,2.917e+08   ,-2.4  ,1.1  ,5
6978  ,1.244e+08   ,-2.4  ,2.5  ,0.2
6987  ,4.489e+08   ,2.4  ,-1.316  ,5
6994  ,3.309e+08   ,2.4  ,-1.5  ,0
7004  ,5.106e+08   ,2.4  ,-2.5  ,3.6
7011  ,2.215e+09   ,2.4  ,0.65491  ,5
7016  ,1.919e+09   ,2.4  ,0.45782  ,5
7019  ,8.433e+08   ,2.5  ,2.4  ,2.1695
7021  ,5.720e+08   ,2.5  ,2.4  ,1.9724
7052  ,3.262e+08   ,-1.3  ,2.5  ,0.1
7054  ,4.062e+06   ,-2.4  ,-2.5  ,0.8
7057  ,2.762e+07   ,0.3  ,-2.5  ,0.1
7065  ,2.216e+07   ,0.24243  ,-2.5  ,0.2
7075  ,3.496e+10   ,2.4888  ,2.4325  ,4.6656
7113  ,1.759e+07   ,-2.4  ,-2.5  ,2.6
7121  ,3.258e+07   ,-2.4  ,-2.5  ,2.8
7126  ,3.957e+07   ,-2.5  ,-2.4  ,2.8
7128  ,3.459e+06   ,-2.4707  ,-2.4707  ,0.1
7129  ,3.230e+06   ,-2.4  ,-2.4707  ,0.029289
7141  ,4.585e+08   ,-1.7  ,-2.4  ,5
7145  ,3.608e+08   ,1.1  ,2.4  ,0
7163  ,3.806e+08   ,-1.7102  ,2.4  ,5
7172  ,5.094e+08   ,2.5  ,-2.4  ,3.2
7174  ,4.055e+08   ,-2.5  ,2.4  ,3.6
7183  ,3.761e+08   ,-1.4531  ,-2.5  ,4.8
7204  ,7.889e+08   ,2.3  ,-0.81068  ,4.8
7220  ,1.404e+09   ,2.5  ,0.063638  ,4.9
7227  ,1.459e+08   ,2.5  ,-1.9  ,0.1
7256  ,6.700e+08   ,-0.1  ,-2.4  ,5
7280  ,8.797e+08   ,-0.33054  ,2.4  ,5
7299  ,4.062e+08   ,2.5  ,-1.1189  ,4.9
7316  ,4.983e+06   ,-2.5  ,-2.4  ,0.8
7323  ,6.206e+06   ,-2.4  ,-2.5  ,1
7396  ,4.132e+08   ,1.1  ,-2.4  ,5
7400  ,4.927e+07   ,-2.5  ,0.7  ,0.1
7409  ,5.102e+08   ,1.3  ,-2.4  ,5
7420  ,3.561e+08   ,2.5  ,2.1  ,0.1
7429  ,2.358e+08   ,2.4  ,1.9  ,0
7436  ,2.541e+08   ,2.5  ,-1.7  ,0.1
7438  ,4.187e+08   ,2.4  ,-2.5  ,2.8
7445  ,3.160e+10   ,2.4325  ,2.1656  ,4.9888
7464  ,3.653e+08   ,2.5  ,-1.5  ,0.1
7480  ,2.912e+08   ,2.5  ,-2.4  ,0.2
7482  ,3.145e+08   ,1.9  ,-2.5  ,0.1
7483  ,3.139e+08   ,1.7  ,-2.5  ,0.1
7486  ,2.067e+08   ,1.9  ,-2.4  ,5
7488  ,1.031e+08   ,1.6937  ,-2.5  ,4.8
7492  ,2.306e+08   ,2.1  ,-2.4  ,5
7495  ,9.550e+06   ,0.1  ,-2.5  ,0.1
7504  ,3.075e+07   ,0.3  ,-2.4  ,0
7507  ,6.615e+07   ,0.9  ,-2.5  ,0.1
7533  ,6.174e+07   ,-2.5  ,0.9  ,0.1
7536  ,6.188e+07   ,-2.4  ,-2.5  ,3.2
7540  ,4.401e+07   ,-2.4  ,-2.5  ,3
7545  ,4.848e+07   ,-2.5  ,-2.4  ,3
7582  ,2.857e+08   ,1.3  ,2.5  ,0.1
7588  ,1.278e+09   ,2.5  ,2.4  ,2.3665
7598  ,3.507e+08   ,-2.5  ,2.4  ,4.2
7607  ,5.577e+08   ,1.5333  ,2.3  ,0.2
7627  ,2.350e+08   ,-2.5  ,1.1  ,4.9
7651  ,2.544e+08   ,2.4  ,-1.9  ,0
7656  ,2.793e+08   ,2.5  ,2.4  ,0.39564
7660  ,1.363e+10   ,2.2299  ,2.3  ,4.7299
7668  ,1.865e+08   ,1.4531  ,-2.5  ,4.8
7676  ,4.371e+08   ,0.1  ,-2.5  ,4.9
7683  ,5.331e+08   ,0.1  ,-2.4  ,5
7686  ,4.123e+08   ,-2.4  ,-1.1  ,5
7702  ,2.281e+08   ,-2.3  ,-2.5  ,4.433
7710  ,3.490e+08   ,-2.3  ,-2.5  ,4.6765
7752  ,3.609e+08   ,0.9  ,-2.4  ,5
7763  ,4.565e+08   ,0.24243  ,-2.5  ,4.8
7767  ,5.470e+07   ,-2.5  ,-2.4  ,3.2
7768  ,8.508e+06   ,-2.4  ,-2.1  ,0
7776  ,8.636e+07   ,-2.4  ,0.9  ,0
7786  ,2.325e+08   ,-0.4838  ,-2.5  ,4.8
7800  ,2.049e+08   ,2.5  ,-2.4  ,4.6
7805  ,3.311e+08   ,-2.5  ,-1.3  ,4.9
7811  ,3.341e+08   ,-2.5  ,-1.1  ,4.9
7820  ,2.053e+08   ,2.5  ,-2.1  ,0.1
7824  ,2.103e+08   ,2.4  ,-2.1  ,0
7828  ,2.137e+08   ,2.4  ,-2.5  ,4.2
7831  ,4.025e+08   ,2.4  ,-2.5  ,4
7838  ,4.229e+08   ,2.5  ,-2.4  ,4.2
7839  ,1.685e+09   ,2.5  ,2.4  ,2.7607
7840  ,1.914e+09   ,2.5  ,2.4  ,2.9578
7863  ,6.424e+06   ,-2.4  ,-1.5  ,0
7890  ,3.885e+08   ,2.4  ,0.9  ,0
7897  ,3.125e+07   ,-2.4  ,-0.7  ,0
7912  ,4.835e+06   ,-1.5  ,-2.4  ,0
7917  ,5.836e+06   ,-1.3  ,-2.5  ,0.1
7931  ,2.971e+08   ,0.5  ,2.4  ,0
7934  ,8.360e+07   ,1.1  ,-2.4  ,0
7937  ,3.506e+08   ,2.4  ,-2.5  ,0.8
7941  ,5.521e+06   ,-2.4  ,-2.5  ,0.6
7969  ,1.490e+08   ,-2.5  ,2.3  ,0.1
7971  ,2.160e+08   ,-2.4  ,1.9  ,0
7972  ,3.557e+08   ,-1.9  ,2.5  ,0.1
7978  ,2.051e+08   ,-2.4  ,1.1  ,0
7996  ,3.838e+08   ,-2.4  ,-0.5  ,5
8000  ,6.029e+06   ,-2.5  ,-2.4  ,0.6
8003  ,5.594e+06   ,-2.5  ,-2.4  ,0.4
8025  ,3.970e+08   ,0.9  ,2.5  ,0.1
8035  ,2.858e+08   ,0.3  ,2.5  ,0.1
8039  ,8.441e+08   ,2.3  ,-2.5  ,0.32348
8041  ,5.248e+08   ,2.3  ,-2.3379  ,0.2
8043  ,3.631e+08   ,2.1765  ,-2.5  ,0.2
8045  ,8.368e+06   ,-0.96359  ,-2.5  ,0.2
8054  ,3.159e+08   ,1.3  ,2.4  ,0
8058  ,3.374e+08   ,1.1  ,2.5  ,0.1
8062  ,2.195e+08   ,-2.5  ,2.4  ,1.4
8067  ,3.655e+08   ,-2.5  ,2.4  ,0.8
8087  ,3.098e+08   ,-2.5  ,1.5  ,0.1
8132  ,1.181e+09   ,-0.13345  ,2.4  ,5
8183  ,3.536e+08   ,2.5  ,-0.9  ,0.1
8184  ,1.101e+08   ,1.6937  ,-2.5  ,0.2
8214  ,1.868e+08   ,-2.4707  ,-2.4  ,4.9707
8217  ,2.421e+08   ,-2.1  ,-2.4  ,5
8219  ,3.312e+08   ,-2.4  ,-2.5  ,4.4
8227  ,2.243e+09   ,2.5  ,2.4  ,3.1549
8242  ,4.653e+08   ,0.7  ,-2.5  ,4.9
8248  ,4.103e+08   ,2.5  ,-2.4  ,3.6
8254  ,3.656e+08   ,2.5  ,-0.3  ,0.1
8256  ,3.752e+08   ,2.5  ,-0.5  ,0.1
8258  ,4.720e+08   ,-0.3  ,-2.5  ,4.9
8263  ,3.675e+08   ,-0.5  ,-2.5  ,4.9
8268  ,1.492e+08   ,-2.3  ,-2.5  ,3.7085
8277  ,7.559e+06   ,-0.1  ,-2.5  ,0.1
8285  ,4.592e+08   ,1.1  ,-2.5  ,4.9
8307  ,2.294e+08   ,0.1  ,2.4  ,0
8308  ,8.323e+08   ,-0.1  ,2.5  ,0.1
8309  ,3.730e+08   ,-0.1  ,2.4  ,0
8313  ,2.183e+08   ,2.5  ,-2.3  ,0.1
8318  ,5.552e+08   ,2.5  ,-2.4  ,3
8338  ,2.455e+09   ,2.5  ,2.4  ,3.352
8339  ,2.258e+09   ,2.4  ,2.5  ,3.1549
8344  ,4.293e+08   ,-2.5  ,2.4  ,3.4
8357  ,3.053e+10   ,2.4888  ,2.1656  ,4.9325
8358  ,1.698e+10   ,2.5  ,2.1998  ,4.8333
8383  ,4.240e+06   ,-1.7  ,-2.4  ,0
8396  ,1.004e+08   ,1.1  ,-2.5  ,0.1
8399  ,3.534e+10   ,2.4526  ,2.1331  ,4.9851
8405  ,3.889e+08   ,2.5  ,-2.4  ,1
8412  ,1.708e+08   ,2.3  ,-2.5  ,0.8063
8417  ,2.636e+07   ,-2.3  ,-2.5  ,2.5
8434  ,5.492e+08   ,0.9636  ,-2.5  ,4.8
8438  ,7.209e+06   ,-0.3  ,-2.5  ,0.1
8452  ,3.526e+08   ,-2.4  ,-0.1  ,5
8468  ,3.049e+09   ,2.5  ,2.4  ,3.7462
8471  ,4.509e+08   ,-1.3  ,-2.5  ,4.9
8493  ,3.515e+08   ,-1.1  ,-2.5  ,4.9
8509  ,6.360e+06   ,-2.5  ,-1.7  ,0.1
8517  ,4.517e+08   ,-2.4  ,2.5  ,3
8531  ,2.598e+08   ,-2.4  ,1.7  ,0
8556  ,2.712e+09   ,2.5  ,2.4  ,3.5491
8573  ,3.623e+08   ,-1.316  ,2.4  ,5
8576  ,3.030e+08   ,-2.4  ,1.3  ,0
8611  ,3.858e+08   ,2.3  ,-2.5  ,1.2915
8618  ,2.887e+08   ,-2.4  ,2.5  ,4
8646  ,2.174e+08   ,-2.5  ,1.1  ,0.1
8656  ,4.475e+08   ,2.5  ,-1.3  ,0.1
8657  ,3.468e+08   ,2.4  ,2.1  ,0
8673  ,2.234e+08   ,-1.3  ,2.4  ,0
8692  ,5.200e+08   ,0.72263  ,-2.5  ,4.8
8696  ,3.248e+08   ,2.3  ,-2.5  ,1.0469
8706  ,2.085e+09   ,2.5  ,0.65491  ,4.9
8721  ,7.581e+06   ,-2.4  ,-2.5  ,1.6
8725  ,2.323e+09   ,0.65491  ,2.4  ,5
8739  ,3.257e+10   ,2.1656  ,2.4325  ,4.9888
8741  ,1.739e+10   ,2.1998  ,2.3333  ,5
8746  ,9.020e+06   ,-2.1  ,-2.4  ,0
8748  ,8.170e+06   ,-2.5  ,-2.4  ,1.2
8752  ,3.681e+10   ,2.1331  ,2.4526  ,4.9851
8759  ,4.549e+06   ,-2.3  ,-2.5  ,1.0469
8787  ,7.053e+06   ,-0.1  ,-2.4  ,0
8793  ,2.305e+07   ,-2.3  ,-2.5  ,2.2576
8795  ,1.972e+07   ,-2.4  ,-2.5  ,2.4
8798  ,1.071e+08   ,-2.3  ,-2.5  ,4.1937
8808  ,2.175e+08   ,-2.3  ,-2.5  ,3.9531
8814  ,3.932e+08   ,-2.4  ,-1.5  ,5
8849  ,4.144e+08   ,0.4838  ,-2.5  ,4.8
8851  ,2.914e+08   ,-2.4  ,-2.5  ,4.2
8868  ,4.743e+08   ,2.4  ,-2.5  ,3
8874  ,2.561e+09   ,0.852  ,2.4  ,5
8883  ,5.251e+08   ,-0.5  ,-2.4  ,5
8886  ,1.555e+08   ,-0.72262  ,-2.5  ,4.8
8893  ,2.411e+08   ,-0.7  ,-2.5  ,4.9
8897  ,1.020e+08   ,-2.5  ,-2.4  ,3.6
8899  ,1.026e+08   ,-2.3  ,-2.5  ,3.4636
8900  ,1.008e+07   ,-2.3  ,-1.4729  ,0.2
8906  ,9.221e+06   ,-2.5  ,-1.3  ,0.1
8910  ,2.580e+09   ,0.852  ,2.5  ,4.9
8925  ,2.800e+08   ,-2.4  ,2.5  ,1.4
8941  ,1.771e+08   ,2.4707  ,2.4  ,0.029289
8942  ,3.225e+08   ,2.5  ,2.3  ,0.1
8945  ,3.513e+08   ,-2.5  ,0.1  ,4.9
8950  ,1.441e+08   ,2.4707  ,2.4707  ,0.1
8951  ,1.283e+08   ,2.4  ,2.4707  ,0.029289
8959  ,1.553e+09   ,2.4  ,0.26073  ,5
8965  ,1.748e+09   ,0.45782  ,2.4  ,5
8978  ,2.461e+09   ,2.4  ,0.852  ,5
8983  ,4.300e+08   ,2.5  ,-1.1  ,0.1
8991  ,3.515e+08   ,-2.5  ,2.4  ,0.6
9008  ,2.278e+09   ,2.5  ,0.852  ,4.9
9011  ,2.485e+07   ,-2.4  ,-0.5  ,0
9025  ,7.027e+06   ,-1.5  ,-2.5  ,0.1
9038  ,1.773e+08   ,2.4  ,-2.5  ,2
9041  ,4.524e+08   ,2.5  ,0.9  ,0.1
9050  ,4.995e+08   ,2.5  ,0.5  ,0.1
9054  ,4.830e+07   ,0.9  ,-2.4  ,0
9060  ,4.280e+08   ,2.4  ,-2.5  ,0.4
9062  ,3.794e+08   ,2.3  ,-2.5  ,0.56701
9064  ,2.350e+08   ,2.5  ,-2.4  ,0.4
9069  ,4.262e+08   ,2.4  ,-2.5  ,0.6
9071  ,2.101e+08   ,1.4531  ,-2.5  ,0.2
9082  ,4.125e+06   ,-2.3  ,-2.5  ,1.2915
9086  ,6.719e+06   ,-2.4  ,-2.5  ,1.4
9091  ,9.757e+06   ,-2.5  ,-2.4  ,1.4
9094  ,4.148e+08   ,1.3  ,-2.5  ,4.9
9097  ,1.011e+07   ,-0.7  ,-2.5  ,0.1
9137  ,3.009e+08   ,-2.5  ,-0.7  ,4.9
9143  ,3.947e+08   ,-2.5  ,-0.1  ,4.9
9146  ,3.647e+08   ,-2.1  ,2.4  ,0
9148  ,2.737e+08   ,-2.5  ,1.7  ,4.9
9173  ,5.068e+08   ,-2.5  ,2.4  ,3
9192  ,3.417e+08   ,-0.7  ,-2.4  ,5
9195  ,4.077e+07   ,0.72263  ,-2.5  ,0.2
9209  ,3.673e+08   ,2.5  ,-2.4  ,3.4
9215  ,8.344e+07   ,0.9636  ,-2.5  ,0.2
9217  ,5.230e+08   ,2.4  ,-2.5  ,3.2
9218  ,3.330e+08   ,-0.96359  ,-2.5  ,4.8
9229  ,4.536e+08   ,-2.4  ,2.5  ,2.8
9248  ,2.974e+08   ,2.3  ,-2.5  ,4.433
9255  ,3.568e+08   ,2.5  ,1.3  ,0.1
9257  ,2.289e+08   ,2.4  ,1.5  ,0
9262  ,5.017e+08   ,0.5  ,-2.4  ,5
9264  ,1.071e+09   ,2.4  ,-0.13345  ,5
9272  ,1.510e+09   ,0.063638  ,2.4  ,5
9277  ,2.590e+08   ,-2.5  ,2.4  ,1.2
9279  ,1.651e+09   ,2.5  ,0.26073  ,4.9
9282  ,3.967e+08   ,1.2085  ,-2.5  ,4.8
9286  ,4.714e+08   ,0.9  ,-2.5  ,4.9
9292  ,1.201e+08   ,-2.4  ,2.4707  ,4.9707
9293  ,2.357e+08   ,-2.3015  ,2.4  ,5
9296  ,2.394e+08   ,-2.4  ,-2.1  ,5
9303  ,1.646e+08   ,-2.4  ,-1.9  ,5
9311  ,2.502e+08   ,-2.4  ,2.3  ,5
9313  ,3.544e+08   ,-2.4  ,0.1  ,5
9319  ,1.008e+07   ,-0.5  ,-2.4  ,0
9328  ,4.039e+06   ,-2.3  ,-2.5  ,1.5364
9334  ,1.408e+08   ,-2.3  ,2.5  ,0.1
9338  ,1.685e+07   ,-2.5  ,-2.4  ,2.4
9339  ,2.991e+08   ,-2.5  ,1.3  ,0.1
9341  ,2.861e+07   ,-2.3  ,-2.5  ,2.7424
9344  ,1.716e+07   ,-2.5  ,-2.4  ,2.2
9358  ,2.065e+09   ,-2.3  ,2.3  ,2.5
9364  ,2.274e+08   ,-2.5  ,-2.1  ,4.9
9367  ,2.436e+08   ,-2.4  ,-2.3  ,5
9374  ,4.244e+08   ,-2.4  ,-1.3  ,5
9378  ,2.764e+08   ,-2.5  ,2.4  ,1.8
9384  ,9.264e+07   ,2.3  ,-2.5  ,2.0162
9385  ,3.105e+08   ,-2.5  ,2.4  ,4.4
9389  ,2.926e+08   ,-2.5  ,2.4  ,2
9395  ,2.121e+08   ,2.4  ,-2.3015  ,5
9396  ,3.626e+06   ,-2.4  ,-1.7  ,0
9407  ,6.320e+08   ,-2.3  ,-1.4729  ,4.8
9411  ,2.986e+08   ,-2.5  ,-1.7  ,4.9
9423  ,1.213e+08   ,-2.4  ,-2.5  ,3.6
9432  ,4.067e+08   ,0.7  ,-2.4  ,5
9438  ,3.253e+08   ,-2.5  ,-0.9  ,4.9
9443  ,3.787e+08   ,-2.5  ,-0.3  ,4.9
9445  ,1.345e+08   ,-2.4707  ,2.4  ,4.9707
9448  ,3.644e+08   ,2.4  ,-1.1189  ,5
9453  ,3.843e+08   ,2.4  ,0.7  ,0
9455  ,4.744e+08   ,2.5  ,-2.4  ,2.6
9457  ,4.496e+08   ,2.3  ,-2.5  ,2.9838
9494  ,3.864e+08   ,-2.4  ,2.5  ,1
9500  ,3.901e+08   ,0.3  ,-2.5  ,4.9
9504  ,4.946e+08   ,0.3  ,-2.4  ,5
9506  ,3.416e+08   ,2.1  ,-2.5  ,0.1
9518  ,6.198e+06   ,-1.9  ,-2.5  ,0.1
9528  ,2.752e+08   ,2.3  ,-2.5  ,0.1
9531  ,3.208e+08   ,2.4707  ,-2.4707  ,0.1
9533  ,2.012e+08   ,2.4707  ,-2.4  ,0.029289
9534  ,2.424e+08   ,2.4  ,-2.4707  ,0.029289
9541  ,4.332e+08   ,0.5  ,-2.5  ,4.9
9544  ,9.370e+06   ,-0.5  ,-2.5  ,0.1
9559  ,2.442e+08   ,-2.5  ,-1.9  ,4.9
9562  ,2.818e+08   ,-2.5  ,2.4  ,4.6
9565  ,3.858e+08   ,-2.4  ,2.5  ,2
9571  ,1.092e+08   ,-2.5  ,-2.4  ,3.8
9574  ,1.610e+08   ,-2.4  ,-2.5  ,3.8
9577  ,1.373e+08   ,1.3  ,-2.5  ,0.1
9582  ,3.037e+07   ,-2.5  ,-0.9  ,0.1
9596  ,3.562e+08   ,2.1  ,2.4  ,0
9598  ,5.026e+08   ,-2.4  ,2.5  ,3.2
9602  ,2.853e+08   ,1.5  ,2.5  ,0.1
9610  ,2.829e+08   ,2.4  ,2.5  ,0.39564
9612  ,4.211e+08   ,-0.72473  ,2.5  ,4.9
9614  ,2.591e+08   ,1.7  ,2.5  ,0.1
9635  ,3.453e+08   ,2.5  ,1.7  ,0.1
9646  ,2.325e+08   ,2.3  ,2.5  ,0.1
9651  ,3.125e+10   ,2.1656  ,2.4888  ,4.9325
9653  ,3.872e+08   ,2.5  ,-1.316  ,4.9
9656  ,2.249e+08   ,-2.4  ,-1.7  ,5
9659  ,3.329e+08   ,2.3  ,-2.5  ,4.6765
9661  ,2.762e+08   ,2.3  ,-2.5  ,3.9531
9664  ,2.805e+08   ,-2.3  ,-2.4  ,5
9666  ,5.927e+08   ,1.9  ,-2.4  ,0
9677  ,4.113e+08   ,2.4  ,0.5  ,0
9678  ,2.264e+07   ,-2.5  ,-1.1  ,0.1
9680  ,3.222e+08   ,2.5  ,2.4  ,1.184
9681  ,2.476e+08   ,2.5  ,2.4  ,0.19855
9696  ,8.613e+06   ,-2.3  ,-2.5  ,2.0162
9698  ,2.128e+08   ,2.4  ,-2.3  ,0
9699  ,7.632e+06   ,-0.24243  ,-2.5  ,0.2
9701  ,1.201e+07   ,0.1  ,-2.4  ,0
9704  ,1.031e+07   ,-0.4838  ,-2.5  ,0.2
9718  ,7.210e+06   ,-0.72262  ,-2.5  ,0.2
9726  ,7.122e+08   ,2.3  ,-0.76628  ,0.2
9727  ,2.894e+08   ,-2.5  ,2.4  ,0.4
9730  ,5.222e+08   ,1.9433E-06  ,-2.5  ,4.8
9731  ,4.365e+08   ,-0.24243  ,-2.5  ,4.8
9732  ,3.649e+08   ,-2.5  ,2.4  ,2.2
9738  ,1.536e+08   ,-2.5  ,-2.4  ,4
9743  ,2.355e+08   ,-1.6937  ,-2.5  ,4.8
9744  ,2.118e+08   ,-2.4  ,-2.5  ,4
9750  ,2.694e+06   ,-1.7  ,-2.5  ,0.1
9752  ,2.527e+06   ,-1.6937  ,-2.5  ,0.2
9754  ,4.869e+06   ,-1.3  ,-2.4  ,0
9759  ,1.533e+08   ,-2.4707  ,2.4  ,0.029289
9760  ,1.103e+08   ,-2.4  ,2.4707  ,0.029289
9768  ,1.104e+08   ,2.3  ,-2.5  ,4.1937
9770  ,1.089e+07   ,1.9433E-06  ,-2.5  ,0.2
9771  ,2.159e+07   ,0.4838  ,-2.5  ,0.2
9772  ,9.724e+07   ,2.4  ,-2.5  ,0.2
9773  ,3.018e+08   ,2.4  ,-2.5  ,4.6
9776  ,1.415e+09   ,2.4  ,0.063638  ,5
9780  ,2.455e+09   ,0.65491  ,2.5  ,4.9
9781  ,2.455e+08   ,2.4  ,2.5  ,0.19855
9782  ,3.121e+07   ,-2.3  ,-2.5  ,2.9838
9786  ,7.905e+06   ,-1.2085  ,-2.5  ,0.2
9787  ,7.566e+06   ,-1.4531  ,-2.5  ,0.2
9790  ,1.800e+08   ,2.3  ,-2.4  ,0
9793  ,1.303e+10   ,2.0345  ,2.4  ,5
9797  ,2.825e+08   ,2.3  ,-2.5  ,1.5364
9798  ,2.571e+09   ,2.4  ,1.0491  ,5
9809  ,2.625e+09   ,2.4  ,2.5  ,3.352
