Date:  12:57, Monday, July 10, 2023
Model name: Hollow_DropBox
Study name: DropTest_300fts(-Default-)
Plot type:  Stress1
Plot step: 25   time : 131.185 Microseconds
Result Type: von Mises 


Node  ,Value (N/m^2)  ,X (in)  ,Y (in)  ,Z (in)
1  ,1.783e+09   ,2.5  ,2.1331  ,4.9
2  ,1.605e+09   ,2.4577  ,2.1908  ,4.9577
3  ,1.652e+09   ,2.4894  ,2.1331  ,4.9447
4  ,2.225e+10   ,2.1331  ,2.5  ,4.9
5  ,4.008e+10   ,2.1331  ,2.4894  ,4.9447
6  ,2.253e+10   ,2.1908  ,2.4577  ,4.9577
7  ,4.043e+08   ,-2.4  ,2.4  ,5
8  ,2.269e+09   ,-2.4  ,-2.4  ,5
9  ,6.132e+09   ,2.4  ,-2.4  ,5
10  ,1.765e+09   ,2.4  ,2.1331  ,5
11  ,9.349e+09   ,2.1331  ,2.4  ,5
12  ,6.659e+09   ,2.5  ,-2.4  ,4.9
13  ,2.008e+09   ,2.5  ,-2.4  ,0.1
14  ,3.170e+08   ,2.5  ,2.4  ,0.1
15  ,9.841e+09   ,2.5  ,2.4  ,4.6331
16  ,4.935e+08   ,2.4  ,2.5  ,0.1
17  ,9.475e+08   ,-2.4  ,2.5  ,0.1
18  ,5.856e+08   ,-2.4  ,2.5  ,4.9
19  ,2.203e+10   ,2.4  ,2.5  ,4.6331
20  ,6.508e+08   ,-2.5  ,2.4  ,0.1
21  ,7.773e+08   ,-2.5  ,-2.4  ,0.1
22  ,1.349e+09   ,-2.5  ,-2.4  ,4.9
23  ,6.627e+08   ,-2.5  ,2.4  ,4.9
24  ,6.822e+08   ,-2.3  ,-2.5  ,0.2
25  ,1.173e+09   ,-2.3  ,-2.5  ,4.8
26  ,5.162e+09   ,2.3  ,-2.5  ,4.8
27  ,9.803e+08   ,2.3  ,-2.5  ,0.2
28  ,1.947e+09   ,-2.4  ,-2.5  ,4.9
29  ,5.967e+09   ,2.4  ,-2.5  ,4.9
30  ,1.028e+09   ,-2.4  ,-2.5  ,0.1
31  ,2.020e+09   ,2.4  ,-2.5  ,0.1
32  ,1.421e+09   ,2.4  ,-2.4  ,0
33  ,7.288e+08   ,2.4  ,2.4  ,0
34  ,7.991e+08   ,-2.4  ,-2.4  ,0
35  ,7.406e+08   ,-2.4  ,2.4  ,0
36  ,3.083e+10   ,2.4577  ,2.4577  ,4.6908
37  ,8.278e+08   ,-2.3  ,2.3  ,4.8
38  ,9.417e+09   ,2.1599  ,2.3  ,4.8
39  ,7.235e+09   ,2.3  ,2.1599  ,4.8
40  ,9.428e+09   ,2.3  ,2.3  ,4.6599
41  ,6.474e+08   ,2.3  ,2.3  ,0.2
42  ,1.720e+09   ,-2.3  ,2.3  ,0.2
43  ,1.031e+09   ,-2.4  ,2.2  ,5
44  ,1.576e+09   ,-2.4  ,2  ,5
45  ,1.682e+09   ,-2.4  ,1.8  ,5
46  ,1.700e+09   ,-2.4  ,1.6  ,5
47  ,1.686e+09   ,-2.4  ,1.4  ,5
48  ,1.866e+09   ,-2.4  ,1.2  ,5
49  ,2.226e+09   ,-2.4  ,1  ,5
50  ,2.645e+09   ,-2.4  ,0.8  ,5
51  ,1.744e+09   ,-2.4  ,0.6  ,5
52  ,1.682e+09   ,-2.4  ,0.4  ,5
53  ,1.979e+09   ,-2.4  ,0.2  ,5
54  ,1.986e+09   ,-2.4  ,5.8879E-16  ,5
55  ,1.559e+09   ,-2.4  ,-0.2  ,5
56  ,1.117e+09   ,-2.4  ,-0.4  ,5
57  ,7.772e+08   ,-2.4  ,-0.6  ,5
58  ,7.891e+08   ,-2.4  ,-0.8  ,5
59  ,9.699e+08   ,-2.4  ,-1  ,5
60  ,9.382e+08   ,-2.4  ,-1.2  ,5
61  ,1.001e+09   ,-2.4  ,-1.4  ,5
62  ,9.133e+08   ,-2.4  ,-1.6  ,5
63  ,9.666e+08   ,-2.4  ,-1.8  ,5
64  ,1.551e+09   ,-2.4  ,-2  ,5
65  ,1.304e+09   ,-2.4  ,-2.2  ,5
66  ,2.932e+09   ,-2.2  ,-2.4  ,5
67  ,2.760e+09   ,-2  ,-2.4  ,5
68  ,2.553e+09   ,-1.8  ,-2.4  ,5
69  ,2.118e+09   ,-1.6  ,-2.4  ,5
70  ,1.963e+09   ,-1.4  ,-2.4  ,5
71  ,2.054e+09   ,-1.2  ,-2.4  ,5
72  ,2.009e+09   ,-1  ,-2.4  ,5
73  ,2.174e+09   ,-0.8  ,-2.4  ,5
74  ,2.689e+09   ,-0.6  ,-2.4  ,5
75  ,3.817e+09   ,-0.4  ,-2.4  ,5
76  ,3.575e+09   ,-0.2  ,-2.4  ,5
77  ,4.239e+09   ,-5.8879E-16  ,-2.4  ,5
78  ,4.165e+09   ,0.2  ,-2.4  ,5
79  ,4.042e+09   ,0.4  ,-2.4  ,5
80  ,4.462e+09   ,0.6  ,-2.4  ,5
81  ,3.883e+09   ,0.8  ,-2.4  ,5
82  ,2.827e+09   ,1  ,-2.4  ,5
83  ,2.119e+09   ,1.2  ,-2.4  ,5
84  ,1.102e+09   ,1.4  ,-2.4  ,5
85  ,2.099e+09   ,1.6  ,-2.4  ,5
86  ,4.609e+09   ,1.8  ,-2.4  ,5
87  ,6.002e+09   ,2  ,-2.4  ,5
88  ,1.066e+10   ,2.2  ,-2.4  ,5
89  ,5.848e+09   ,2.4  ,-2.2029  ,5
90  ,6.922e+09   ,2.4  ,-2.0058  ,5
91  ,5.405e+09   ,2.4  ,-1.8087  ,5
92  ,5.138e+09   ,2.4  ,-1.6116  ,5
93  ,5.736e+09   ,2.4  ,-1.4145  ,5
94  ,4.876e+09   ,2.4  ,-1.2175  ,5
95  ,4.963e+09   ,2.4  ,-1.0204  ,5
96  ,4.379e+09   ,2.4  ,-0.82327  ,5
97  ,4.228e+09   ,2.4  ,-0.62618  ,5
98  ,3.682e+09   ,2.4  ,-0.42909  ,5
99  ,3.258e+09   ,2.4  ,-0.232  ,5
100  ,2.634e+09   ,2.4  ,-0.034907  ,5
101  ,2.314e+09   ,2.4  ,0.16218  ,5
102  ,1.765e+09   ,2.4  ,0.35927  ,5
103  ,2.141e+09   ,2.4  ,0.55637  ,5
104  ,1.519e+09   ,2.4  ,0.75346  ,5
105  ,1.114e+09   ,2.4  ,0.95055  ,5
106  ,1.738e+09   ,2.4  ,1.1476  ,5
107  ,2.132e+09   ,2.4  ,1.3447  ,5
108  ,2.051e+09   ,2.4  ,1.5418  ,5
109  ,2.587e+09   ,2.4  ,1.7389  ,5
110  ,2.744e+09   ,2.4  ,1.936  ,5
111  ,5.459e+09   ,2.2665  ,2.2665  ,5
112  ,7.740e+09   ,1.936  ,2.4  ,5
113  ,4.298e+09   ,1.7389  ,2.4  ,5
114  ,3.216e+09   ,1.5418  ,2.4  ,5
115  ,2.187e+09   ,1.3447  ,2.4  ,5
116  ,1.829e+09   ,1.1476  ,2.4  ,5
117  ,1.820e+09   ,0.95055  ,2.4  ,5
118  ,2.009e+09   ,0.75346  ,2.4  ,5
119  ,2.083e+09   ,0.55637  ,2.4  ,5
120  ,1.843e+09   ,0.35927  ,2.4  ,5
121  ,2.072e+09   ,0.16218  ,2.4  ,5
122  ,2.735e+09   ,-0.034907  ,2.4  ,5
123  ,3.379e+09   ,-0.232  ,2.4  ,5
124  ,3.529e+09   ,-0.42909  ,2.4  ,5
125  ,3.295e+09   ,-0.62618  ,2.4  ,5
126  ,4.472e+09   ,-0.82327  ,2.4  ,5
127  ,4.655e+09   ,-1.0204  ,2.4  ,5
128  ,4.375e+09   ,-1.2175  ,2.4  ,5
129  ,3.469e+09   ,-1.4145  ,2.4  ,5
130  ,2.583e+09   ,-1.6116  ,2.4  ,5
131  ,1.846e+09   ,-1.8087  ,2.4  ,5
132  ,1.345e+09   ,-2.0058  ,2.4  ,5
133  ,8.954e+08   ,-2.2029  ,2.4  ,5
294  ,5.024e+09   ,2.5  ,-2.2029  ,4.9
295  ,6.891e+09   ,2.5  ,-2.0058  ,4.9
296  ,5.668e+09   ,2.5  ,-1.8087  ,4.9
297  ,5.933e+09   ,2.5  ,-1.6116  ,4.9
298  ,4.942e+09   ,2.5  ,-1.4145  ,4.9
299  ,4.708e+09   ,2.5  ,-1.2175  ,4.9
300  ,5.224e+09   ,2.5  ,-1.0204  ,4.9
301  ,3.682e+09   ,2.5  ,-0.82327  ,4.9
302  ,4.225e+09   ,2.5  ,-0.62618  ,4.9
303  ,3.707e+09   ,2.5  ,-0.42909  ,4.9
304  ,4.069e+09   ,2.5  ,-0.232  ,4.9
305  ,4.307e+09   ,2.5  ,-0.034907  ,4.9
306  ,2.637e+09   ,2.5  ,0.16218  ,4.9
307  ,2.060e+09   ,2.5  ,0.35927  ,4.9
308  ,2.040e+09   ,2.5  ,0.55637  ,4.9
309  ,1.642e+09   ,2.5  ,0.75346  ,4.9
310  ,1.907e+09   ,2.5  ,0.95055  ,4.9
311  ,2.021e+09   ,2.5  ,1.1476  ,4.9
312  ,1.967e+09   ,2.5  ,1.3447  ,4.9
313  ,2.157e+09   ,2.5  ,1.5418  ,4.9
314  ,2.447e+09   ,2.5  ,1.7389  ,4.9
315  ,2.406e+09   ,2.5  ,1.936  ,4.9
316  ,1.057e+10   ,2.5  ,-2.4  ,4.7
317  ,5.813e+09   ,2.5  ,-2.4  ,4.5
318  ,4.562e+09   ,2.5  ,-2.4  ,4.3
319  ,2.251e+09   ,2.5  ,-2.4  ,4.1
320  ,1.601e+09   ,2.5  ,-2.4  ,3.9
321  ,2.407e+09   ,2.5  ,-2.4  ,3.7
322  ,3.207e+09   ,2.5  ,-2.4  ,3.5
323  ,3.937e+09   ,2.5  ,-2.4  ,3.3
324  ,4.233e+09   ,2.5  ,-2.4  ,3.1
325  ,3.902e+09   ,2.5  ,-2.4  ,2.9
326  ,4.039e+09   ,2.5  ,-2.4  ,2.7
327  ,4.327e+09   ,2.5  ,-2.4  ,2.5
328  ,3.776e+09   ,2.5  ,-2.4  ,2.3
329  ,4.110e+09   ,2.5  ,-2.4  ,2.1
330  ,3.016e+09   ,2.5  ,-2.4  ,1.9
331  ,2.163e+09   ,2.5  ,-2.4  ,1.7
332  ,1.658e+09   ,2.5  ,-2.4  ,1.5
333  ,1.625e+09   ,2.5  ,-2.4  ,1.3
334  ,1.801e+09   ,2.5  ,-2.4  ,1.1
335  ,2.099e+09   ,2.5  ,-2.4  ,0.9
336  ,2.674e+09   ,2.5  ,-2.4  ,0.7
337  ,2.672e+09   ,2.5  ,-2.4  ,0.5
338  ,2.997e+09   ,2.5  ,-2.4  ,0.3
339  ,1.296e+09   ,2.5  ,-2.2  ,0.1
340  ,1.584e+09   ,2.5  ,-2  ,0.1
341  ,1.077e+09   ,2.5  ,-1.8  ,0.1
342  ,1.079e+09   ,2.5  ,-1.6  ,0.1
343  ,8.184e+08   ,2.5  ,-1.4  ,0.1
344  ,8.649e+08   ,2.5  ,-1.2  ,0.1
345  ,8.543e+08   ,2.5  ,-1  ,0.1
346  ,7.316e+08   ,2.5  ,-0.8  ,0.1
347  ,7.196e+08   ,2.5  ,-0.6  ,0.1
348  ,9.126e+08   ,2.5  ,-0.4  ,0.1
349  ,1.178e+09   ,2.5  ,-0.2  ,0.1
350  ,1.446e+09   ,2.5  ,-1.7664E-15  ,0.1
351  ,1.617e+09   ,2.5  ,0.2  ,0.1
352  ,1.837e+09   ,2.5  ,0.4  ,0.1
353  ,2.499e+09   ,2.5  ,0.6  ,0.1
354  ,3.304e+09   ,2.5  ,0.8  ,0.1
355  ,2.526e+09   ,2.5  ,1  ,0.1
356  ,2.275e+09   ,2.5  ,1.2  ,0.1
357  ,1.853e+09   ,2.5  ,1.4  ,0.1
358  ,1.695e+09   ,2.5  ,1.6  ,0.1
359  ,1.559e+09   ,2.5  ,1.8  ,0.1
360  ,1.465e+09   ,2.5  ,2  ,0.1
361  ,1.166e+09   ,2.5  ,2.2  ,0.1
362  ,7.720e+09   ,2.5  ,2.4  ,4.436
363  ,4.901e+09   ,2.5  ,2.4  ,4.2389
364  ,3.153e+09   ,2.5  ,2.4  ,4.0418
365  ,2.276e+09   ,2.5  ,2.4  ,3.8447
366  ,2.035e+09   ,2.5  ,2.4  ,3.6476
367  ,1.813e+09   ,2.5  ,2.4  ,3.4505
368  ,1.616e+09   ,2.5  ,2.4  ,3.2535
369  ,2.037e+09   ,2.5  ,2.4  ,3.0564
370  ,2.214e+09   ,2.5  ,2.4  ,2.8593
371  ,2.022e+09   ,2.5  ,2.4  ,2.6622
372  ,2.748e+09   ,2.5  ,2.4  ,2.4651
373  ,3.125e+09   ,2.5  ,2.4  ,2.268
374  ,3.447e+09   ,2.5  ,2.4  ,2.0709
375  ,3.384e+09   ,2.5  ,2.4  ,1.8738
376  ,3.961e+09   ,2.5  ,2.4  ,1.6767
377  ,3.430e+09   ,2.5  ,2.4  ,1.4796
378  ,3.682e+09   ,2.5  ,2.4  ,1.2825
379  ,3.431e+09   ,2.5  ,2.4  ,1.0855
380  ,2.949e+09   ,2.5  ,2.4  ,0.88836
381  ,2.298e+09   ,2.5  ,2.4  ,0.69127
382  ,1.297e+09   ,2.5  ,2.4  ,0.49418
383  ,8.529e+08   ,2.5  ,2.4  ,0.29709
384  ,5.113e+09   ,2.5  ,2.2665  ,4.7665
544  ,1.582e+09   ,2.2  ,2.5  ,0.1
545  ,2.207e+09   ,2  ,2.5  ,0.1
546  ,2.216e+09   ,1.8  ,2.5  ,0.1
547  ,2.370e+09   ,1.6  ,2.5  ,0.1
548  ,2.033e+09   ,1.4  ,2.5  ,0.1
549  ,2.340e+09   ,1.2  ,2.5  ,0.1
550  ,2.640e+09   ,1  ,2.5  ,0.1
551  ,3.288e+09   ,0.8  ,2.5  ,0.1
552  ,2.277e+09   ,0.6  ,2.5  ,0.1
553  ,7.815e+08   ,0.4  ,2.5  ,0.1
554  ,7.223e+08   ,0.2  ,2.5  ,0.1
555  ,6.550e+08   ,5.8879E-16  ,2.5  ,0.1
556  ,9.637e+08   ,-0.2  ,2.5  ,0.1
557  ,7.979e+08   ,-0.4  ,2.5  ,0.1
558  ,8.964e+08   ,-0.6  ,2.5  ,0.1
559  ,1.851e+09   ,-0.8  ,2.5  ,0.1
560  ,1.880e+09   ,-1  ,2.5  ,0.1
561  ,2.061e+09   ,-1.2  ,2.5  ,0.1
562  ,1.966e+09   ,-1.4  ,2.5  ,0.1
563  ,2.026e+09   ,-1.6  ,2.5  ,0.1
564  ,2.038e+09   ,-1.8  ,2.5  ,0.1
565  ,1.872e+09   ,-2  ,2.5  ,0.1
566  ,1.620e+09   ,-2.2  ,2.5  ,0.1
567  ,1.567e+09   ,-2.4  ,2.5  ,4.7
568  ,2.117e+09   ,-2.4  ,2.5  ,4.5
569  ,2.214e+09   ,-2.4  ,2.5  ,4.3
570  ,2.447e+09   ,-2.4  ,2.5  ,4.1
571  ,2.111e+09   ,-2.4  ,2.5  ,3.9
572  ,2.141e+09   ,-2.4  ,2.5  ,3.7
573  ,2.466e+09   ,-2.4  ,2.5  ,3.5
574  ,3.071e+09   ,-2.4  ,2.5  ,3.3
575  ,1.863e+09   ,-2.4  ,2.5  ,3.1
576  ,1.129e+09   ,-2.4  ,2.5  ,2.9
577  ,9.730e+08   ,-2.4  ,2.5  ,2.7
578  ,7.022e+08   ,-2.4  ,2.5  ,2.5
579  ,7.404e+08   ,-2.4  ,2.5  ,2.3
580  ,8.848e+08   ,-2.4  ,2.5  ,2.1
581  ,9.740e+08   ,-2.4  ,2.5  ,1.9
582  ,1.693e+09   ,-2.4  ,2.5  ,1.7
583  ,1.774e+09   ,-2.4  ,2.5  ,1.5
584  ,2.088e+09   ,-2.4  ,2.5  ,1.3
585  ,2.078e+09   ,-2.4  ,2.5  ,1.1
586  ,2.110e+09   ,-2.4  ,2.5  ,0.9
587  ,1.946e+09   ,-2.4  ,2.5  ,0.7
588  ,1.817e+09   ,-2.4  ,2.5  ,0.5
589  ,1.534e+09   ,-2.4  ,2.5  ,0.3
590  ,9.973e+09   ,1.936  ,2.5  ,4.9
591  ,3.789e+09   ,1.7389  ,2.5  ,4.9
592  ,2.660e+09   ,1.5418  ,2.5  ,4.9
593  ,2.062e+09   ,1.3447  ,2.5  ,4.9
594  ,1.627e+09   ,1.1476  ,2.5  ,4.9
595  ,1.675e+09   ,0.95055  ,2.5  ,4.9
596  ,2.109e+09   ,0.75346  ,2.5  ,4.9
597  ,1.938e+09   ,0.55637  ,2.5  ,4.9
598  ,2.037e+09   ,0.35927  ,2.5  ,4.9
599  ,2.014e+09   ,0.16218  ,2.5  ,4.9
600  ,2.231e+09   ,-0.034907  ,2.5  ,4.9
601  ,2.410e+09   ,-0.232  ,2.5  ,4.9
602  ,4.378e+09   ,-0.42909  ,2.5  ,4.9
603  ,4.673e+09   ,-0.62618  ,2.5  ,4.9
604  ,4.530e+09   ,-0.82327  ,2.5  ,4.9
605  ,5.104e+09   ,-1.0204  ,2.5  ,4.9
606  ,4.596e+09   ,-1.2175  ,2.5  ,4.9
607  ,3.603e+09   ,-1.4145  ,2.5  ,4.9
608  ,2.781e+09   ,-1.6116  ,2.5  ,4.9
609  ,2.062e+09   ,-1.8087  ,2.5  ,4.9
610  ,1.463e+09   ,-2.0058  ,2.5  ,4.9
611  ,1.047e+09   ,-2.2029  ,2.5  ,4.9
612  ,1.420e+10   ,2.2665  ,2.5  ,4.7665
613  ,8.241e+09   ,2.4  ,2.5  ,4.436
614  ,4.850e+09   ,2.4  ,2.5  ,4.2389
615  ,2.723e+09   ,2.4  ,2.5  ,4.0418
616  ,1.961e+09   ,2.4  ,2.5  ,3.8447
617  ,1.835e+09   ,2.4  ,2.5  ,3.6476
618  ,1.540e+09   ,2.4  ,2.5  ,3.4505
619  ,1.764e+09   ,2.4  ,2.5  ,3.2535
620  ,1.993e+09   ,2.4  ,2.5  ,3.0564
621  ,1.817e+09   ,2.4  ,2.5  ,2.8593
622  ,2.045e+09   ,2.4  ,2.5  ,2.6622
623  ,2.262e+09   ,2.4  ,2.5  ,2.4651
624  ,2.351e+09   ,2.4  ,2.5  ,2.268
625  ,2.786e+09   ,2.4  ,2.5  ,2.0709
626  ,3.412e+09   ,2.4  ,2.5  ,1.8738
627  ,4.158e+09   ,2.4  ,2.5  ,1.6767
628  ,4.731e+09   ,2.4  ,2.5  ,1.4796
629  ,4.917e+09   ,2.4  ,2.5  ,1.2825
630  ,3.460e+09   ,2.4  ,2.5  ,1.0855
631  ,2.629e+09   ,2.4  ,2.5  ,0.88836
632  ,1.962e+09   ,2.4  ,2.5  ,0.69127
633  ,1.536e+09   ,2.4  ,2.5  ,0.49418
634  ,8.793e+08   ,2.4  ,2.5  ,0.29709
796  ,1.140e+09   ,-2.5  ,2.2  ,0.1
797  ,1.293e+09   ,-2.5  ,2  ,0.1
798  ,1.718e+09   ,-2.5  ,1.8  ,0.1
799  ,1.749e+09   ,-2.5  ,1.6  ,0.1
800  ,1.938e+09   ,-2.5  ,1.4  ,0.1
801  ,2.190e+09   ,-2.5  ,1.2  ,0.1
802  ,2.032e+09   ,-2.5  ,1  ,0.1
803  ,2.118e+09   ,-2.5  ,0.8  ,0.1
804  ,2.240e+09   ,-2.5  ,0.6  ,0.1
805  ,2.393e+09   ,-2.5  ,0.4  ,0.1
806  ,2.120e+09   ,-2.5  ,0.2  ,0.1
807  ,1.933e+09   ,-2.5  ,5.8879E-16  ,0.1
808  ,1.889e+09   ,-2.5  ,-0.2  ,0.1
809  ,1.888e+09   ,-2.5  ,-0.4  ,0.1
810  ,1.843e+09   ,-2.5  ,-0.6  ,0.1
811  ,1.530e+09   ,-2.5  ,-0.8  ,0.1
812  ,1.681e+09   ,-2.5  ,-1  ,0.1
813  ,1.373e+09   ,-2.5  ,-1.2  ,0.1
814  ,1.508e+09   ,-2.5  ,-1.4  ,0.1
815  ,1.307e+09   ,-2.5  ,-1.6  ,0.1
816  ,1.066e+09   ,-2.5  ,-1.8  ,0.1
817  ,1.242e+09   ,-2.5  ,-2  ,0.1
818  ,8.297e+08   ,-2.5  ,-2.2  ,0.1
819  ,2.031e+09   ,-2.5  ,-2.4  ,4.7
820  ,1.784e+09   ,-2.5  ,-2.4  ,4.5
821  ,1.185e+09   ,-2.5  ,-2.4  ,4.3
822  ,1.310e+09   ,-2.5  ,-2.4  ,4.1
823  ,2.087e+09   ,-2.5  ,-2.4  ,3.9
824  ,2.957e+09   ,-2.5  ,-2.4  ,3.7
825  ,4.258e+09   ,-2.5  ,-2.4  ,3.5
826  ,4.550e+09   ,-2.5  ,-2.4  ,3.3
827  ,5.644e+09   ,-2.5  ,-2.4  ,3.1
828  ,5.692e+09   ,-2.5  ,-2.4  ,2.9
829  ,5.101e+09   ,-2.5  ,-2.4  ,2.7
830  ,5.239e+09   ,-2.5  ,-2.4  ,2.5
831  ,4.122e+09   ,-2.5  ,-2.4  ,2.3
832  ,3.719e+09   ,-2.5  ,-2.4  ,2.1
833  ,2.270e+09   ,-2.5  ,-2.4  ,1.9
834  ,1.098e+09   ,-2.5  ,-2.4  ,1.7
835  ,6.419e+08   ,-2.5  ,-2.4  ,1.5
836  ,1.285e+09   ,-2.5  ,-2.4  ,1.3
837  ,1.589e+09   ,-2.5  ,-2.4  ,1.1
838  ,1.647e+09   ,-2.5  ,-2.4  ,0.9
839  ,1.635e+09   ,-2.5  ,-2.4  ,0.7
840  ,1.792e+09   ,-2.5  ,-2.4  ,0.5
841  ,1.869e+09   ,-2.5  ,-2.4  ,0.3
842  ,1.246e+09   ,-2.5  ,2.2  ,4.9
843  ,1.656e+09   ,-2.5  ,2  ,4.9
844  ,1.722e+09   ,-2.5  ,1.8  ,4.9
845  ,1.722e+09   ,-2.5  ,1.6  ,4.9
846  ,1.570e+09   ,-2.5  ,1.4  ,4.9
847  ,1.636e+09   ,-2.5  ,1.2  ,4.9
848  ,1.655e+09   ,-2.5  ,1  ,4.9
849  ,2.323e+09   ,-2.5  ,0.8  ,4.9
850  ,2.237e+09   ,-2.5  ,0.6  ,4.9
851  ,2.214e+09   ,-2.5  ,0.4  ,4.9
852  ,2.094e+09   ,-2.5  ,0.2  ,4.9
853  ,1.614e+09   ,-2.5  ,5.8879E-16  ,4.9
854  ,1.709e+09   ,-2.5  ,-0.2  ,4.9
855  ,1.368e+09   ,-2.5  ,-0.4  ,4.9
856  ,1.045e+09   ,-2.5  ,-0.6  ,4.9
857  ,9.666e+08   ,-2.5  ,-0.8  ,4.9
858  ,1.053e+09   ,-2.5  ,-1  ,4.9
859  ,8.724e+08   ,-2.5  ,-1.2  ,4.9
860  ,9.640e+08   ,-2.5  ,-1.4  ,4.9
861  ,8.881e+08   ,-2.5  ,-1.6  ,4.9
862  ,7.774e+08   ,-2.5  ,-1.8  ,4.9
863  ,9.569e+08   ,-2.5  ,-2  ,4.9
864  ,9.266e+08   ,-2.5  ,-2.2  ,4.9
865  ,1.625e+09   ,-2.5  ,2.4  ,4.7
866  ,2.085e+09   ,-2.5  ,2.4  ,4.5
867  ,2.194e+09   ,-2.5  ,2.4  ,4.3
868  ,1.780e+09   ,-2.5  ,2.4  ,4.1
869  ,1.989e+09   ,-2.5  ,2.4  ,3.9
870  ,1.976e+09   ,-2.5  ,2.4  ,3.7
871  ,2.205e+09   ,-2.5  ,2.4  ,3.5
872  ,2.793e+09   ,-2.5  ,2.4  ,3.3
873  ,2.309e+09   ,-2.5  ,2.4  ,3.1
874  ,1.208e+09   ,-2.5  ,2.4  ,2.9
875  ,1.009e+09   ,-2.5  ,2.4  ,2.7
876  ,9.863e+08   ,-2.5  ,2.4  ,2.5
877  ,9.336e+08   ,-2.5  ,2.4  ,2.3
878  ,1.087e+09   ,-2.5  ,2.4  ,2.1
879  ,8.570e+08   ,-2.5  ,2.4  ,1.9
880  ,1.792e+09   ,-2.5  ,2.4  ,1.7
881  ,2.362e+09   ,-2.5  ,2.4  ,1.5
882  ,2.487e+09   ,-2.5  ,2.4  ,1.3
883  ,2.148e+09   ,-2.5  ,2.4  ,1.1
884  ,2.121e+09   ,-2.5  ,2.4  ,0.9
885  ,2.001e+09   ,-2.5  ,2.4  ,0.7
886  ,1.955e+09   ,-2.5  ,2.4  ,0.5
887  ,1.586e+09   ,-2.5  ,2.4  ,0.3
1044  ,1.823e+09   ,-2.3  ,-2.5  ,0.44697
1045  ,1.973e+09   ,-2.3  ,-2.5  ,0.68705
1046  ,2.088e+09   ,-2.3  ,-2.5  ,0.92554
1047  ,2.080e+09   ,-2.3  ,-2.5  ,1.1682
1048  ,1.435e+09   ,-2.3  ,-2.5  ,1.4148
1049  ,4.975e+08   ,-2.3  ,-2.5  ,1.6581
1050  ,1.245e+09   ,-2.3  ,-2.5  ,1.8967
1051  ,2.157e+09   ,-2.3  ,-2.5  ,2.1357
1052  ,2.778e+09   ,-2.3  ,-2.5  ,2.3794
1053  ,3.393e+09   ,-2.3  ,-2.5  ,2.6206
1054  ,4.050e+09   ,-2.3  ,-2.5  ,2.8643
1055  ,4.066e+09   ,-2.3  ,-2.5  ,3.1033
1056  ,3.794e+09   ,-2.3  ,-2.5  ,3.342
1057  ,3.030e+09   ,-2.3  ,-2.5  ,3.5852
1058  ,1.934e+09   ,-2.3  ,-2.5  ,3.8318
1059  ,9.553e+08   ,-2.3  ,-2.5  ,4.0745
1060  ,7.049e+08   ,-2.3  ,-2.5  ,4.3129
1061  ,1.421e+09   ,-2.3  ,-2.5  ,4.553
1062  ,2.791e+09   ,-2.053  ,-2.5  ,4.8
1063  ,2.580e+09   ,-1.8129  ,-2.5  ,4.8
1064  ,2.690e+09   ,-1.5745  ,-2.5  ,4.8
1065  ,2.862e+09   ,-1.3318  ,-2.5  ,4.8
1066  ,3.185e+09   ,-1.0852  ,-2.5  ,4.8
1067  ,3.285e+09   ,-0.84195  ,-2.5  ,4.8
1068  ,3.790e+09   ,-0.60329  ,-2.5  ,4.8
1069  ,4.452e+09   ,-0.3643  ,-2.5  ,4.8
1070  ,4.495e+09   ,-0.12055  ,-2.5  ,4.8
1071  ,4.224e+09   ,0.12056  ,-2.5  ,4.8
1072  ,3.720e+09   ,0.3643  ,-2.5  ,4.8
1073  ,2.992e+09   ,0.6033  ,-2.5  ,4.8
1074  ,1.890e+09   ,0.84195  ,-2.5  ,4.8
1075  ,5.407e+08   ,1.0852  ,-2.5  ,4.8
1076  ,1.284e+09   ,1.3318  ,-2.5  ,4.8
1077  ,3.555e+09   ,1.5745  ,-2.5  ,4.8
1078  ,5.783e+09   ,1.8129  ,-2.5  ,4.8
1079  ,9.445e+09   ,2.053  ,-2.5  ,4.8
1080  ,9.644e+09   ,2.3  ,-2.5  ,4.553
1081  ,5.913e+09   ,2.3  ,-2.5  ,4.3129
1082  ,4.035e+09   ,2.3  ,-2.5  ,4.0745
1083  ,1.872e+09   ,2.3  ,-2.5  ,3.8318
1084  ,9.657e+08   ,2.3  ,-2.5  ,3.5852
1085  ,2.193e+09   ,2.3  ,-2.5  ,3.3419
1086  ,2.937e+09   ,2.3  ,-2.5  ,3.1033
1087  ,3.403e+09   ,2.3  ,-2.5  ,2.8643
1088  ,4.012e+09   ,2.3  ,-2.5  ,2.6206
1089  ,4.553e+09   ,2.3  ,-2.5  ,2.3794
1090  ,4.708e+09   ,2.3  ,-2.5  ,2.1357
1091  ,3.955e+09   ,2.3  ,-2.5  ,1.8967
1092  ,3.187e+09   ,2.3  ,-2.5  ,1.658
1093  ,2.936e+09   ,2.3  ,-2.5  ,1.4148
1094  ,2.723e+09   ,2.3  ,-2.5  ,1.1682
1095  ,2.713e+09   ,2.3  ,-2.5  ,0.92554
1096  ,2.791e+09   ,2.3  ,-2.5  ,0.68705
1097  ,2.681e+09   ,2.3  ,-2.5  ,0.44697
1098  ,1.836e+09   ,-2.053  ,-2.5  ,0.2
1099  ,2.163e+09   ,-1.8129  ,-2.5  ,0.2
1100  ,2.118e+09   ,-1.5745  ,-2.5  ,0.2
1101  ,1.894e+09   ,-1.3318  ,-2.5  ,0.2
1102  ,1.206e+09   ,-1.0852  ,-2.5  ,0.2
1103  ,5.120e+08   ,-0.84195  ,-2.5  ,0.2
1104  ,1.369e+09   ,-0.60329  ,-2.5  ,0.2
1105  ,2.099e+09   ,-0.3643  ,-2.5  ,0.2
1106  ,2.939e+09   ,-0.12055  ,-2.5  ,0.2
1107  ,3.638e+09   ,0.12056  ,-2.5  ,0.2
1108  ,4.225e+09   ,0.3643  ,-2.5  ,0.2
1109  ,4.048e+09   ,0.6033  ,-2.5  ,0.2
1110  ,3.731e+09   ,0.84195  ,-2.5  ,0.2
1111  ,3.236e+09   ,1.0852  ,-2.5  ,0.2
1112  ,2.169e+09   ,1.3318  ,-2.5  ,0.2
1113  ,9.543e+08   ,1.5745  ,-2.5  ,0.2
1114  ,6.571e+08   ,1.8129  ,-2.5  ,0.2
1115  ,1.684e+09   ,2.053  ,-2.5  ,0.2
1116  ,1.300e+09   ,-2.2  ,-2.5  ,4.9
1117  ,4.444e+08   ,-2  ,-2.5  ,4.9
1118  ,5.434e+08   ,-1.8  ,-2.5  ,4.9
1119  ,6.274e+08   ,-1.6  ,-2.5  ,4.9
1120  ,7.244e+08   ,-1.4  ,-2.5  ,4.9
1121  ,9.090e+08   ,-1.2  ,-2.5  ,4.9
1122  ,7.359e+08   ,-1  ,-2.5  ,4.9
1123  ,6.327e+08   ,-0.8  ,-2.5  ,4.9
1124  ,5.804e+08   ,-0.6  ,-2.5  ,4.9
1125  ,6.761e+08   ,-0.4  ,-2.5  ,4.9
1126  ,3.362e+08   ,-0.2  ,-2.5  ,4.9
1127  ,5.310e+08   ,-1.7664E-15  ,-2.5  ,4.9
1128  ,1.887e+08   ,0.2  ,-2.5  ,4.9
1129  ,7.067e+08   ,0.4  ,-2.5  ,4.9
1130  ,9.259e+08   ,0.6  ,-2.5  ,4.9
1131  ,1.481e+09   ,0.8  ,-2.5  ,4.9
1132  ,1.659e+09   ,1  ,-2.5  ,4.9
1133  ,1.608e+09   ,1.2  ,-2.5  ,4.9
1134  ,1.936e+09   ,1.4  ,-2.5  ,4.9
1135  ,2.143e+09   ,1.6  ,-2.5  ,4.9
1136  ,2.084e+09   ,1.8  ,-2.5  ,4.9
1137  ,1.774e+09   ,2  ,-2.5  ,4.9
1138  ,1.712e+09   ,2.2  ,-2.5  ,4.9
1139  ,1.058e+09   ,-2.4  ,-2.5  ,4.7
1140  ,9.556e+08   ,-2.4  ,-2.5  ,4.5
1141  ,1.116e+09   ,-2.4  ,-2.5  ,4.3
1142  ,1.272e+09   ,-2.4  ,-2.5  ,4.1
1143  ,1.535e+09   ,-2.4  ,-2.5  ,3.9
1144  ,1.939e+09   ,-2.4  ,-2.5  ,3.7
1145  ,1.265e+09   ,-2.4  ,-2.5  ,3.5
1146  ,1.053e+09   ,-2.4  ,-2.5  ,3.3
1147  ,5.053e+08   ,-2.4  ,-2.5  ,3.1
1148  ,9.986e+08   ,-2.4  ,-2.5  ,2.9
1149  ,1.364e+09   ,-2.4  ,-2.5  ,2.7
1150  ,1.022e+09   ,-2.4  ,-2.5  ,2.5
1151  ,1.250e+09   ,-2.4  ,-2.5  ,2.3
1152  ,1.055e+09   ,-2.4  ,-2.5  ,2.1
1153  ,1.314e+09   ,-2.4  ,-2.5  ,1.9
1154  ,1.054e+09   ,-2.4  ,-2.5  ,1.7
1155  ,5.159e+08   ,-2.4  ,-2.5  ,1.5
1156  ,2.313e+08   ,-2.4  ,-2.5  ,1.3
1157  ,6.893e+08   ,-2.4  ,-2.5  ,1.1
1158  ,8.109e+08   ,-2.4  ,-2.5  ,0.9
1159  ,5.823e+08   ,-2.4  ,-2.5  ,0.7
1160  ,3.984e+08   ,-2.4  ,-2.5  ,0.5
1161  ,9.201e+08   ,-2.4  ,-2.5  ,0.3
1162  ,7.457e+08   ,-2.2  ,-2.5  ,0.1
1163  ,7.408e+08   ,-2  ,-2.5  ,0.1
1164  ,6.941e+08   ,-1.8  ,-2.5  ,0.1
1165  ,6.214e+08   ,-1.6  ,-2.5  ,0.1
1166  ,2.349e+08   ,-1.4  ,-2.5  ,0.1
1167  ,3.646e+08   ,-1.2  ,-2.5  ,0.1
1168  ,7.816e+08   ,-1  ,-2.5  ,0.1
1169  ,1.084e+09   ,-0.8  ,-2.5  ,0.1
1170  ,1.008e+09   ,-0.6  ,-2.5  ,0.1
1171  ,9.515e+08   ,-0.4  ,-2.5  ,0.1
1172  ,1.048e+09   ,-0.2  ,-2.5  ,0.1
1173  ,1.246e+09   ,-1.7664E-15  ,-2.5  ,0.1
1174  ,1.014e+09   ,0.2  ,-2.5  ,0.1
1175  ,8.312e+08   ,0.4  ,-2.5  ,0.1
1176  ,1.250e+09   ,0.6  ,-2.5  ,0.1
1177  ,8.388e+08   ,0.8  ,-2.5  ,0.1
1178  ,1.226e+09   ,1  ,-2.5  ,0.1
1179  ,1.834e+09   ,1.2  ,-2.5  ,0.1
1180  ,1.698e+09   ,1.4  ,-2.5  ,0.1
1181  ,1.354e+09   ,1.6  ,-2.5  ,0.1
1182  ,1.296e+09   ,1.8  ,-2.5  ,0.1
1183  ,1.114e+09   ,2  ,-2.5  ,0.1
1184  ,1.248e+09   ,2.2  ,-2.5  ,0.1
1185  ,1.388e+09   ,2.4  ,-2.5  ,4.7
1186  ,1.619e+09   ,2.4  ,-2.5  ,4.5
1187  ,1.718e+09   ,2.4  ,-2.5  ,4.3
1188  ,2.339e+09   ,2.4  ,-2.5  ,4.1
1189  ,2.126e+09   ,2.4  ,-2.5  ,3.9
1190  ,2.230e+09   ,2.4  ,-2.5  ,3.7
1191  ,1.737e+09   ,2.4  ,-2.5  ,3.5
1192  ,1.170e+09   ,2.4  ,-2.5  ,3.3
1193  ,8.063e+08   ,2.4  ,-2.5  ,3.1
1194  ,7.360e+08   ,2.4  ,-2.5  ,2.9
1195  ,3.870e+08   ,2.4  ,-2.5  ,2.7
1196  ,4.333e+08   ,2.4  ,-2.5  ,2.5
1197  ,1.894e+08   ,2.4  ,-2.5  ,2.3
1198  ,5.443e+08   ,2.4  ,-2.5  ,2.1
1199  ,7.686e+08   ,2.4  ,-2.5  ,1.9
1200  ,6.111e+08   ,2.4  ,-2.5  ,1.7
1201  ,5.974e+08   ,2.4  ,-2.5  ,1.5
1202  ,8.739e+08   ,2.4  ,-2.5  ,1.3
1203  ,8.800e+08   ,2.4  ,-2.5  ,1.1
1204  ,8.217e+08   ,2.4  ,-2.5  ,0.9
1205  ,5.872e+08   ,2.4  ,-2.5  ,0.7
1206  ,6.322e+08   ,2.4  ,-2.5  ,0.5
1207  ,1.044e+09   ,2.4  ,-2.5  ,0.3
1208  ,9.634e+08   ,2.4  ,-2.2  ,0
1209  ,1.062e+09   ,2.4  ,-2  ,0
1210  ,8.506e+08   ,2.4  ,-1.8  ,0
1211  ,9.314e+08   ,2.4  ,-1.6  ,0
1212  ,1.004e+09   ,2.4  ,-1.4  ,0
1213  ,1.010e+09   ,2.4  ,-1.2  ,0
1214  ,1.031e+09   ,2.4  ,-1  ,0
1215  ,9.323e+08   ,2.4  ,-0.8  ,0
1216  ,1.052e+09   ,2.4  ,-0.6  ,0
1217  ,1.151e+09   ,2.4  ,-0.4  ,0
1218  ,1.480e+09   ,2.4  ,-0.2  ,0
1219  ,1.583e+09   ,2.4  ,-1.7664E-15  ,0
1220  ,1.785e+09   ,2.4  ,0.2  ,0
1221  ,2.073e+09   ,2.4  ,0.4  ,0
1222  ,2.488e+09   ,2.4  ,0.6  ,0
1223  ,2.725e+09   ,2.4  ,0.8  ,0
1224  ,2.145e+09   ,2.4  ,1  ,0
1225  ,1.988e+09   ,2.4  ,1.2  ,0
1226  ,1.789e+09   ,2.4  ,1.4  ,0
1227  ,1.662e+09   ,2.4  ,1.6  ,0
1228  ,1.891e+09   ,2.4  ,1.8  ,0
1229  ,1.798e+09   ,2.4  ,2  ,0
1230  ,1.425e+09   ,2.4  ,2.2  ,0
1231  ,1.757e+09   ,-2.2  ,-2.4  ,0
1232  ,1.985e+09   ,-2  ,-2.4  ,0
1233  ,1.974e+09   ,-1.8  ,-2.4  ,0
1234  ,1.962e+09   ,-1.6  ,-2.4  ,0
1235  ,1.709e+09   ,-1.4  ,-2.4  ,0
1236  ,1.329e+09   ,-1.2  ,-2.4  ,0
1237  ,5.378e+08   ,-1  ,-2.4  ,0
1238  ,1.386e+09   ,-0.8  ,-2.4  ,0
1239  ,2.661e+09   ,-0.6  ,-2.4  ,0
1240  ,3.544e+09   ,-0.4  ,-2.4  ,0
1241  ,4.271e+09   ,-0.2  ,-2.4  ,0
1242  ,5.131e+09   ,5.8879E-16  ,-2.4  ,0
1243  ,5.473e+09   ,0.2  ,-2.4  ,0
1244  ,5.692e+09   ,0.4  ,-2.4  ,0
1245  ,4.950e+09   ,0.6  ,-2.4  ,0
1246  ,4.777e+09   ,0.8  ,-2.4  ,0
1247  ,3.850e+09   ,1  ,-2.4  ,0
1248  ,3.016e+09   ,1.2  ,-2.4  ,0
1249  ,1.972e+09   ,1.4  ,-2.4  ,0
1250  ,1.280e+09   ,1.6  ,-2.4  ,0
1251  ,1.419e+09   ,1.8  ,-2.4  ,0
1252  ,1.875e+09   ,2  ,-2.4  ,0
1253  ,2.647e+09   ,2.2  ,-2.4  ,0
1254  ,1.114e+09   ,-2.4  ,2.2  ,0
1255  ,1.575e+09   ,-2.4  ,2  ,0
1256  ,1.502e+09   ,-2.4  ,1.8  ,0
1257  ,1.815e+09   ,-2.4  ,1.6  ,0
1258  ,2.126e+09   ,-2.4  ,1.4  ,0
1259  ,2.504e+09   ,-2.4  ,1.2  ,0
1260  ,2.266e+09   ,-2.4  ,1  ,0
1261  ,2.245e+09   ,-2.4  ,0.8  ,0
1262  ,2.104e+09   ,-2.4  ,0.6  ,0
1263  ,2.077e+09   ,-2.4  ,0.4  ,0
1264  ,2.100e+09   ,-2.4  ,0.2  ,0
1265  ,2.181e+09   ,-2.4  ,5.8879E-16  ,0
1266  ,2.459e+09   ,-2.4  ,-0.2  ,0
1267  ,1.826e+09   ,-2.4  ,-0.4  ,0
1268  ,1.955e+09   ,-2.4  ,-0.6  ,0
1269  ,1.599e+09   ,-2.4  ,-0.8  ,0
1270  ,1.746e+09   ,-2.4  ,-1  ,0
1271  ,1.533e+09   ,-2.4  ,-1.2  ,0
1272  ,1.337e+09   ,-2.4  ,-1.4  ,0
1273  ,1.323e+09   ,-2.4  ,-1.6  ,0
1274  ,1.206e+09   ,-2.4  ,-1.8  ,0
1275  ,1.258e+09   ,-2.4  ,-2  ,0
1276  ,7.036e+08   ,-2.4  ,-2.2  ,0
1277  ,1.574e+09   ,2.2  ,2.4  ,0
1278  ,2.065e+09   ,2  ,2.4  ,0
1279  ,2.102e+09   ,1.8  ,2.4  ,0
1280  ,1.742e+09   ,1.6  ,2.4  ,0
1281  ,1.569e+09   ,1.4  ,2.4  ,0
1282  ,1.898e+09   ,1.2  ,2.4  ,0
1283  ,2.154e+09   ,1  ,2.4  ,0
1284  ,2.917e+09   ,0.8  ,2.4  ,0
1285  ,2.318e+09   ,0.6  ,2.4  ,0
1286  ,1.190e+09   ,0.4  ,2.4  ,0
1287  ,9.896e+08   ,0.2  ,2.4  ,0
1288  ,1.081e+09   ,5.8879E-16  ,2.4  ,0
1289  ,1.178e+09   ,-0.2  ,2.4  ,0
1290  ,1.102e+09   ,-0.4  ,2.4  ,0
1291  ,6.933e+08   ,-0.6  ,2.4  ,0
1292  ,1.806e+09   ,-0.8  ,2.4  ,0
1293  ,2.326e+09   ,-1  ,2.4  ,0
1294  ,2.437e+09   ,-1.2  ,2.4  ,0
1295  ,2.066e+09   ,-1.4  ,2.4  ,0
1296  ,2.003e+09   ,-1.6  ,2.4  ,0
1297  ,1.967e+09   ,-1.8  ,2.4  ,0
1298  ,1.738e+09   ,-2  ,2.4  ,0
1299  ,1.753e+09   ,-2.2  ,2.4  ,0
1460  ,5.892e+09   ,2.3243  ,2.3243  ,4.9577
1461  ,6.324e+09   ,2.4577  ,2.3243  ,4.8243
1462  ,1.091e+10   ,2.3243  ,2.4577  ,4.8243
1463  ,8.524e+08   ,-2.3  ,-2.1759  ,4.8
1464  ,6.693e+08   ,-2.3  ,-1.7631  ,4.8
1465  ,7.503e+08   ,-2.3  ,-1.1827  ,4.8
1466  ,2.003e+09   ,-2.3  ,-0.34986  ,4.8
1467  ,2.486e+09   ,-2.3  ,0.80545  ,4.8
1468  ,3.238e+09   ,-0.81337  ,2.3  ,4.8
1469  ,2.903e+09   ,0.67326  ,2.3  ,4.8
1470  ,4.607e+09   ,2.3  ,-2.1824  ,4.8
1471  ,3.850e+09   ,2.3  ,-1.7784  ,4.8
1472  ,4.220e+09   ,2.3  ,-1.2138  ,4.8
1473  ,3.643e+09   ,2.3  ,-0.40752  ,4.8
1474  ,2.207e+09   ,2.3  ,0.70532  ,4.8
1516  ,3.179e+09   ,2.3  ,2.3  ,1.6866
1517  ,3.001e+09   ,2.3  ,2.3  ,3.1733
1518  ,8.470e+08   ,2.3  ,-2.1759  ,0.2
1519  ,5.818e+08   ,2.3  ,-1.7631  ,0.2
1520  ,7.359e+08   ,2.3  ,-1.1827  ,0.2
1521  ,2.080e+09   ,2.3  ,-0.34986  ,0.2
1522  ,2.684e+09   ,2.3  ,0.80545  ,0.2
1564  ,1.599e+09   ,-0.76667  ,2.3  ,0.2
1565  ,2.428e+09   ,0.76667  ,2.3  ,0.2
1566  ,1.716e+09   ,-2.3  ,2.3  ,1.7333
1567  ,2.439e+09   ,-2.3  ,2.3  ,3.2667
1574  ,8.123e+08   ,-2.3  ,-2.1759  ,0.2
1575  ,7.286e+08   ,-2.3  ,-1.7631  ,0.2
1576  ,8.875e+08   ,-2.3  ,-1.1827  ,0.2
1577  ,7.535e+08   ,-2.3  ,-0.34986  ,0.2
1578  ,7.386e+08   ,-2.3  ,0.80545  ,0.2
1777  ,4.719e+09   ,-0.52764  ,2.5  ,4.9
1801  ,2.960e+09   ,-2.3  ,1.5527  ,0.2
1825  ,2.837e+09   ,-1.5333  ,2.3  ,0.2
1841  ,2.159e+09   ,0.063638  ,2.5  ,4.9
1876  ,8.373e+08   ,-0.5  ,2.4  ,0
1894  ,1.902e+09   ,2.3  ,1.5527  ,0.2
1907  ,1.909e+09   ,2.1  ,2.5  ,0.1
1928  ,1.973e+09   ,1.9  ,2.4  ,0
1974  ,1.900e+09   ,2.4  ,1.1  ,0
1981  ,1.777e+09   ,2.4  ,2.5  ,0.59273
1987  ,1.928e+09   ,-2.5  ,2.4  ,4
2004  ,1.823e+09   ,-2.4  ,2.5  ,4.6
2009  ,1.810e+09   ,2.4  ,1.3  ,0
2020  ,2.201e+09   ,2.5  ,1.1  ,0.1
2035  ,1.700e+09   ,-2.3  ,-0.76628  ,0.2
2070  ,3.553e+09   ,1.6404  ,2.4  ,5
2081  ,3.046e+09   ,2.4  ,2.5  ,1.9724
2095  ,2.432e+09   ,2.4  ,2.5  ,0.78982
2138  ,1.937e+09   ,-2.4  ,-0.1  ,0
2146  ,4.548e+09   ,-0.92182  ,2.4  ,5
2174  ,3.944e+09   ,2.4  ,2.5  ,1.184
2190  ,3.098e+09   ,2.5  ,2.4  ,0.98691
2203  ,4.606e+09   ,2.5  ,-0.13345  ,4.9
2232  ,5.493e+09   ,2.3  ,0.1489  ,4.8
2242  ,1.976e+09   ,2.4  ,2.5  ,2.9578
2293  ,2.518e+09   ,-2.5  ,0.5  ,0.1
2311  ,6.278e+09   ,2.3  ,2.3  ,2.4299
2313  ,2.806e+09   ,2.5  ,2.4  ,0.78982
2329  ,2.457e+09   ,2.4  ,2.5  ,2.1695
2355  ,2.110e+09   ,-2.4  ,2.5  ,4.4
2380  ,1.336e+09   ,-2.5  ,-1.5  ,0.1
2383  ,1.891e+09   ,0.45782  ,2.5  ,4.9
2408  ,5.925e+09   ,2.3  ,-1.4961  ,4.8
2445  ,5.200e+09   ,2.5  ,-1.5131  ,4.9
2484  ,3.824e+08   ,-2.5  ,-2.4  ,1.6
2495  ,1.637e+09   ,-2.4  ,1.7  ,5
2508  ,1.884e+09   ,2.4  ,0.3  ,0
2514  ,3.919e+09   ,2.3  ,0.2278  ,0.2
2570  ,1.652e+09   ,-2.4  ,1.5  ,5
2580  ,3.471e+09   ,1.6404  ,2.5  ,4.9
2603  ,5.144e+09   ,-1.1189  ,2.5  ,4.9
2695  ,2.712e+09   ,2.3  ,2.3  ,0.94331
2705  ,5.118e+09   ,2.4  ,2.5  ,1.3811
2714  ,1.927e+09   ,2.5  ,0.45782  ,4.9
2734  ,9.347e+08   ,2.4  ,-0.9  ,0
2775  ,1.312e+09   ,2.5  ,-0.1  ,0.1
2779  ,1.487e+09   ,2.4  ,-0.1  ,0
2801  ,4.302e+09   ,1.4166  ,2.3  ,4.8
2814  ,2.258e+09   ,1.4433  ,2.5  ,4.9
2863  ,1.804e+09   ,-2.4  ,2.5  ,0.6
2884  ,2.041e+09   ,-2.4  ,2.5  ,0.8
2886  ,2.086e+09   ,-2.4  ,2.5  ,1.2
2967  ,1.722e+09   ,2.4  ,1.7  ,0
2973  ,1.651e+09   ,2.5  ,1.5  ,0.1
2987  ,8.210e+08   ,-0.3  ,2.5  ,0.1
3008  ,3.084e+09   ,-2.3  ,2.3  ,0.96667
3012  ,1.001e+09   ,-2.5  ,2.4  ,2.6
3021  ,1.145e+09   ,-2.5  ,2.4  ,2.8
3025  ,9.247e+08   ,-2.5  ,2.4  ,2.4
3030  ,6.869e+08   ,-2.4  ,2.5  ,2.4
3033  ,6.946e+08   ,-2.4  ,2.5  ,2.2
3047  ,2.202e+09   ,2.4  ,2.5  ,2.3665
3052  ,2.329e+09   ,2.5  ,2.4  ,2.5636
3061  ,2.120e+09   ,2.4  ,2.5  ,2.5636
3081  ,1.751e+09   ,-2.4  ,1.3  ,5
3088  ,1.582e+09   ,-1.9073  ,2.4  ,5
3099  ,1.639e+09   ,-2.4  ,1.9  ,5
3107  ,2.089e+09   ,-2.4  ,2.5  ,3.8
3139  ,3.003e+09   ,-1.5131  ,2.4  ,5
3145  ,3.184e+09   ,-1.5131  ,2.5  ,4.9
3148  ,2.400e+09   ,-1.7102  ,2.5  ,4.9
3168  ,1.866e+09   ,-2.4  ,1.5  ,0
3188  ,1.550e+09   ,-2.5  ,-2.4  ,1
3202  ,1.673e+09   ,0.26073  ,2.5  ,4.9
3212  ,2.465e+09   ,2.5  ,1.6404  ,4.9
3247  ,2.588e+09   ,2.5  ,1.8375  ,4.9
3265  ,3.645e+09   ,2.3  ,1.4326  ,4.8
3271  ,8.946e+09   ,2.2299  ,2.2299  ,4.8
3284  ,2.007e+09   ,2.4  ,1.4433  ,5
3291  ,2.027e+09   ,2.5  ,1.4433  ,4.9
3296  ,1.307e+09   ,-2.3  ,-0.76628  ,4.8
3303  ,8.190e+08   ,-2.4  ,-0.9  ,5
3311  ,7.501e+08   ,-2.4  ,-0.7  ,5
3315  ,2.149e+09   ,1.9  ,2.5  ,0.1
3336  ,2.051e+09   ,-2.4  ,0.3  ,0
3340  ,1.980e+09   ,-2.5  ,0.1  ,0.1
3344  ,2.105e+09   ,-2.4  ,0.1  ,0
3356  ,1.159e+09   ,-0.3  ,2.4  ,0
3361  ,2.785e+09   ,-0.33054  ,2.5  ,4.9
3364  ,2.327e+09   ,-0.13345  ,2.5  ,4.9
3383  ,1.680e+09   ,2.4  ,2.5  ,3.5491
3402  ,1.103e+10   ,2.4  ,2.5  ,4.5345
3421  ,4.004e+09   ,-1.316  ,2.5  ,4.9
3439  ,2.431e+09   ,2.5  ,2.4  ,3.9433
3447  ,2.286e+09   ,2.4  ,2.5  ,3.9433
3451  ,1.925e+09   ,2.4  ,2.5  ,3.7462
3468  ,2.525e+09   ,1.4433  ,2.4  ,5
3480  ,1.826e+09   ,1.0491  ,2.4  ,5
3519  ,1.865e+09   ,1.5  ,2.4  ,0
3527  ,4.070e+08   ,2.3  ,-1.4729  ,0.2
3550  ,1.943e+09   ,-1.7  ,2.4  ,0
3554  ,1.941e+09   ,-1.7  ,2.5  ,0.1
3558  ,2.048e+09   ,-1.5  ,2.4  ,0
3562  ,1.959e+09   ,-1.5  ,2.5  ,0.1
3574  ,1.230e+09   ,-2.4  ,2.1  ,5
3581  ,1.729e+09   ,-2.5  ,1.7  ,0.1
3583  ,1.465e+09   ,-2.5  ,1.9  ,0.1
3584  ,1.643e+09   ,-1.9073  ,2.5  ,4.9
3591  ,1.723e+09   ,2.5  ,0.3  ,0.1
3595  ,1.337e+09   ,2.5  ,0.1  ,0.1
3603  ,1.542e+10   ,2.4577  ,2.391  ,4.7576
3663  ,2.144e+09   ,-1.933  ,-2.5  ,0.2
3669  ,1.235e+09   ,-2.1765  ,-2.5  ,0.2
3672  ,7.026e+08   ,-2.3  ,-2.3379  ,0.2
3682  ,1.845e+09   ,-1.9  ,-2.4  ,0
3700  ,3.638e+09   ,2.3  ,-2.5  ,2.7424
3712  ,8.341e+08   ,-2.1  ,-2.5  ,4.9
3715  ,3.243e+08   ,-1.9  ,-2.5  ,4.9
3740  ,1.812e+09   ,-1.3  ,-2.4  ,5
3746  ,3.007e+09   ,-1.2085  ,-2.5  ,4.8
3755  ,1.842e+09   ,-1.5  ,-2.4  ,5
3760  ,4.168e+08   ,-1.7  ,-2.5  ,4.9
3786  ,4.206e+09   ,2.4  ,2.5  ,1.5782
3813  ,2.011e+09   ,0.26073  ,2.4  ,5
3858  ,1.871e+09   ,-0.9  ,-2.4  ,5
3863  ,1.896e+09   ,-2.5  ,0.9  ,4.9
3875  ,2.533e+09   ,-1.9  ,-2.4  ,5
3885  ,4.125e+09   ,2.4  ,-0.72473  ,5
3910  ,9.645e+08   ,-2.4  ,-2.5  ,3.4
3959  ,3.792e+09   ,2.5  ,2.4  ,4.1404
3969  ,1.946e+09   ,2.5  ,1.0491  ,4.9
3992  ,2.434e+09   ,2.391  ,2.2576  ,4.9577
3993  ,2.975e+09   ,2.4577  ,2.2576  ,4.891
4016  ,7.886e+08   ,-2.3015  ,2.5  ,4.9
4018  ,1.073e+09   ,-2.4  ,2.5  ,4.8
4021  ,1.858e+09   ,1.2462  ,2.4  ,5
4042  ,1.011e+09   ,2.4  ,-1.1  ,0
4046  ,2.077e+09   ,-0.9  ,2.4  ,0
4055  ,1.934e+09   ,1.7  ,-2.5  ,4.9
4087  ,1.976e+09   ,1.7  ,2.4  ,0
4114  ,3.819e+09   ,2.5  ,-0.33054  ,4.9
4120  ,9.568e+08   ,2.4  ,-2.5  ,1.8
4125  ,2.579e+09   ,2.4  ,2.5  ,0.98691
4144  ,6.764e+09   ,2.4  ,2.5  ,4.3375
4161  ,1.711e+09   ,-2.4  ,0.3  ,5
4201  ,8.070e+08   ,1.933  ,-2.5  ,0.2
4225  ,1.068e+09   ,-2.3  ,-2.4  ,0
4230  ,1.942e+09   ,-2.3  ,-2.5  ,0.56701
4269  ,8.870e+08   ,-0.9  ,-2.5  ,4.9
4277  ,1.872e+09   ,-1.1  ,-2.4  ,5
4288  ,5.021e+09   ,-0.070055  ,2.3  ,4.8
4328  ,1.137e+09   ,-2.5  ,-2.4  ,4.2
4336  ,1.531e+09   ,-2.5  ,-2.4  ,4.4
4342  ,1.662e+09   ,-2.5  ,-2.4  ,4.6
4348  ,2.227e+09   ,-2.4  ,-2.4707  ,4.9707
4352  ,1.408e+09   ,-2.3  ,-2.5  ,4.9
4354  ,2.667e+09   ,-2.1765  ,-2.5  ,4.8
4355  ,1.168e+09   ,-2.3  ,-2.3379  ,4.8
4362  ,1.589e+09   ,2.5  ,2.4  ,0.59273
4364  ,3.778e+09   ,2.5  ,-2.4  ,2.4
4366  ,3.817e+09   ,2.5  ,-2.4  ,2.2
4372  ,3.696e+08   ,2.4  ,-2.5  ,2.2
4385  ,1.195e+09   ,-2.5  ,-1.9  ,0.1
4399  ,1.216e+09   ,-2.5  ,2.1  ,0.1
4407  ,1.934e+09   ,-0.7  ,-2.4  ,0
4436  ,2.023e+09   ,-2.5  ,-0.1  ,0.1
4462  ,1.950e+09   ,-2.3  ,2.3  ,4.0333
4491  ,3.666e+09   ,2.5  ,-0.52764  ,4.9
4494  ,1.559e+09   ,2.5  ,-2.4  ,1.4
4503  ,8.573e+08   ,2.4  ,-2.5  ,1.4
4508  ,1.032e+09   ,2.4  ,-2.5  ,1.2
4515  ,2.431e+09   ,2.5  ,-2.4  ,1.8
4517  ,8.244e+08   ,2.4  ,-2.5  ,1.6
4522  ,4.889e+09   ,0.7  ,-2.4  ,0
4538  ,4.416e+09   ,-1.1189  ,2.4  ,5
4546  ,3.029e+09   ,2.4  ,2.5  ,4.1404
4559  ,1.315e+09   ,1.7  ,-2.4  ,0
4590  ,5.338e+09   ,0.5  ,-2.4  ,0
4631  ,4.504e+08   ,2.4  ,-2.5  ,2.6
4634  ,3.899e+09   ,2.5  ,-2.4  ,2.8
4657  ,2.858e+09   ,-2.5  ,-2.4  ,2
4660  ,1.649e+09   ,-2.5  ,-2.4  ,1.8
4664  ,3.676e+09   ,-0.3  ,-2.4  ,0
4675  ,1.031e+09   ,-2.4  ,-2.5  ,4.8
4681  ,1.824e+09   ,-2.5  ,-0.3  ,0.1
4684  ,2.832e+09   ,1.7  ,-2.4  ,5
4703  ,2.299e+09   ,-2.4  ,0.7  ,5
4707  ,2.008e+09   ,-2.5  ,0.3  ,4.9
4714  ,3.493e+09   ,2.4  ,-0.33054  ,5
4723  ,3.940e+09   ,-1.5567  ,2.3  ,4.8
4739  ,1.107e+09   ,-2.1044  ,2.5  ,4.9
4763  ,1.925e+09   ,-1.9  ,2.4  ,0
4780  ,7.233e+08   ,-2.3  ,-1.9695  ,0.2
4782  ,5.927e+08   ,-2.4707  ,-2.4  ,0.029289
4784  ,1.165e+09   ,-2.4  ,-1.9  ,0
4791  ,1.129e+09   ,-2.4  ,-2.5  ,1.8
4796  ,5.652e+09   ,2.4707  ,-2.4707  ,4.9
4799  ,7.606e+09   ,2.5  ,-2.4  ,4.8
4806  ,3.942e+09   ,2.3  ,-2.5  ,4.9
4809  ,4.429e+09   ,2.3  ,2.3  ,3.9166
4833  ,1.544e+09   ,-2.4  ,2.5  ,0.4
4841  ,8.062e+08   ,-2.4  ,2.5  ,2.6
4846  ,1.386e+09   ,-2.5  ,2.1  ,4.9
4848  ,9.109e+08   ,-2.5  ,2.3  ,4.9
4849  ,1.091e+09   ,-2.5  ,2.4  ,4.8
4893  ,2.247e+09   ,-2.4  ,2.5  ,4.2
4897  ,2.781e+09   ,2.3333  ,2.1998  ,5
4900  ,1.717e+10   ,2.391  ,2.4577  ,4.7576
4908  ,1.486e+10   ,2.2576  ,2.391  ,4.9577
4911  ,1.720e+10   ,2.2576  ,2.4577  ,4.891
4926  ,2.080e+09   ,-2.5  ,2.4  ,1
4932  ,1.848e+09   ,-2.4  ,2.5  ,1.6
4937  ,2.031e+09   ,-1.1  ,2.5  ,0.1
4939  ,8.734e+09   ,2.3  ,2.2299  ,4.7299
4944  ,6.053e+09   ,2.5  ,-1.9073  ,4.9
4987  ,1.803e+09   ,-2.3  ,1.5527  ,4.8
5010  ,1.789e+09   ,2.4973  ,2.1331  ,4.923
5013  ,2.029e+09   ,2.5  ,2.0345  ,4.9
5017  ,1.835e+09   ,2.4  ,2.0345  ,5
5035  ,2.281e+09   ,1.3  ,-2.4  ,0
5038  ,2.813e+09   ,1.2085  ,-2.5  ,0.2
5092  ,3.740e+08   ,-2.4  ,-2.5  ,1.2
5123  ,2.661e+09   ,2.5  ,-2.4  ,0.6
5151  ,1.793e+09   ,-2.5  ,-0.5  ,0.1
5160  ,1.591e+09   ,-2.5  ,-0.7  ,0.1
5164  ,2.329e+09   ,-2.4  ,0.9  ,5
5168  ,1.696e+09   ,-2.4  ,0.5  ,5
5176  ,7.276e+08   ,2.5  ,-0.7  ,0.1
5179  ,1.045e+09   ,2.4  ,-0.5  ,0
5189  ,3.958e+08   ,2.4  ,-2.5  ,2.4
5194  ,4.690e+09   ,2.3  ,-2.5  ,2.2576
5198  ,1.438e+09   ,-2.3  ,-2.5  ,0.32348
5205  ,1.038e+09   ,-2.4  ,-2.5  ,0.2
5207  ,8.254e+08   ,-2.1  ,-2.5  ,0.1
5246  ,2.616e+09   ,-2.5  ,2.4  ,3.2
5257  ,1.585e+09   ,-2.5  ,1.5  ,4.9
5263  ,2.454e+09   ,-2.3  ,0.2278  ,0.2
5272  ,2.022e+09   ,-2.5  ,0.3  ,0.1
5275  ,2.111e+09   ,-2.5  ,0.5  ,4.9
5281  ,4.570e+09   ,1.8375  ,2.5  ,4.9
5297  ,1.954e+09   ,-0.9  ,2.5  ,0.1
5306  ,1.152e+09   ,-0.7  ,2.4  ,0
5309  ,7.878e+08   ,-0.5  ,2.5  ,0.1
5324  ,1.859e+09   ,2.4  ,2.5  ,2.7607
5332  ,2.073e+09   ,2.5  ,-2.4  ,0.8
5334  ,1.039e+09   ,2.4  ,-2.5  ,1
5360  ,5.277e+09   ,2.4  ,-1.7102  ,5
5362  ,5.401e+09   ,2.4  ,-1.5131  ,5
5368  ,2.970e+09   ,2.4  ,1.8375  ,5
5371  ,3.784e+10   ,2.4325  ,2.4888  ,4.6656
5372  ,1.923e+10   ,2.3333  ,2.5  ,4.6998
5376  ,1.602e+10   ,2.4707  ,2.4707  ,4.6331
5377  ,8.887e+09   ,2.5  ,2.4  ,4.5345
5379  ,6.895e+08   ,-1.5  ,-2.5  ,4.9
5406  ,4.591e+09   ,-2.5  ,-2.4  ,3.4
5420  ,3.960e+09   ,-2.3  ,-2.5  ,3.2226
5423  ,1.402e+09   ,1.5  ,-2.4  ,0
5502  ,6.628e+08   ,-2.5  ,-2.3  ,0.1
5504  ,1.180e+09   ,-2.5  ,-2.4  ,0.2
5506  ,6.743e+08   ,-2.4  ,-2.3  ,0
5511  ,9.493e+08   ,-2.5  ,-2.1  ,0.1
5513  ,2.020e+09   ,-2.4  ,0.5  ,0
5517  ,1.070e+09   ,-0.9  ,-2.5  ,0.1
5532  ,3.921e+08   ,-2.4707  ,2.4707  ,4.9
5534  ,9.791e+08   ,2.4  ,-0.7  ,0
5551  ,1.994e+09   ,2.5  ,-2.4  ,3.8
5566  ,3.649e+09   ,2.5  ,2.4  ,1.3811
5603  ,1.262e+09   ,2.4  ,-0.3  ,0
5617  ,1.692e+09   ,-2.1  ,2.5  ,0.1
5637  ,5.968e+08   ,-2.3  ,-1.9695  ,4.8
5641  ,1.615e+09   ,2.3  ,-2.5  ,3.4636
5645  ,1.299e+09   ,-2.4  ,-2.5  ,2
5649  ,9.307e+08   ,-2.4  ,-2.5  ,2.2
5659  ,7.569e+08   ,-2.3  ,-2.5  ,1.7774
5662  ,9.638e+09   ,2.1765  ,-2.5  ,4.8
5666  ,3.861e+09   ,2.4  ,-2.5  ,4.8
5669  ,5.258e+09   ,2.3  ,-2.3412  ,4.8
5695  ,2.075e+09   ,-2.4  ,0.7  ,0
5701  ,2.114e+09   ,-2.5  ,2.4  ,1.6
5715  ,1.273e+09   ,-2.4  ,2.5  ,1.8
5726  ,1.278e+09   ,-0.7  ,2.5  ,0.1
5727  ,2.328e+09   ,-1.1  ,2.4  ,0
5730  ,3.516e+09   ,2.3  ,-2.5  ,1.7774
5746  ,3.704e+09   ,2.5  ,2.4  ,1.7753
5755  ,5.099e+09   ,2.5  ,-2.4  ,4.4
5763  ,1.597e+09   ,2.4  ,-2.5  ,4.4
5773  ,1.631e+09   ,1.0491  ,2.5  ,4.9
5791  ,3.837e+09   ,-0.72473  ,2.4  ,5
5795  ,5.525e+09   ,1.8375  ,2.4  ,5
5803  ,3.545e+09   ,-0.3  ,-2.4  ,5
5810  ,2.311e+09   ,2.4  ,1.6404  ,5
5836  ,1.544e+09   ,-2.5  ,1.3  ,4.9
5860  ,1.809e+09   ,2.5  ,-2.4  ,1.6
5866  ,1.520e+09   ,1.5  ,-2.5  ,0.1
5884  ,1.302e+09   ,-2.4  ,-0.3  ,5
5888  ,1.081e+09   ,-2.5  ,-0.5  ,4.9
5901  ,4.365e+09   ,2.3  ,-2.5  ,2.5
5908  ,1.577e+09   ,2.5  ,-2.4  ,1.2
5909  ,3.277e+09   ,2.5  ,-2.4  ,2
5934  ,1.759e+09   ,1.9  ,-2.5  ,4.9
5938  ,7.140e+09   ,1.933  ,-2.5  ,4.8
5948  ,1.062e+09   ,-2.4  ,-2.5  ,4.6
5950  ,1.464e+09   ,-2.4707  ,-2.4707  ,4.9
5951  ,1.677e+09   ,-2.5  ,-2.4  ,4.8
5952  ,1.027e+09   ,-2.5  ,-2.3  ,4.9
5986  ,1.212e+09   ,2.3  ,-2.5  ,3.7085
5990  ,4.474e+09   ,-0.92182  ,2.5  ,4.9
6019  ,1.504e+09   ,2.5  ,1.9  ,0.1
6025  ,9.373e+08   ,2.4  ,-1.3  ,0
6035  ,1.650e+09   ,-2.5  ,1.9  ,4.9
6044  ,6.246e+08   ,0.1  ,2.5  ,0.1
6054  ,1.634e+09   ,2.4  ,0.1  ,0
6070  ,7.960e+08   ,-2.4  ,2.3  ,0
6071  ,1.178e+09   ,-2.3  ,2.4  ,0
6076  ,1.295e+09   ,-2.4  ,2.1  ,0
6083  ,2.550e+09   ,2.1  ,-2.4  ,0
6084  ,9.822e+08   ,2.4  ,2.3  ,0
6087  ,1.162e+09   ,2.3  ,2.4  ,0
6092  ,5.304e+08   ,-2.4  ,-2.5  ,0.4
6096  ,8.458e+08   ,-2.3  ,-2.5  ,0.1
6099  ,7.835e+08   ,0.7  ,-2.5  ,0.1
6149  ,1.683e+09   ,-2.4  ,-0.9  ,0
6159  ,5.015e+09   ,-2.5  ,-2.4  ,2.6
6183  ,1.914e+09   ,1.2462  ,2.5  ,4.9
6224  ,1.569e+09   ,2.5  ,-2.4  ,4
6228  ,2.326e+09   ,2.4  ,-2.5  ,3.8
6237  ,2.828e+09   ,2.5  ,0.7  ,0.1
6241  ,6.669e+09   ,2.5  ,2.3333  ,4.6998
6245  ,3.498e+09   ,2.5  ,2.4  ,1.5782
6259  ,5.934e+09   ,2.5  ,-2.1044  ,4.9
6265  ,4.881e+09   ,2.3  ,-1.9804  ,4.8
6267  ,5.644e+09   ,2.5  ,-2.3015  ,4.9
6268  ,5.088e+09   ,2.4707  ,-2.4  ,4.9707
6270  ,5.885e+09   ,2.4  ,-2.1044  ,5
6317  ,2.701e+09   ,-2.3  ,0.2278  ,4.8
6349  ,3.876e+09   ,-0.52764  ,2.4  ,5
6391  ,3.752e+09   ,2.4  ,2.5  ,1.7753
6440  ,1.939e+09   ,-2.5  ,2.4  ,3.8
6471  ,4.529e+09   ,2.5  ,-0.92182  ,4.9
6489  ,1.961e+09   ,2.5  ,1.2462  ,4.9
6523  ,9.169e+08   ,-1.1  ,-2.4  ,0
6528  ,6.776e+08   ,-1.1  ,-2.5  ,0.1
6535  ,6.907e+08   ,-0.9  ,-2.4  ,0
6538  ,1.000e+09   ,1.5  ,-2.4  ,5
6541  ,2.110e+09   ,1.5  ,-2.5  ,4.9
6551  ,4.012e+09   ,2.5  ,-0.72473  ,4.9
6564  ,3.606e+10   ,2.1331  ,2.4973  ,4.923
6565  ,1.168e+10   ,2.0345  ,2.5  ,4.9
6572  ,8.455e+08   ,2.4  ,-1.7  ,0
6581  ,2.235e+09   ,0  ,2.3  ,0.2
6592  ,5.396e+08   ,2.3  ,-1.9695  ,0.2
6594  ,1.072e+09   ,0.3  ,2.4  ,0
6601  ,1.499e+09   ,0.5  ,2.5  ,0.1
6605  ,1.375e+09   ,-2.4  ,-1.3  ,0
6606  ,1.488e+09   ,-2.4  ,-1.1  ,0
6615  ,2.209e+09   ,-2.4  ,-0.3  ,0
6634  ,2.702e+09   ,2.1  ,-2.5  ,4.9
6635  ,5.694e+09   ,2.4  ,-2.4707  ,4.9707
6636  ,7.517e+09   ,2.3  ,-2.4  ,5
6647  ,8.258e+08   ,0.5  ,-2.5  ,0.1
6704  ,6.207e+08   ,-2.4707  ,2.4707  ,0.1
6708  ,1.058e+09   ,-2.5  ,2.4  ,0.2
6712  ,2.256e+09   ,-2.4  ,2.5  ,3.6
6715  ,2.693e+09   ,-2.4  ,2.5  ,3.4
6728  ,2.180e+09   ,-2.5  ,0.7  ,4.9
6753  ,1.090e+09   ,-2.1044  ,2.4  ,5
6788  ,5.856e+09   ,2.5  ,2.4  ,4.3375
6791  ,2.775e+09   ,-1.933  ,-2.5  ,4.8
6795  ,1.861e+10   ,2.1998  ,2.5  ,4.8333
6837  ,2.039e+09   ,-2.3  ,-2.5  ,0.8063
6869  ,5.713e+09   ,2.5  ,-1.7102  ,4.9
6873  ,6.333e+09   ,2.4  ,-1.9073  ,5
6880  ,4.458e+09   ,2.4  ,-0.92182  ,5
6885  ,3.753e+09   ,2.4  ,-0.52764  ,5
6893  ,2.008e+09   ,2.4  ,1.2462  ,5
6914  ,2.748e+09   ,0.7  ,2.5  ,0.1
6920  ,2.571e+09   ,0.9  ,2.4  ,0
6923  ,2.643e+09   ,0.7  ,2.4  ,0
6936  ,1.376e+09   ,2.4  ,-2.5  ,3.4
6939  ,2.638e+09   ,2.3  ,-2.5  ,3.2226
6961  ,6.072e+08   ,-0.1  ,-2.5  ,4.9
6967  ,1.118e+09   ,-2.5  ,-1.5  ,4.9
6975  ,1.966e+09   ,-2.4  ,1.1  ,5
6978  ,1.177e+09   ,-2.4  ,2.5  ,0.2
6987  ,5.164e+09   ,2.4  ,-1.316  ,5
6994  ,9.533e+08   ,2.4  ,-1.5  ,0
7004  ,2.107e+09   ,2.4  ,-2.5  ,3.6
7011  ,1.813e+09   ,2.4  ,0.65491  ,5
7016  ,1.816e+09   ,2.4  ,0.45782  ,5
7019  ,3.036e+09   ,2.5  ,2.4  ,2.1695
7021  ,3.250e+09   ,2.5  ,2.4  ,1.9724
7052  ,1.924e+09   ,-1.3  ,2.5  ,0.1
7054  ,6.300e+08   ,-2.4  ,-2.5  ,0.8
7057  ,7.138e+08   ,0.3  ,-2.5  ,0.1
7065  ,3.997e+09   ,0.24243  ,-2.5  ,0.2
7075  ,2.890e+10   ,2.4888  ,2.4325  ,4.6656
7113  ,9.955e+08   ,-2.4  ,-2.5  ,2.6
7121  ,1.131e+09   ,-2.4  ,-2.5  ,2.8
7126  ,5.536e+09   ,-2.5  ,-2.4  ,2.8
7128  ,8.474e+08   ,-2.4707  ,-2.4707  ,0.1
7129  ,8.007e+08   ,-2.4  ,-2.4707  ,0.029289
7141  ,2.153e+09   ,-1.7  ,-2.4  ,5
7145  ,1.947e+09   ,1.1  ,2.4  ,0
7163  ,1.985e+09   ,-1.7102  ,2.4  ,5
7172  ,3.892e+09   ,2.5  ,-2.4  ,3.2
7174  ,1.993e+09   ,-2.5  ,2.4  ,3.6
7183  ,2.799e+09   ,-1.4531  ,-2.5  ,4.8
7204  ,8.724e+09   ,2.3  ,-0.81068  ,4.8
7220  ,3.026e+09   ,2.5  ,0.063638  ,4.9
7227  ,1.303e+09   ,2.5  ,-1.9  ,0.1
7256  ,3.612e+09   ,-0.1  ,-2.4  ,5
7280  ,3.310e+09   ,-0.33054  ,2.4  ,5
7299  ,4.791e+09   ,2.5  ,-1.1189  ,4.9
7316  ,1.506e+09   ,-2.5  ,-2.4  ,0.8
7323  ,7.008e+08   ,-2.4  ,-2.5  ,1
7396  ,2.528e+09   ,1.1  ,-2.4  ,5
7400  ,2.120e+09   ,-2.5  ,0.7  ,0.1
7409  ,1.647e+09   ,1.3  ,-2.4  ,5
7420  ,1.443e+09   ,2.5  ,2.1  ,0.1
7429  ,1.794e+09   ,2.4  ,1.9  ,0
7436  ,1.133e+09   ,2.5  ,-1.7  ,0.1
7438  ,5.661e+08   ,2.4  ,-2.5  ,2.8
7445  ,1.447e+09   ,2.4325  ,2.1656  ,4.9888
7464  ,7.465e+08   ,2.5  ,-1.5  ,0.1
7480  ,2.204e+09   ,2.5  ,-2.4  ,0.2
7482  ,1.209e+09   ,1.9  ,-2.5  ,0.1
7483  ,1.154e+09   ,1.7  ,-2.5  ,0.1
7486  ,5.247e+09   ,1.9  ,-2.4  ,5
7488  ,4.994e+09   ,1.6937  ,-2.5  ,4.8
7492  ,9.156e+09   ,2.1  ,-2.4  ,5
7495  ,9.344e+08   ,0.1  ,-2.5  ,0.1
7504  ,5.504e+09   ,0.3  ,-2.4  ,0
7507  ,1.177e+09   ,0.9  ,-2.5  ,0.1
7533  ,2.016e+09   ,-2.5  ,0.9  ,0.1
7536  ,6.638e+08   ,-2.4  ,-2.5  ,3.2
7540  ,8.135e+08   ,-2.4  ,-2.5  ,3
7545  ,5.534e+09   ,-2.5  ,-2.4  ,3
7582  ,2.014e+09   ,1.3  ,2.5  ,0.1
7588  ,2.929e+09   ,2.5  ,2.4  ,2.3665
7598  ,2.046e+09   ,-2.5  ,2.4  ,4.2
7607  ,1.858e+09   ,1.5333  ,2.3  ,0.2
7627  ,1.586e+09   ,-2.5  ,1.1  ,4.9
7651  ,9.753e+08   ,2.4  ,-1.9  ,0
7656  ,1.121e+09   ,2.5  ,2.4  ,0.39564
7660  ,8.639e+09   ,2.2299  ,2.3  ,4.7299
7668  ,2.411e+09   ,1.4531  ,-2.5  ,4.8
7676  ,2.203e+08   ,0.1  ,-2.5  ,4.9
7683  ,3.957e+09   ,0.1  ,-2.4  ,5
7686  ,1.023e+09   ,-2.4  ,-1.1  ,5
7702  ,7.938e+08   ,-2.3  ,-2.5  ,4.433
7710  ,1.621e+09   ,-2.3  ,-2.5  ,4.6765
7752  ,3.622e+09   ,0.9  ,-2.4  ,5
7763  ,4.006e+09   ,0.24243  ,-2.5  ,4.8
7767  ,4.903e+09   ,-2.5  ,-2.4  ,3.2
7768  ,9.899e+08   ,-2.4  ,-2.1  ,0
7776  ,2.219e+09   ,-2.4  ,0.9  ,0
7786  ,4.167e+09   ,-0.4838  ,-2.5  ,4.8
7800  ,9.028e+09   ,2.5  ,-2.4  ,4.6
7805  ,7.846e+08   ,-2.5  ,-1.3  ,4.9
7811  ,9.776e+08   ,-2.5  ,-1.1  ,4.9
7820  ,1.501e+09   ,2.5  ,-2.1  ,0.1
7824  ,9.324e+08   ,2.4  ,-2.1  ,0
7828  ,1.813e+09   ,2.4  ,-2.5  ,4.2
7831  ,2.489e+09   ,2.4  ,-2.5  ,4
7838  ,2.966e+09   ,2.5  ,-2.4  ,4.2
7839  ,2.077e+09   ,2.5  ,2.4  ,2.7607
7840  ,2.018e+09   ,2.5  ,2.4  ,2.9578
7863  ,1.359e+09   ,-2.4  ,-1.5  ,0
7890  ,2.398e+09   ,2.4  ,0.9  ,0
7897  ,1.707e+09   ,-2.4  ,-0.7  ,0
7912  ,1.843e+09   ,-1.5  ,-2.4  ,0
7917  ,2.792e+08   ,-1.3  ,-2.5  ,0.1
7931  ,1.520e+09   ,0.5  ,2.4  ,0
7934  ,3.403e+09   ,1.1  ,-2.4  ,0
7937  ,8.930e+08   ,2.4  ,-2.5  ,0.8
7941  ,4.035e+08   ,-2.4  ,-2.5  ,0.6
7969  ,8.412e+08   ,-2.5  ,2.3  ,0.1
7971  ,1.492e+09   ,-2.4  ,1.9  ,0
7972  ,1.963e+09   ,-1.9  ,2.5  ,0.1
7978  ,2.142e+09   ,-2.4  ,1.1  ,0
7996  ,8.533e+08   ,-2.4  ,-0.5  ,5
8000  ,1.599e+09   ,-2.5  ,-2.4  ,0.6
8003  ,1.849e+09   ,-2.5  ,-2.4  ,0.4
8025  ,2.972e+09   ,0.9  ,2.5  ,0.1
8035  ,6.903e+08   ,0.3  ,2.5  ,0.1
8039  ,2.240e+09   ,2.3  ,-2.5  ,0.32348
8041  ,9.967e+08   ,2.3  ,-2.3379  ,0.2
8043  ,1.703e+09   ,2.1765  ,-2.5  ,0.2
8045  ,7.252e+08   ,-0.96359  ,-2.5  ,0.2
8054  ,1.659e+09   ,1.3  ,2.4  ,0
8058  ,2.394e+09   ,1.1  ,2.5  ,0.1
8062  ,2.462e+09   ,-2.5  ,2.4  ,1.4
8067  ,1.968e+09   ,-2.5  ,2.4  ,0.8
8087  ,1.833e+09   ,-2.5  ,1.5  ,0.1
8132  ,2.996e+09   ,-0.13345  ,2.4  ,5
8183  ,7.628e+08   ,2.5  ,-0.9  ,0.1
8184  ,7.546e+08   ,1.6937  ,-2.5  ,0.2
8214  ,1.353e+09   ,-2.4707  ,-2.4  ,4.9707
8217  ,2.766e+09   ,-2.1  ,-2.4  ,5
8219  ,9.550e+08   ,-2.4  ,-2.5  ,4.4
8227  ,1.781e+09   ,2.5  ,2.4  ,3.1549
8242  ,1.364e+09   ,0.7  ,-2.5  ,4.9
8248  ,2.836e+09   ,2.5  ,-2.4  ,3.6
8254  ,9.754e+08   ,2.5  ,-0.3  ,0.1
8256  ,7.234e+08   ,2.5  ,-0.5  ,0.1
8258  ,4.186e+08   ,-0.3  ,-2.5  ,4.9
8263  ,9.351e+08   ,-0.5  ,-2.5  ,4.9
8268  ,2.486e+09   ,-2.3  ,-2.5  ,3.7085
8277  ,8.960e+08   ,-0.1  ,-2.5  ,0.1
8285  ,1.743e+09   ,1.1  ,-2.5  ,4.9
8307  ,9.792e+08   ,0.1  ,2.4  ,0
8308  ,1.027e+09   ,-0.1  ,2.5  ,0.1
8309  ,1.085e+09   ,-0.1  ,2.4  ,0
8313  ,1.383e+09   ,2.5  ,-2.3  ,0.1
8318  ,3.926e+09   ,2.5  ,-2.4  ,3
8338  ,1.823e+09   ,2.5  ,2.4  ,3.352
8339  ,1.947e+09   ,2.4  ,2.5  ,3.1549
8344  ,2.458e+09   ,-2.5  ,2.4  ,3.4
8357  ,1.456e+09   ,2.4888  ,2.1656  ,4.9325
8358  ,2.650e+09   ,2.5  ,2.1998  ,4.8333
8383  ,1.835e+09   ,-1.7  ,-2.4  ,0
8396  ,1.602e+09   ,1.1  ,-2.5  ,0.1
8399  ,1.245e+09   ,2.4526  ,2.1331  ,4.9851
8405  ,1.753e+09   ,2.5  ,-2.4  ,1
8412  ,2.788e+09   ,2.3  ,-2.5  ,0.8063
8417  ,3.044e+09   ,-2.3  ,-2.5  ,2.5
8434  ,1.195e+09   ,0.9636  ,-2.5  ,4.8
8438  ,7.595e+08   ,-0.3  ,-2.5  ,0.1
8452  ,1.694e+09   ,-2.4  ,-0.1  ,5
8468  ,2.121e+09   ,2.5  ,2.4  ,3.7462
8471  ,7.939e+08   ,-1.3  ,-2.5  ,4.9
8493  ,8.920e+08   ,-1.1  ,-2.5  ,4.9
8509  ,1.213e+09   ,-2.5  ,-1.7  ,0.1
8517  ,1.379e+09   ,-2.4  ,2.5  ,3
8531  ,1.630e+09   ,-2.4  ,1.7  ,0
8556  ,2.037e+09   ,2.5  ,2.4  ,3.5491
8573  ,3.619e+09   ,-1.316  ,2.4  ,5
8576  ,2.127e+09   ,-2.4  ,1.3  ,0
8611  ,2.827e+09   ,2.3  ,-2.5  ,1.2915
8618  ,2.137e+09   ,-2.4  ,2.5  ,4
8646  ,2.195e+09   ,-2.5  ,1.1  ,0.1
8656  ,9.470e+08   ,2.5  ,-1.3  ,0.1
8657  ,1.637e+09   ,2.4  ,2.1  ,0
8673  ,2.160e+09   ,-1.3  ,2.4  ,0
8692  ,2.514e+09   ,0.72263  ,-2.5  ,4.8
8696  ,2.717e+09   ,2.3  ,-2.5  ,1.0469
8706  ,1.901e+09   ,2.5  ,0.65491  ,4.9
8721  ,9.082e+08   ,-2.4  ,-2.5  ,1.6
8725  ,1.983e+09   ,0.65491  ,2.4  ,5
8739  ,2.669e+10   ,2.1656  ,2.4325  ,4.9888
8741  ,7.097e+09   ,2.1998  ,2.3333  ,5
8746  ,1.810e+09   ,-2.1  ,-2.4  ,0
8748  ,1.453e+09   ,-2.5  ,-2.4  ,1.2
8752  ,2.555e+10   ,2.1331  ,2.4526  ,4.9851
8759  ,2.139e+09   ,-2.3  ,-2.5  ,1.0469
8787  ,4.497e+09   ,-0.1  ,-2.4  ,0
8793  ,2.473e+09   ,-2.3  ,-2.5  ,2.2576
8795  ,1.116e+09   ,-2.4  ,-2.5  ,2.4
8798  ,6.974e+08   ,-2.3  ,-2.5  ,4.1937
8808  ,1.416e+09   ,-2.3  ,-2.5  ,3.9531
8814  ,9.744e+08   ,-2.4  ,-1.5  ,5
8849  ,3.381e+09   ,0.4838  ,-2.5  ,4.8
8851  ,1.233e+09   ,-2.4  ,-2.5  ,4.2
8868  ,4.297e+08   ,2.4  ,-2.5  ,3
8874  ,1.934e+09   ,0.852  ,2.4  ,5
8883  ,3.029e+09   ,-0.5  ,-2.4  ,5
8886  ,3.508e+09   ,-0.72262  ,-2.5  ,4.8
8893  ,7.528e+08   ,-0.7  ,-2.5  ,4.9
8897  ,3.407e+09   ,-2.5  ,-2.4  ,3.6
8899  ,3.480e+09   ,-2.3  ,-2.5  ,3.4636
8900  ,1.103e+09   ,-2.3  ,-1.4729  ,0.2
8906  ,1.451e+09   ,-2.5  ,-1.3  ,0.1
8910  ,1.871e+09   ,0.852  ,2.5  ,4.9
8925  ,1.902e+09   ,-2.4  ,2.5  ,1.4
8941  ,3.936e+08   ,2.4707  ,2.4  ,0.029289
8942  ,6.954e+08   ,2.5  ,2.3  ,0.1
8945  ,1.878e+09   ,-2.5  ,0.1  ,4.9
8950  ,3.170e+08   ,2.4707  ,2.4707  ,0.1
8951  ,4.112e+08   ,2.4  ,2.4707  ,0.029289
8959  ,1.914e+09   ,2.4  ,0.26073  ,5
8965  ,2.041e+09   ,0.45782  ,2.4  ,5
8978  ,1.298e+09   ,2.4  ,0.852  ,5
8983  ,8.964e+08   ,2.5  ,-1.1  ,0.1
8991  ,1.888e+09   ,-2.5  ,2.4  ,0.6
9008  ,1.658e+09   ,2.5  ,0.852  ,4.9
9011  ,1.860e+09   ,-2.4  ,-0.5  ,0
9025  ,3.667e+08   ,-1.5  ,-2.5  ,0.1
9038  ,9.728e+08   ,2.4  ,-2.5  ,2
9041  ,2.889e+09   ,2.5  ,0.9  ,0.1
9050  ,2.099e+09   ,2.5  ,0.5  ,0.1
9054  ,4.035e+09   ,0.9  ,-2.4  ,0
9060  ,7.211e+08   ,2.4  ,-2.5  ,0.4
9062  ,2.852e+09   ,2.3  ,-2.5  ,0.56701
9064  ,2.741e+09   ,2.5  ,-2.4  ,0.4
9069  ,2.840e+08   ,2.4  ,-2.5  ,0.6
9071  ,1.513e+09   ,1.4531  ,-2.5  ,0.2
9082  ,1.802e+09   ,-2.3  ,-2.5  ,1.2915
9086  ,2.272e+08   ,-2.4  ,-2.5  ,1.4
9091  ,1.016e+09   ,-2.5  ,-2.4  ,1.4
9094  ,1.856e+09   ,1.3  ,-2.5  ,4.9
9097  ,9.462e+08   ,-0.7  ,-2.5  ,0.1
9137  ,9.503e+08   ,-2.5  ,-0.7  ,4.9
9143  ,1.717e+09   ,-2.5  ,-0.1  ,4.9
9146  ,1.782e+09   ,-2.1  ,2.4  ,0
9148  ,1.696e+09   ,-2.5  ,1.7  ,4.9
9173  ,1.585e+09   ,-2.5  ,2.4  ,3
9192  ,2.273e+09   ,-0.7  ,-2.4  ,5
9195  ,3.873e+09   ,0.72263  ,-2.5  ,0.2
9209  ,3.576e+09   ,2.5  ,-2.4  ,3.4
9215  ,3.525e+09   ,0.9636  ,-2.5  ,0.2
9217  ,7.532e+08   ,2.4  ,-2.5  ,3.2
9218  ,3.270e+09   ,-0.96359  ,-2.5  ,4.8
9229  ,9.336e+08   ,-2.4  ,2.5  ,2.8
9248  ,7.249e+09   ,2.3  ,-2.5  ,4.433
9255  ,2.068e+09   ,2.5  ,1.3  ,0.1
9257  ,1.583e+09   ,2.4  ,1.5  ,0
9262  ,4.003e+09   ,0.5  ,-2.4  ,5
9264  ,2.706e+09   ,2.4  ,-0.13345  ,5
9272  ,2.150e+09   ,0.063638  ,2.4  ,5
9277  ,2.278e+09   ,-2.5  ,2.4  ,1.2
9279  ,2.294e+09   ,2.5  ,0.26073  ,4.9
9282  ,6.784e+08   ,1.2085  ,-2.5  ,4.8
9286  ,1.719e+09   ,0.9  ,-2.5  ,4.9
9292  ,4.863e+08   ,-2.4  ,2.4707  ,4.9707
9293  ,5.267e+08   ,-2.3015  ,2.4  ,5
9296  ,1.413e+09   ,-2.4  ,-2.1  ,5
9303  ,1.235e+09   ,-2.4  ,-1.9  ,5
9311  ,6.149e+08   ,-2.4  ,2.3  ,5
9313  ,1.861e+09   ,-2.4  ,0.1  ,5
9319  ,2.965e+09   ,-0.5  ,-2.4  ,0
9328  ,8.799e+08   ,-2.3  ,-2.5  ,1.5364
9334  ,1.361e+09   ,-2.3  ,2.5  ,0.1
9338  ,4.462e+09   ,-2.5  ,-2.4  ,2.4
9339  ,1.956e+09   ,-2.5  ,1.3  ,0.1
9341  ,3.783e+09   ,-2.3  ,-2.5  ,2.7424
9344  ,3.842e+09   ,-2.5  ,-2.4  ,2.2
9358  ,2.859e+09   ,-2.3  ,2.3  ,2.5
9364  ,8.855e+08   ,-2.5  ,-2.1  ,4.9
9367  ,1.535e+09   ,-2.4  ,-2.3  ,5
9374  ,9.015e+08   ,-2.4  ,-1.3  ,5
9378  ,1.183e+09   ,-2.5  ,2.4  ,1.8
9384  ,4.441e+09   ,2.3  ,-2.5  ,2.0162
9385  ,2.043e+09   ,-2.5  ,2.4  ,4.4
9389  ,1.039e+09   ,-2.5  ,2.4  ,2
9395  ,5.297e+09   ,2.4  ,-2.3015  ,5
9396  ,1.202e+09   ,-2.4  ,-1.7  ,0
9407  ,5.122e+08   ,-2.3  ,-1.4729  ,4.8
9411  ,7.794e+08   ,-2.5  ,-1.7  ,4.9
9423  ,1.721e+09   ,-2.4  ,-2.5  ,3.6
9432  ,4.200e+09   ,0.7  ,-2.4  ,5
9438  ,9.443e+08   ,-2.5  ,-0.9  ,4.9
9443  ,1.454e+09   ,-2.5  ,-0.3  ,4.9
9445  ,3.777e+08   ,-2.4707  ,2.4  ,4.9707
9448  ,4.715e+09   ,2.4  ,-1.1189  ,5
9453  ,2.576e+09   ,2.4  ,0.7  ,0
9455  ,3.941e+09   ,2.5  ,-2.4  ,2.6
9457  ,3.223e+09   ,2.3  ,-2.5  ,2.9838
9494  ,1.997e+09   ,-2.4  ,2.5  ,1
9500  ,5.158e+08   ,0.3  ,-2.5  ,4.9
9504  ,4.081e+09   ,0.3  ,-2.4  ,5
9506  ,9.281e+08   ,2.1  ,-2.5  ,0.1
9518  ,5.582e+08   ,-1.9  ,-2.5  ,0.1
9528  ,1.262e+09   ,2.3  ,-2.5  ,0.1
9531  ,2.166e+09   ,2.4707  ,-2.4707  ,0.1
9533  ,1.296e+09   ,2.4707  ,-2.4  ,0.029289
9534  ,1.522e+09   ,2.4  ,-2.4707  ,0.029289
9541  ,5.673e+08   ,0.5  ,-2.5  ,4.9
9544  ,7.769e+08   ,-0.5  ,-2.5  ,0.1
9559  ,8.037e+08   ,-2.5  ,-1.9  ,4.9
9562  ,1.850e+09   ,-2.5  ,2.4  ,4.6
9565  ,9.189e+08   ,-2.4  ,2.5  ,2
9571  ,2.480e+09   ,-2.5  ,-2.4  ,3.8
9574  ,1.631e+09   ,-2.4  ,-2.5  ,3.8
9577  ,1.802e+09   ,1.3  ,-2.5  ,0.1
9582  ,1.574e+09   ,-2.5  ,-0.9  ,0.1
9596  ,1.809e+09   ,2.1  ,2.4  ,0
9598  ,2.509e+09   ,-2.4  ,2.5  ,3.2
9602  ,2.122e+09   ,1.5  ,2.5  ,0.1
9610  ,1.194e+09   ,2.4  ,2.5  ,0.39564
9612  ,4.418e+09   ,-0.72473  ,2.5  ,4.9
9614  ,2.138e+09   ,1.7  ,2.5  ,0.1
9635  ,1.745e+09   ,2.5  ,1.7  ,0.1
9646  ,9.609e+08   ,2.3  ,2.5  ,0.1
9651  ,2.859e+10   ,2.1656  ,2.4888  ,4.9325
9653  ,4.858e+09   ,2.5  ,-1.316  ,4.9
9656  ,1.017e+09   ,-2.4  ,-1.7  ,5
9659  ,9.850e+09   ,2.3  ,-2.5  ,4.6765
9661  ,3.055e+09   ,2.3  ,-2.5  ,3.9531
9664  ,2.202e+09   ,-2.3  ,-2.4  ,5
9666  ,1.485e+09   ,1.9  ,-2.4  ,0
9677  ,2.261e+09   ,2.4  ,0.5  ,0
9678  ,1.489e+09   ,-2.5  ,-1.1  ,0.1
9680  ,3.494e+09   ,2.5  ,2.4  ,1.184
9681  ,5.513e+08   ,2.5  ,2.4  ,0.19855
9696  ,1.754e+09   ,-2.3  ,-2.5  ,2.0162
9698  ,1.156e+09   ,2.4  ,-2.3  ,0
9699  ,2.479e+09   ,-0.24243  ,-2.5  ,0.2
9701  ,5.067e+09   ,0.1  ,-2.4  ,0
9704  ,1.758e+09   ,-0.4838  ,-2.5  ,0.2
9718  ,9.354e+08   ,-0.72262  ,-2.5  ,0.2
9726  ,1.718e+09   ,2.3  ,-0.76628  ,0.2
9727  ,1.792e+09   ,-2.5  ,2.4  ,0.4
9730  ,4.445e+09   ,1.9433E-06  ,-2.5  ,4.8
9731  ,4.495e+09   ,-0.24243  ,-2.5  ,4.8
9732  ,1.054e+09   ,-2.5  ,2.4  ,2.2
9738  ,1.507e+09   ,-2.5  ,-2.4  ,4
9743  ,2.627e+09   ,-1.6937  ,-2.5  ,4.8
9744  ,1.522e+09   ,-2.4  ,-2.5  ,4
9750  ,6.132e+08   ,-1.7  ,-2.5  ,0.1
9752  ,2.100e+09   ,-1.6937  ,-2.5  ,0.2
9754  ,1.550e+09   ,-1.3  ,-2.4  ,0
9759  ,5.232e+08   ,-2.4707  ,2.4  ,0.029289
9760  ,6.151e+08   ,-2.4  ,2.4707  ,0.029289
9768  ,5.276e+09   ,2.3  ,-2.5  ,4.1937
9770  ,3.277e+09   ,1.9433E-06  ,-2.5  ,0.2
9771  ,4.272e+09   ,0.4838  ,-2.5  ,0.2
9772  ,1.482e+09   ,2.4  ,-2.5  ,0.2
9773  ,2.564e+09   ,2.4  ,-2.5  ,4.6
9776  ,2.488e+09   ,2.4  ,0.063638  ,5
9780  ,1.984e+09   ,0.65491  ,2.5  ,4.9
9781  ,5.695e+08   ,2.4  ,2.5  ,0.19855
9782  ,4.113e+09   ,-2.3  ,-2.5  ,2.9838
9786  ,1.569e+09   ,-1.2085  ,-2.5  ,0.2
9787  ,2.056e+09   ,-1.4531  ,-2.5  ,0.2
9790  ,1.885e+09   ,2.3  ,-2.4  ,0
9793  ,8.495e+09   ,2.0345  ,2.4  ,5
9797  ,3.080e+09   ,2.3  ,-2.5  ,1.5364
9798  ,1.622e+09   ,2.4  ,1.0491  ,5
9809  ,1.570e+09   ,2.4  ,2.5  ,3.352
