Date:  12:43, Monday, July 10, 2023
Model name: Hollow_DropBox
Study name: DropTest_300fts(-Default-)
Plot type:  Stress1
Plot step: 1   time : 5.23121 Microseconds
Result Type: von Mises 


Node  ,Value (N/m^2)  ,X (in)  ,Y (in)  ,Z (in)
1  ,3.445e+09   ,2.5  ,2.1331  ,4.9
2  ,1.768e+10   ,2.4577  ,2.1908  ,4.9577
3  ,5.244e+09   ,2.4894  ,2.1331  ,4.9447
4  ,3.292e+09   ,2.1331  ,2.5  ,4.9
5  ,4.877e+09   ,2.1331  ,2.4894  ,4.9447
6  ,1.637e+10   ,2.1908  ,2.4577  ,4.9577
7  ,3.467e+05   ,-2.4  ,2.4  ,5
8  ,1.237e+01   ,-2.4  ,-2.4  ,5
9  ,9.840e+02   ,2.4  ,-2.4  ,5
10  ,3.082e+09   ,2.4  ,2.1331  ,5
11  ,3.621e+09   ,2.1331  ,2.4  ,5
12  ,1.217e+03   ,2.5  ,-2.4  ,4.9
13  ,9.745e+00   ,2.5  ,-2.4  ,0.1
14  ,3.457e+05   ,2.5  ,2.4  ,0.1
15  ,4.019e+09   ,2.5  ,2.4  ,4.6331
16  ,3.114e+05   ,2.4  ,2.5  ,0.1
17  ,2.124e+04   ,-2.4  ,2.5  ,0.1
18  ,3.769e+05   ,-2.4  ,2.5  ,4.9
19  ,4.023e+09   ,2.4  ,2.5  ,4.6331
20  ,1.679e+04   ,-2.5  ,2.4  ,0.1
21  ,9.923e-04   ,-2.5  ,-2.4  ,0.1
22  ,6.216e+00   ,-2.5  ,-2.4  ,4.9
23  ,2.819e+05   ,-2.5  ,2.4  ,4.9
24  ,7.522e-04   ,-2.3  ,-2.5  ,0.2
25  ,5.129e+00   ,-2.3  ,-2.5  ,4.8
26  ,1.039e+03   ,2.3  ,-2.5  ,4.8
27  ,8.731e+00   ,2.3  ,-2.5  ,0.2
28  ,2.302e+00   ,-2.4  ,-2.5  ,4.9
29  ,6.224e+02   ,2.4  ,-2.5  ,4.9
30  ,2.023e-04   ,-2.4  ,-2.5  ,0.1
31  ,6.100e+00   ,2.4  ,-2.5  ,0.1
32  ,6.629e+00   ,2.4  ,-2.4  ,0
33  ,2.305e+05   ,2.4  ,2.4  ,0
34  ,1.076e-03   ,-2.4  ,-2.4  ,0
35  ,1.427e+04   ,-2.4  ,2.4  ,0
36  ,1.526e+10   ,2.4577  ,2.4577  ,4.6908
37  ,6.738e+05   ,-2.3  ,2.3  ,4.8
38  ,5.104e+09   ,2.1599  ,2.3  ,4.8
39  ,4.951e+09   ,2.3  ,2.1599  ,4.8
40  ,4.775e+09   ,2.3  ,2.3  ,4.6599
41  ,6.019e+05   ,2.3  ,2.3  ,0.2
42  ,2.355e+04   ,-2.3  ,2.3  ,0.2
43  ,3.380e+05   ,-2.4  ,2.2  ,5
44  ,4.529e+05   ,-2.4  ,2  ,5
45  ,4.396e+05   ,-2.4  ,1.8  ,5
46  ,4.882e+05   ,-2.4  ,1.6  ,5
47  ,4.369e+05   ,-2.4  ,1.4  ,5
48  ,4.959e+05   ,-2.4  ,1.2  ,5
49  ,4.863e+05   ,-2.4  ,1  ,5
50  ,2.825e+05   ,-2.4  ,0.8  ,5
51  ,1.575e+05   ,-2.4  ,0.6  ,5
52  ,1.514e+05   ,-2.4  ,0.4  ,5
53  ,1.159e+05   ,-2.4  ,0.2  ,5
54  ,1.467e+05   ,-2.4  ,5.8879E-16  ,5
55  ,2.058e+05   ,-2.4  ,-0.2  ,5
56  ,1.593e+05   ,-2.4  ,-0.4  ,5
57  ,4.479e+04   ,-2.4  ,-0.6  ,5
58  ,3.585e+04   ,-2.4  ,-0.8  ,5
59  ,2.073e+04   ,-2.4  ,-1  ,5
60  ,2.248e+04   ,-2.4  ,-1.2  ,5
61  ,7.644e+03   ,-2.4  ,-1.4  ,5
62  ,3.189e+03   ,-2.4  ,-1.6  ,5
63  ,1.214e+03   ,-2.4  ,-1.8  ,5
64  ,1.630e+02   ,-2.4  ,-2  ,5
65  ,3.599e+01   ,-2.4  ,-2.2  ,5
66  ,2.329e+01   ,-2.2  ,-2.4  ,5
67  ,3.524e+01   ,-2  ,-2.4  ,5
68  ,7.039e+01   ,-1.8  ,-2.4  ,5
69  ,5.725e+01   ,-1.6  ,-2.4  ,5
70  ,4.222e+01   ,-1.4  ,-2.4  ,5
71  ,6.071e+01   ,-1.2  ,-2.4  ,5
72  ,1.589e+01   ,-1  ,-2.4  ,5
73  ,2.921e+01   ,-0.8  ,-2.4  ,5
74  ,2.812e+02   ,-0.6  ,-2.4  ,5
75  ,1.873e+02   ,-0.4  ,-2.4  ,5
76  ,2.738e+02   ,-0.2  ,-2.4  ,5
77  ,3.058e+02   ,-5.8879E-16  ,-2.4  ,5
78  ,2.714e+02   ,0.2  ,-2.4  ,5
79  ,5.432e+02   ,0.4  ,-2.4  ,5
80  ,3.317e+02   ,0.6  ,-2.4  ,5
81  ,2.745e+02   ,0.8  ,-2.4  ,5
82  ,6.599e+02   ,1  ,-2.4  ,5
83  ,5.034e+02   ,1.2  ,-2.4  ,5
84  ,4.466e+02   ,1.4  ,-2.4  ,5
85  ,9.246e+02   ,1.6  ,-2.4  ,5
86  ,2.639e+03   ,1.8  ,-2.4  ,5
87  ,3.919e+03   ,2  ,-2.4  ,5
88  ,9.403e+02   ,2.2  ,-2.4  ,5
89  ,3.434e+03   ,2.4  ,-2.2029  ,5
90  ,1.635e+04   ,2.4  ,-2.0058  ,5
91  ,8.487e+04   ,2.4  ,-1.8087  ,5
92  ,2.174e+05   ,2.4  ,-1.6116  ,5
93  ,5.369e+05   ,2.4  ,-1.4145  ,5
94  ,2.558e+06   ,2.4  ,-1.2175  ,5
95  ,2.323e+06   ,2.4  ,-1.0204  ,5
96  ,5.782e+06   ,2.4  ,-0.82327  ,5
97  ,6.383e+06   ,2.4  ,-0.62618  ,5
98  ,3.040e+07   ,2.4  ,-0.42909  ,5
99  ,3.285e+07   ,2.4  ,-0.232  ,5
100  ,3.775e+07   ,2.4  ,-0.034907  ,5
101  ,5.021e+07   ,2.4  ,0.16218  ,5
102  ,7.942e+07   ,2.4  ,0.35927  ,5
103  ,1.755e+08   ,2.4  ,0.55637  ,5
104  ,3.189e+08   ,2.4  ,0.75346  ,5
105  ,4.034e+08   ,2.4  ,0.95055  ,5
106  ,3.372e+08   ,2.4  ,1.1476  ,5
107  ,3.941e+08   ,2.4  ,1.3447  ,5
108  ,5.501e+08   ,2.4  ,1.5418  ,5
109  ,1.159e+09   ,2.4  ,1.7389  ,5
110  ,2.144e+09   ,2.4  ,1.936  ,5
111  ,3.990e+09   ,2.2665  ,2.2665  ,5
112  ,2.173e+09   ,1.936  ,2.4  ,5
113  ,1.242e+09   ,1.7389  ,2.4  ,5
114  ,6.832e+08   ,1.5418  ,2.4  ,5
115  ,2.703e+08   ,1.3447  ,2.4  ,5
116  ,3.043e+08   ,1.1476  ,2.4  ,5
117  ,4.506e+08   ,0.95055  ,2.4  ,5
118  ,2.941e+08   ,0.75346  ,2.4  ,5
119  ,1.117e+08   ,0.55637  ,2.4  ,5
120  ,5.244e+07   ,0.35927  ,2.4  ,5
121  ,3.449e+07   ,0.16218  ,2.4  ,5
122  ,2.215e+07   ,-0.034907  ,2.4  ,5
123  ,1.823e+07   ,-0.232  ,2.4  ,5
124  ,2.246e+07   ,-0.42909  ,2.4  ,5
125  ,1.720e+07   ,-0.62618  ,2.4  ,5
126  ,1.314e+07   ,-0.82327  ,2.4  ,5
127  ,4.198e+06   ,-1.0204  ,2.4  ,5
128  ,1.131e+06   ,-1.2175  ,2.4  ,5
129  ,9.263e+05   ,-1.4145  ,2.4  ,5
130  ,7.132e+05   ,-1.6116  ,2.4  ,5
131  ,7.253e+05   ,-1.8087  ,2.4  ,5
132  ,5.626e+05   ,-2.0058  ,2.4  ,5
133  ,5.802e+05   ,-2.2029  ,2.4  ,5
294  ,4.098e+03   ,2.5  ,-2.2029  ,4.9
295  ,1.553e+04   ,2.5  ,-2.0058  ,4.9
296  ,7.373e+04   ,2.5  ,-1.8087  ,4.9
297  ,1.728e+05   ,2.5  ,-1.6116  ,4.9
298  ,6.022e+05   ,2.5  ,-1.4145  ,4.9
299  ,2.173e+06   ,2.5  ,-1.2175  ,4.9
300  ,3.004e+06   ,2.5  ,-1.0204  ,4.9
301  ,4.805e+06   ,2.5  ,-0.82327  ,4.9
302  ,8.863e+06   ,2.5  ,-0.62618  ,4.9
303  ,2.691e+07   ,2.5  ,-0.42909  ,4.9
304  ,3.528e+07   ,2.5  ,-0.232  ,4.9
305  ,3.472e+07   ,2.5  ,-0.034907  ,4.9
306  ,4.090e+07   ,2.5  ,0.16218  ,4.9
307  ,8.090e+07   ,2.5  ,0.35927  ,4.9
308  ,1.894e+08   ,2.5  ,0.55637  ,4.9
309  ,3.123e+08   ,2.5  ,0.75346  ,4.9
310  ,5.375e+08   ,2.5  ,0.95055  ,4.9
311  ,3.684e+08   ,2.5  ,1.1476  ,4.9
312  ,3.956e+08   ,2.5  ,1.3447  ,4.9
313  ,6.801e+08   ,2.5  ,1.5418  ,4.9
314  ,1.500e+09   ,2.5  ,1.7389  ,4.9
315  ,2.415e+09   ,2.5  ,1.936  ,4.9
316  ,1.078e+03   ,2.5  ,-2.4  ,4.7
317  ,3.707e+03   ,2.5  ,-2.4  ,4.5
318  ,1.985e+03   ,2.5  ,-2.4  ,4.3
319  ,1.231e+03   ,2.5  ,-2.4  ,4.1
320  ,1.252e+03   ,2.5  ,-2.4  ,3.9
321  ,1.450e+03   ,2.5  ,-2.4  ,3.7
322  ,3.108e+02   ,2.5  ,-2.4  ,3.5
323  ,4.340e+02   ,2.5  ,-2.4  ,3.3
324  ,1.401e+02   ,2.5  ,-2.4  ,3.1
325  ,5.291e+02   ,2.5  ,-2.4  ,2.9
326  ,2.994e+02   ,2.5  ,-2.4  ,2.7
327  ,6.860e+02   ,2.5  ,-2.4  ,2.5
328  ,1.492e+02   ,2.5  ,-2.4  ,2.3
329  ,1.763e+02   ,2.5  ,-2.4  ,2.1
330  ,1.743e+02   ,2.5  ,-2.4  ,1.9
331  ,2.721e+01   ,2.5  ,-2.4  ,1.7
332  ,4.706e+01   ,2.5  ,-2.4  ,1.5
333  ,3.402e+01   ,2.5  ,-2.4  ,1.3
334  ,2.883e+01   ,2.5  ,-2.4  ,1.1
335  ,4.854e+01   ,2.5  ,-2.4  ,0.9
336  ,6.575e+01   ,2.5  ,-2.4  ,0.7
337  ,7.007e+01   ,2.5  ,-2.4  ,0.5
338  ,3.264e+01   ,2.5  ,-2.4  ,0.3
339  ,7.299e+01   ,2.5  ,-2.2  ,0.1
340  ,3.167e+02   ,2.5  ,-2  ,0.1
341  ,1.859e+03   ,2.5  ,-1.8  ,0.1
342  ,4.221e+03   ,2.5  ,-1.6  ,0.1
343  ,4.675e+03   ,2.5  ,-1.4  ,0.1
344  ,2.442e+04   ,2.5  ,-1.2  ,0.1
345  ,4.734e+04   ,2.5  ,-1  ,0.1
346  ,6.579e+04   ,2.5  ,-0.8  ,0.1
347  ,1.309e+05   ,2.5  ,-0.6  ,0.1
348  ,3.744e+05   ,2.5  ,-0.4  ,0.1
349  ,2.657e+05   ,2.5  ,-0.2  ,0.1
350  ,4.981e+05   ,2.5  ,-1.7664E-15  ,0.1
351  ,5.097e+05   ,2.5  ,0.2  ,0.1
352  ,6.606e+05   ,2.5  ,0.4  ,0.1
353  ,1.271e+06   ,2.5  ,0.6  ,0.1
354  ,2.386e+06   ,2.5  ,0.8  ,0.1
355  ,1.694e+06   ,2.5  ,1  ,0.1
356  ,1.245e+06   ,2.5  ,1.2  ,0.1
357  ,9.758e+05   ,2.5  ,1.4  ,0.1
358  ,7.043e+05   ,2.5  ,1.6  ,0.1
359  ,3.447e+05   ,2.5  ,1.8  ,0.1
360  ,3.611e+05   ,2.5  ,2  ,0.1
361  ,7.100e+05   ,2.5  ,2.2  ,0.1
362  ,2.355e+09   ,2.5  ,2.4  ,4.436
363  ,1.586e+09   ,2.5  ,2.4  ,4.2389
364  ,6.669e+08   ,2.5  ,2.4  ,4.0418
365  ,3.040e+08   ,2.5  ,2.4  ,3.8447
366  ,2.817e+08   ,2.5  ,2.4  ,3.6476
367  ,4.633e+08   ,2.5  ,2.4  ,3.4505
368  ,3.099e+08   ,2.5  ,2.4  ,3.2535
369  ,1.432e+08   ,2.5  ,2.4  ,3.0564
370  ,7.003e+07   ,2.5  ,2.4  ,2.8593
371  ,4.137e+07   ,2.5  ,2.4  ,2.6622
372  ,2.275e+07   ,2.5  ,2.4  ,2.4651
373  ,1.487e+07   ,2.5  ,2.4  ,2.268
374  ,2.190e+07   ,2.5  ,2.4  ,2.0709
375  ,2.349e+07   ,2.5  ,2.4  ,1.8738
376  ,1.334e+07   ,2.5  ,2.4  ,1.6767
377  ,5.915e+06   ,2.5  ,2.4  ,1.4796
378  ,3.018e+06   ,2.5  ,2.4  ,1.2825
379  ,1.586e+06   ,2.5  ,2.4  ,1.0855
380  ,7.863e+05   ,2.5  ,2.4  ,0.88836
381  ,8.297e+05   ,2.5  ,2.4  ,0.69127
382  ,8.684e+05   ,2.5  ,2.4  ,0.49418
383  ,5.618e+05   ,2.5  ,2.4  ,0.29709
384  ,3.815e+09   ,2.5  ,2.2665  ,4.7665
544  ,8.129e+05   ,2.2  ,2.5  ,0.1
545  ,9.493e+05   ,2  ,2.5  ,0.1
546  ,7.290e+05   ,1.8  ,2.5  ,0.1
547  ,4.611e+05   ,1.6  ,2.5  ,0.1
548  ,8.287e+05   ,1.4  ,2.5  ,0.1
549  ,1.270e+06   ,1.2  ,2.5  ,0.1
550  ,1.963e+06   ,1  ,2.5  ,0.1
551  ,2.381e+06   ,0.8  ,2.5  ,0.1
552  ,1.378e+06   ,0.6  ,2.5  ,0.1
553  ,8.061e+05   ,0.4  ,2.5  ,0.1
554  ,5.922e+05   ,0.2  ,2.5  ,0.1
555  ,2.601e+05   ,5.8879E-16  ,2.5  ,0.1
556  ,2.671e+05   ,-0.2  ,2.5  ,0.1
557  ,2.586e+05   ,-0.4  ,2.5  ,0.1
558  ,3.471e+05   ,-0.6  ,2.5  ,0.1
559  ,3.302e+05   ,-0.8  ,2.5  ,0.1
560  ,2.006e+05   ,-1  ,2.5  ,0.1
561  ,1.359e+05   ,-1.2  ,2.5  ,0.1
562  ,5.842e+04   ,-1.4  ,2.5  ,0.1
563  ,2.584e+04   ,-1.6  ,2.5  ,0.1
564  ,2.829e+04   ,-1.8  ,2.5  ,0.1
565  ,3.895e+04   ,-2  ,2.5  ,0.1
566  ,4.406e+04   ,-2.2  ,2.5  ,0.1
567  ,4.404e+05   ,-2.4  ,2.5  ,4.7
568  ,3.320e+05   ,-2.4  ,2.5  ,4.5
569  ,3.150e+05   ,-2.4  ,2.5  ,4.3
570  ,5.785e+05   ,-2.4  ,2.5  ,4.1
571  ,1.265e+06   ,-2.4  ,2.5  ,3.9
572  ,1.517e+06   ,-2.4  ,2.5  ,3.7
573  ,1.660e+06   ,-2.4  ,2.5  ,3.5
574  ,1.831e+06   ,-2.4  ,2.5  ,3.3
575  ,1.071e+06   ,-2.4  ,2.5  ,3.1
576  ,9.432e+05   ,-2.4  ,2.5  ,2.9
577  ,4.053e+05   ,-2.4  ,2.5  ,2.7
578  ,2.830e+05   ,-2.4  ,2.5  ,2.5
579  ,3.049e+05   ,-2.4  ,2.5  ,2.3
580  ,2.781e+05   ,-2.4  ,2.5  ,2.1
581  ,2.183e+05   ,-2.4  ,2.5  ,1.9
582  ,2.088e+05   ,-2.4  ,2.5  ,1.7
583  ,1.202e+05   ,-2.4  ,2.5  ,1.5
584  ,7.370e+04   ,-2.4  ,2.5  ,1.3
585  ,3.597e+04   ,-2.4  ,2.5  ,1.1
586  ,1.939e+04   ,-2.4  ,2.5  ,0.9
587  ,1.866e+04   ,-2.4  ,2.5  ,0.7
588  ,2.147e+04   ,-2.4  ,2.5  ,0.5
589  ,3.915e+04   ,-2.4  ,2.5  ,0.3
590  ,2.517e+09   ,1.936  ,2.5  ,4.9
591  ,1.087e+09   ,1.7389  ,2.5  ,4.9
592  ,4.464e+08   ,1.5418  ,2.5  ,4.9
593  ,4.897e+08   ,1.3447  ,2.5  ,4.9
594  ,2.858e+08   ,1.1476  ,2.5  ,4.9
595  ,3.755e+08   ,0.95055  ,2.5  ,4.9
596  ,2.909e+08   ,0.75346  ,2.5  ,4.9
597  ,1.423e+08   ,0.55637  ,2.5  ,4.9
598  ,4.815e+07   ,0.35927  ,2.5  ,4.9
599  ,2.775e+07   ,0.16218  ,2.5  ,4.9
600  ,2.340e+07   ,-0.034907  ,2.5  ,4.9
601  ,2.152e+07   ,-0.232  ,2.5  ,4.9
602  ,2.459e+07   ,-0.42909  ,2.5  ,4.9
603  ,2.179e+07   ,-0.62618  ,2.5  ,4.9
604  ,1.417e+07   ,-0.82327  ,2.5  ,4.9
605  ,4.210e+06   ,-1.0204  ,2.5  ,4.9
606  ,1.750e+06   ,-1.2175  ,2.5  ,4.9
607  ,9.327e+05   ,-1.4145  ,2.5  ,4.9
608  ,7.259e+05   ,-1.6116  ,2.5  ,4.9
609  ,8.270e+05   ,-1.8087  ,2.5  ,4.9
610  ,6.354e+05   ,-2.0058  ,2.5  ,4.9
611  ,4.822e+05   ,-2.2029  ,2.5  ,4.9
612  ,3.895e+09   ,2.2665  ,2.5  ,4.7665
613  ,2.226e+09   ,2.4  ,2.5  ,4.436
614  ,1.102e+09   ,2.4  ,2.5  ,4.2389
615  ,4.721e+08   ,2.4  ,2.5  ,4.0418
616  ,4.217e+08   ,2.4  ,2.5  ,3.8447
617  ,3.514e+08   ,2.4  ,2.5  ,3.6476
618  ,5.607e+08   ,2.4  ,2.5  ,3.4505
619  ,2.658e+08   ,2.4  ,2.5  ,3.2535
620  ,1.675e+08   ,2.4  ,2.5  ,3.0564
621  ,6.250e+07   ,2.4  ,2.5  ,2.8593
622  ,3.924e+07   ,2.4  ,2.5  ,2.6622
623  ,1.962e+07   ,2.4  ,2.5  ,2.4651
624  ,1.754e+07   ,2.4  ,2.5  ,2.268
625  ,1.899e+07   ,2.4  ,2.5  ,2.0709
626  ,2.273e+07   ,2.4  ,2.5  ,1.8738
627  ,1.478e+07   ,2.4  ,2.5  ,1.6767
628  ,7.076e+06   ,2.4  ,2.5  ,1.4796
629  ,3.835e+06   ,2.4  ,2.5  ,1.2825
630  ,1.886e+06   ,2.4  ,2.5  ,1.0855
631  ,7.903e+05   ,2.4  ,2.5  ,0.88836
632  ,5.032e+05   ,2.4  ,2.5  ,0.69127
633  ,6.886e+05   ,2.4  ,2.5  ,0.49418
634  ,6.960e+05   ,2.4  ,2.5  ,0.29709
796  ,1.419e+04   ,-2.5  ,2.2  ,0.1
797  ,9.037e+03   ,-2.5  ,2  ,0.1
798  ,2.917e+03   ,-2.5  ,1.8  ,0.1
799  ,1.803e+03   ,-2.5  ,1.6  ,0.1
800  ,2.071e+03   ,-2.5  ,1.4  ,0.1
801  ,2.174e+03   ,-2.5  ,1.2  ,0.1
802  ,1.532e+03   ,-2.5  ,1  ,0.1
803  ,1.692e+03   ,-2.5  ,0.8  ,0.1
804  ,1.215e+03   ,-2.5  ,0.6  ,0.1
805  ,1.130e+03   ,-2.5  ,0.4  ,0.1
806  ,3.182e+02   ,-2.5  ,0.2  ,0.1
807  ,8.680e+01   ,-2.5  ,5.8879E-16  ,0.1
808  ,1.089e+02   ,-2.5  ,-0.2  ,0.1
809  ,1.373e+02   ,-2.5  ,-0.4  ,0.1
810  ,8.013e+01   ,-2.5  ,-0.6  ,0.1
811  ,6.968e+00   ,-2.5  ,-0.8  ,0.1
812  ,6.838e+00   ,-2.5  ,-1  ,0.1
813  ,3.794e+00   ,-2.5  ,-1.2  ,0.1
814  ,2.013e+00   ,-2.5  ,-1.4  ,0.1
815  ,1.114e-01   ,-2.5  ,-1.6  ,0.1
816  ,1.086e-01   ,-2.5  ,-1.8  ,0.1
817  ,6.145e-02   ,-2.5  ,-2  ,0.1
818  ,2.566e-03   ,-2.5  ,-2.2  ,0.1
819  ,6.860e+00   ,-2.5  ,-2.4  ,4.7
820  ,4.014e+00   ,-2.5  ,-2.4  ,4.5
821  ,9.123e-01   ,-2.5  ,-2.4  ,4.3
822  ,1.306e+00   ,-2.5  ,-2.4  ,4.1
823  ,8.382e-01   ,-2.5  ,-2.4  ,3.9
824  ,3.738e-01   ,-2.5  ,-2.4  ,3.7
825  ,1.177e-01   ,-2.5  ,-2.4  ,3.5
826  ,1.263e-01   ,-2.5  ,-2.4  ,3.3
827  ,8.235e-02   ,-2.5  ,-2.4  ,3.1
828  ,5.853e-02   ,-2.5  ,-2.4  ,2.9
829  ,2.362e-02   ,-2.5  ,-2.4  ,2.7
830  ,7.888e-03   ,-2.5  ,-2.4  ,2.5
831  ,9.141e-03   ,-2.5  ,-2.4  ,2.3
832  ,4.824e-03   ,-2.5  ,-2.4  ,2.1
833  ,3.686e-03   ,-2.5  ,-2.4  ,1.9
834  ,3.917e-03   ,-2.5  ,-2.4  ,1.7
835  ,1.829e-03   ,-2.5  ,-2.4  ,1.5
836  ,2.290e-03   ,-2.5  ,-2.4  ,1.3
837  ,1.008e-03   ,-2.5  ,-2.4  ,1.1
838  ,8.824e-04   ,-2.5  ,-2.4  ,0.9
839  ,2.433e-03   ,-2.5  ,-2.4  ,0.7
840  ,6.985e-03   ,-2.5  ,-2.4  ,0.5
841  ,1.121e-03   ,-2.5  ,-2.4  ,0.3
842  ,2.288e+05   ,-2.5  ,2.2  ,4.9
843  ,1.960e+05   ,-2.5  ,2  ,4.9
844  ,9.786e+04   ,-2.5  ,1.8  ,4.9
845  ,1.329e+05   ,-2.5  ,1.6  ,4.9
846  ,9.672e+04   ,-2.5  ,1.4  ,4.9
847  ,8.020e+04   ,-2.5  ,1.2  ,4.9
848  ,1.966e+05   ,-2.5  ,1  ,4.9
849  ,2.218e+05   ,-2.5  ,0.8  ,4.9
850  ,1.903e+05   ,-2.5  ,0.6  ,4.9
851  ,8.681e+04   ,-2.5  ,0.4  ,4.9
852  ,4.786e+04   ,-2.5  ,0.2  ,4.9
853  ,7.960e+04   ,-2.5  ,5.8879E-16  ,4.9
854  ,1.245e+05   ,-2.5  ,-0.2  ,4.9
855  ,1.338e+05   ,-2.5  ,-0.4  ,4.9
856  ,6.812e+04   ,-2.5  ,-0.6  ,4.9
857  ,2.137e+04   ,-2.5  ,-0.8  ,4.9
858  ,2.392e+04   ,-2.5  ,-1  ,4.9
859  ,1.772e+04   ,-2.5  ,-1.2  ,4.9
860  ,6.298e+03   ,-2.5  ,-1.4  ,4.9
861  ,2.323e+03   ,-2.5  ,-1.6  ,4.9
862  ,8.713e+02   ,-2.5  ,-1.8  ,4.9
863  ,2.737e+02   ,-2.5  ,-2  ,4.9
864  ,4.007e+01   ,-2.5  ,-2.2  ,4.9
865  ,2.628e+05   ,-2.5  ,2.4  ,4.7
866  ,1.853e+05   ,-2.5  ,2.4  ,4.5
867  ,2.644e+05   ,-2.5  ,2.4  ,4.3
868  ,7.470e+05   ,-2.5  ,2.4  ,4.1
869  ,7.459e+05   ,-2.5  ,2.4  ,3.9
870  ,8.450e+05   ,-2.5  ,2.4  ,3.7
871  ,8.758e+05   ,-2.5  ,2.4  ,3.5
872  ,1.118e+06   ,-2.5  ,2.4  ,3.3
873  ,9.922e+05   ,-2.5  ,2.4  ,3.1
874  ,6.189e+05   ,-2.5  ,2.4  ,2.9
875  ,8.926e+04   ,-2.5  ,2.4  ,2.7
876  ,1.263e+05   ,-2.5  ,2.4  ,2.5
877  ,2.120e+05   ,-2.5  ,2.4  ,2.3
878  ,1.625e+05   ,-2.5  ,2.4  ,2.1
879  ,1.491e+05   ,-2.5  ,2.4  ,1.9
880  ,1.650e+05   ,-2.5  ,2.4  ,1.7
881  ,9.596e+04   ,-2.5  ,2.4  ,1.5
882  ,1.517e+04   ,-2.5  ,2.4  ,1.3
883  ,2.162e+04   ,-2.5  ,2.4  ,1.1
884  ,1.667e+04   ,-2.5  ,2.4  ,0.9
885  ,1.391e+04   ,-2.5  ,2.4  ,0.7
886  ,1.559e+04   ,-2.5  ,2.4  ,0.5
887  ,3.330e+04   ,-2.5  ,2.4  ,0.3
1044  ,6.208e-03   ,-2.3  ,-2.5  ,0.44697
1045  ,1.091e-02   ,-2.3  ,-2.5  ,0.68705
1046  ,5.697e-04   ,-2.3  ,-2.5  ,0.92554
1047  ,6.059e-04   ,-2.3  ,-2.5  ,1.1682
1048  ,1.712e-03   ,-2.3  ,-2.5  ,1.4148
1049  ,2.405e-03   ,-2.3  ,-2.5  ,1.6581
1050  ,2.360e-03   ,-2.3  ,-2.5  ,1.8967
1051  ,8.885e-04   ,-2.3  ,-2.5  ,2.1357
1052  ,9.518e-03   ,-2.3  ,-2.5  ,2.3794
1053  ,8.735e-03   ,-2.3  ,-2.5  ,2.6206
1054  ,2.994e-02   ,-2.3  ,-2.5  ,2.8643
1055  ,4.946e-02   ,-2.3  ,-2.5  ,3.1033
1056  ,5.208e-02   ,-2.3  ,-2.5  ,3.342
1057  ,2.555e-01   ,-2.3  ,-2.5  ,3.5852
1058  ,3.251e-01   ,-2.3  ,-2.5  ,3.8318
1059  ,6.767e-01   ,-2.3  ,-2.5  ,4.0745
1060  ,7.041e-01   ,-2.3  ,-2.5  ,4.3129
1061  ,5.881e+00   ,-2.3  ,-2.5  ,4.553
1062  ,2.710e+01   ,-2.053  ,-2.5  ,4.8
1063  ,5.982e+01   ,-1.8129  ,-2.5  ,4.8
1064  ,1.932e+01   ,-1.5745  ,-2.5  ,4.8
1065  ,2.969e+01   ,-1.3318  ,-2.5  ,4.8
1066  ,1.206e+01   ,-1.0852  ,-2.5  ,4.8
1067  ,2.983e+01   ,-0.84195  ,-2.5  ,4.8
1068  ,1.877e+02   ,-0.60329  ,-2.5  ,4.8
1069  ,1.943e+02   ,-0.3643  ,-2.5  ,4.8
1070  ,1.798e+02   ,-0.12055  ,-2.5  ,4.8
1071  ,1.869e+02   ,0.12056  ,-2.5  ,4.8
1072  ,1.434e+02   ,0.3643  ,-2.5  ,4.8
1073  ,1.223e+02   ,0.6033  ,-2.5  ,4.8
1074  ,5.122e+01   ,0.84195  ,-2.5  ,4.8
1075  ,6.806e+02   ,1.0852  ,-2.5  ,4.8
1076  ,5.539e+02   ,1.3318  ,-2.5  ,4.8
1077  ,7.719e+02   ,1.5745  ,-2.5  ,4.8
1078  ,3.703e+03   ,1.8129  ,-2.5  ,4.8
1079  ,2.649e+03   ,2.053  ,-2.5  ,4.8
1080  ,2.595e+03   ,2.3  ,-2.5  ,4.553
1081  ,4.879e+03   ,2.3  ,-2.5  ,4.3129
1082  ,8.743e+02   ,2.3  ,-2.5  ,4.0745
1083  ,3.583e+02   ,2.3  ,-2.5  ,3.8318
1084  ,2.191e+02   ,2.3  ,-2.5  ,3.5852
1085  ,1.736e+02   ,2.3  ,-2.5  ,3.3419
1086  ,1.738e+02   ,2.3  ,-2.5  ,3.1033
1087  ,3.661e+02   ,2.3  ,-2.5  ,2.8643
1088  ,4.009e+02   ,2.3  ,-2.5  ,2.6206
1089  ,2.100e+02   ,2.3  ,-2.5  ,2.3794
1090  ,1.942e+02   ,2.3  ,-2.5  ,2.1357
1091  ,1.345e+02   ,2.3  ,-2.5  ,1.8967
1092  ,1.588e+01   ,2.3  ,-2.5  ,1.658
1093  ,1.452e+01   ,2.3  ,-2.5  ,1.4148
1094  ,1.812e+01   ,2.3  ,-2.5  ,1.1682
1095  ,2.688e+01   ,2.3  ,-2.5  ,0.92554
1096  ,1.080e+02   ,2.3  ,-2.5  ,0.68705
1097  ,5.706e+01   ,2.3  ,-2.5  ,0.44697
1098  ,8.467e-04   ,-2.053  ,-2.5  ,0.2
1099  ,9.474e-04   ,-1.8129  ,-2.5  ,0.2
1100  ,7.600e-03   ,-1.5745  ,-2.5  ,0.2
1101  ,5.241e-02   ,-1.3318  ,-2.5  ,0.2
1102  ,2.631e-01   ,-1.0852  ,-2.5  ,0.2
1103  ,3.279e-01   ,-0.84195  ,-2.5  ,0.2
1104  ,6.465e-01   ,-0.60329  ,-2.5  ,0.2
1105  ,8.304e-01   ,-0.3643  ,-2.5  ,0.2
1106  ,5.255e-01   ,-0.12055  ,-2.5  ,0.2
1107  ,1.008e+00   ,0.12056  ,-2.5  ,0.2
1108  ,9.150e-01   ,0.3643  ,-2.5  ,0.2
1109  ,3.409e-01   ,0.6033  ,-2.5  ,0.2
1110  ,2.456e-01   ,0.84195  ,-2.5  ,0.2
1111  ,1.069e+00   ,1.0852  ,-2.5  ,0.2
1112  ,5.566e-01   ,1.3318  ,-2.5  ,0.2
1113  ,3.070e+00   ,1.5745  ,-2.5  ,0.2
1114  ,2.022e+01   ,1.8129  ,-2.5  ,0.2
1115  ,2.533e+01   ,2.053  ,-2.5  ,0.2
1116  ,2.351e+01   ,-2.2  ,-2.5  ,4.9
1117  ,8.763e+01   ,-2  ,-2.5  ,4.9
1118  ,6.220e+01   ,-1.8  ,-2.5  ,4.9
1119  ,2.359e+01   ,-1.6  ,-2.5  ,4.9
1120  ,1.817e+01   ,-1.4  ,-2.5  ,4.9
1121  ,3.089e+01   ,-1.2  ,-2.5  ,4.9
1122  ,9.329e+00   ,-1  ,-2.5  ,4.9
1123  ,1.450e+01   ,-0.8  ,-2.5  ,4.9
1124  ,2.481e+02   ,-0.6  ,-2.5  ,4.9
1125  ,2.905e+02   ,-0.4  ,-2.5  ,4.9
1126  ,1.821e+02   ,-0.2  ,-2.5  ,4.9
1127  ,1.203e+02   ,-1.7664E-15  ,-2.5  ,4.9
1128  ,1.616e+02   ,0.2  ,-2.5  ,4.9
1129  ,1.527e+02   ,0.4  ,-2.5  ,4.9
1130  ,1.971e+02   ,0.6  ,-2.5  ,4.9
1131  ,1.455e+02   ,0.8  ,-2.5  ,4.9
1132  ,4.663e+02   ,1  ,-2.5  ,4.9
1133  ,2.064e+02   ,1.2  ,-2.5  ,4.9
1134  ,4.690e+02   ,1.4  ,-2.5  ,4.9
1135  ,8.607e+02   ,1.6  ,-2.5  ,4.9
1136  ,3.331e+03   ,1.8  ,-2.5  ,4.9
1137  ,4.388e+03   ,2  ,-2.5  ,4.9
1138  ,1.420e+03   ,2.2  ,-2.5  ,4.9
1139  ,1.490e+00   ,-2.4  ,-2.5  ,4.7
1140  ,1.768e+00   ,-2.4  ,-2.5  ,4.5
1141  ,5.230e-01   ,-2.4  ,-2.5  ,4.3
1142  ,4.506e-01   ,-2.4  ,-2.5  ,4.1
1143  ,2.986e-01   ,-2.4  ,-2.5  ,3.9
1144  ,2.447e-01   ,-2.4  ,-2.5  ,3.7
1145  ,1.020e-01   ,-2.4  ,-2.5  ,3.5
1146  ,5.300e-02   ,-2.4  ,-2.5  ,3.3
1147  ,5.802e-02   ,-2.4  ,-2.5  ,3.1
1148  ,4.676e-02   ,-2.4  ,-2.5  ,2.9
1149  ,7.961e-03   ,-2.4  ,-2.5  ,2.7
1150  ,6.483e-03   ,-2.4  ,-2.5  ,2.5
1151  ,8.787e-03   ,-2.4  ,-2.5  ,2.3
1152  ,1.910e-03   ,-2.4  ,-2.5  ,2.1
1153  ,3.603e-03   ,-2.4  ,-2.5  ,1.9
1154  ,3.393e-03   ,-2.4  ,-2.5  ,1.7
1155  ,2.225e-03   ,-2.4  ,-2.5  ,1.5
1156  ,1.177e-03   ,-2.4  ,-2.5  ,1.3
1157  ,1.173e-03   ,-2.4  ,-2.5  ,1.1
1158  ,8.449e-04   ,-2.4  ,-2.5  ,0.9
1159  ,4.250e-03   ,-2.4  ,-2.5  ,0.7
1160  ,5.534e-03   ,-2.4  ,-2.5  ,0.5
1161  ,3.399e-04   ,-2.4  ,-2.5  ,0.3
1162  ,6.777e-04   ,-2.2  ,-2.5  ,0.1
1163  ,4.619e-04   ,-2  ,-2.5  ,0.1
1164  ,2.549e-04   ,-1.8  ,-2.5  ,0.1
1165  ,5.807e-03   ,-1.6  ,-2.5  ,0.1
1166  ,5.468e-02   ,-1.4  ,-2.5  ,0.1
1167  ,7.547e-02   ,-1.2  ,-2.5  ,0.1
1168  ,1.397e-01   ,-1  ,-2.5  ,0.1
1169  ,2.672e-01   ,-0.8  ,-2.5  ,0.1
1170  ,6.201e-01   ,-0.6  ,-2.5  ,0.1
1171  ,7.753e-01   ,-0.4  ,-2.5  ,0.1
1172  ,7.247e-01   ,-0.2  ,-2.5  ,0.1
1173  ,7.031e-01   ,-1.7664E-15  ,-2.5  ,0.1
1174  ,6.090e-01   ,0.2  ,-2.5  ,0.1
1175  ,3.935e-01   ,0.4  ,-2.5  ,0.1
1176  ,2.347e-01   ,0.6  ,-2.5  ,0.1
1177  ,2.525e-01   ,0.8  ,-2.5  ,0.1
1178  ,6.696e-01   ,1  ,-2.5  ,0.1
1179  ,5.976e-01   ,1.2  ,-2.5  ,0.1
1180  ,5.818e-01   ,1.4  ,-2.5  ,0.1
1181  ,2.614e+00   ,1.6  ,-2.5  ,0.1
1182  ,4.704e+00   ,1.8  ,-2.5  ,0.1
1183  ,3.299e+00   ,2  ,-2.5  ,0.1
1184  ,6.159e+00   ,2.2  ,-2.5  ,0.1
1185  ,1.266e+03   ,2.4  ,-2.5  ,4.7
1186  ,5.420e+03   ,2.4  ,-2.5  ,4.5
1187  ,3.855e+03   ,2.4  ,-2.5  ,4.3
1188  ,1.189e+03   ,2.4  ,-2.5  ,4.1
1189  ,2.709e+02   ,2.4  ,-2.5  ,3.9
1190  ,2.667e+02   ,2.4  ,-2.5  ,3.7
1191  ,1.838e+02   ,2.4  ,-2.5  ,3.5
1192  ,3.964e+02   ,2.4  ,-2.5  ,3.3
1193  ,2.396e+02   ,2.4  ,-2.5  ,3.1
1194  ,3.092e+02   ,2.4  ,-2.5  ,2.9
1195  ,3.316e+02   ,2.4  ,-2.5  ,2.7
1196  ,2.875e+02   ,2.4  ,-2.5  ,2.5
1197  ,2.182e+02   ,2.4  ,-2.5  ,2.3
1198  ,2.595e+02   ,2.4  ,-2.5  ,2.1
1199  ,2.280e+02   ,2.4  ,-2.5  ,1.9
1200  ,1.370e+01   ,2.4  ,-2.5  ,1.7
1201  ,1.117e+01   ,2.4  ,-2.5  ,1.5
1202  ,1.251e+01   ,2.4  ,-2.5  ,1.3
1203  ,1.876e+01   ,2.4  ,-2.5  ,1.1
1204  ,2.524e+01   ,2.4  ,-2.5  ,0.9
1205  ,7.192e+01   ,2.4  ,-2.5  ,0.7
1206  ,2.457e+01   ,2.4  ,-2.5  ,0.5
1207  ,2.213e+01   ,2.4  ,-2.5  ,0.3
1208  ,4.092e+01   ,2.4  ,-2.2  ,0
1209  ,2.340e+02   ,2.4  ,-2  ,0
1210  ,6.287e+02   ,2.4  ,-1.8  ,0
1211  ,2.067e+03   ,2.4  ,-1.6  ,0
1212  ,4.348e+03   ,2.4  ,-1.4  ,0
1213  ,1.343e+04   ,2.4  ,-1.2  ,0
1214  ,2.670e+04   ,2.4  ,-1  ,0
1215  ,3.343e+04   ,2.4  ,-0.8  ,0
1216  ,7.383e+04   ,2.4  ,-0.6  ,0
1217  ,2.294e+05   ,2.4  ,-0.4  ,0
1218  ,2.226e+05   ,2.4  ,-0.2  ,0
1219  ,3.052e+05   ,2.4  ,-1.7664E-15  ,0
1220  ,2.448e+05   ,2.4  ,0.2  ,0
1221  ,1.504e+05   ,2.4  ,0.4  ,0
1222  ,8.471e+05   ,2.4  ,0.6  ,0
1223  ,1.231e+06   ,2.4  ,0.8  ,0
1224  ,7.437e+05   ,2.4  ,1  ,0
1225  ,1.636e+05   ,2.4  ,1.2  ,0
1226  ,3.637e+05   ,2.4  ,1.4  ,0
1227  ,6.920e+05   ,2.4  ,1.6  ,0
1228  ,3.632e+05   ,2.4  ,1.8  ,0
1229  ,3.354e+05   ,2.4  ,2  ,0
1230  ,2.577e+05   ,2.4  ,2.2  ,0
1231  ,1.062e-03   ,-2.2  ,-2.4  ,0
1232  ,5.632e-04   ,-2  ,-2.4  ,0
1233  ,5.940e-03   ,-1.8  ,-2.4  ,0
1234  ,1.605e-02   ,-1.6  ,-2.4  ,0
1235  ,6.237e-02   ,-1.4  ,-2.4  ,0
1236  ,1.783e-01   ,-1.2  ,-2.4  ,0
1237  ,2.669e-01   ,-1  ,-2.4  ,0
1238  ,5.254e-01   ,-0.8  ,-2.4  ,0
1239  ,9.951e-01   ,-0.6  ,-2.4  ,0
1240  ,1.259e+00   ,-0.4  ,-2.4  ,0
1241  ,1.645e+00   ,-0.2  ,-2.4  ,0
1242  ,2.080e+00   ,5.8879E-16  ,-2.4  ,0
1243  ,1.185e+00   ,0.2  ,-2.4  ,0
1244  ,8.709e-01   ,0.4  ,-2.4  ,0
1245  ,4.388e-01   ,0.6  ,-2.4  ,0
1246  ,2.907e-01   ,0.8  ,-2.4  ,0
1247  ,6.272e-01   ,1  ,-2.4  ,0
1248  ,2.787e+00   ,1.2  ,-2.4  ,0
1249  ,3.374e+00   ,1.4  ,-2.4  ,0
1250  ,4.853e+00   ,1.6  ,-2.4  ,0
1251  ,6.045e+00   ,1.8  ,-2.4  ,0
1252  ,2.628e+01   ,2  ,-2.4  ,0
1253  ,1.551e+01   ,2.2  ,-2.4  ,0
1254  ,1.658e+04   ,-2.4  ,2.2  ,0
1255  ,1.424e+04   ,-2.4  ,2  ,0
1256  ,3.669e+03   ,-2.4  ,1.8  ,0
1257  ,3.724e+03   ,-2.4  ,1.6  ,0
1258  ,2.364e+03   ,-2.4  ,1.4  ,0
1259  ,2.543e+03   ,-2.4  ,1.2  ,0
1260  ,2.143e+03   ,-2.4  ,1  ,0
1261  ,1.564e+03   ,-2.4  ,0.8  ,0
1262  ,7.587e+02   ,-2.4  ,0.6  ,0
1263  ,3.339e+02   ,-2.4  ,0.4  ,0
1264  ,1.811e+02   ,-2.4  ,0.2  ,0
1265  ,8.841e+01   ,-2.4  ,5.8879E-16  ,0
1266  ,1.047e+02   ,-2.4  ,-0.2  ,0
1267  ,9.976e+01   ,-2.4  ,-0.4  ,0
1268  ,7.299e+01   ,-2.4  ,-0.6  ,0
1269  ,1.255e+01   ,-2.4  ,-0.8  ,0
1270  ,7.070e+00   ,-2.4  ,-1  ,0
1271  ,6.162e+00   ,-2.4  ,-1.2  ,0
1272  ,2.515e+00   ,-2.4  ,-1.4  ,0
1273  ,1.561e-01   ,-2.4  ,-1.6  ,0
1274  ,1.651e-01   ,-2.4  ,-1.8  ,0
1275  ,6.895e-02   ,-2.4  ,-2  ,0
1276  ,5.014e-03   ,-2.4  ,-2.2  ,0
1277  ,3.611e+05   ,2.2  ,2.4  ,0
1278  ,1.680e+05   ,2  ,2.4  ,0
1279  ,5.201e+05   ,1.8  ,2.4  ,0
1280  ,5.849e+05   ,1.6  ,2.4  ,0
1281  ,9.157e+05   ,1.4  ,2.4  ,0
1282  ,1.168e+06   ,1.2  ,2.4  ,0
1283  ,1.301e+06   ,1  ,2.4  ,0
1284  ,1.627e+06   ,0.8  ,2.4  ,0
1285  ,1.327e+06   ,0.6  ,2.4  ,0
1286  ,9.079e+05   ,0.4  ,2.4  ,0
1287  ,1.151e+05   ,0.2  ,2.4  ,0
1288  ,1.629e+05   ,5.8879E-16  ,2.4  ,0
1289  ,1.202e+05   ,-0.2  ,2.4  ,0
1290  ,2.061e+05   ,-0.4  ,2.4  ,0
1291  ,2.560e+05   ,-0.6  ,2.4  ,0
1292  ,2.654e+05   ,-0.8  ,2.4  ,0
1293  ,1.743e+05   ,-1  ,2.4  ,0
1294  ,2.181e+04   ,-1.2  ,2.4  ,0
1295  ,3.188e+04   ,-1.4  ,2.4  ,0
1296  ,2.474e+04   ,-1.6  ,2.4  ,0
1297  ,1.936e+04   ,-1.8  ,2.4  ,0
1298  ,2.606e+04   ,-2  ,2.4  ,0
1299  ,3.303e+04   ,-2.2  ,2.4  ,0
1460  ,5.685e+09   ,2.3243  ,2.3243  ,4.9577
1461  ,5.359e+09   ,2.4577  ,2.3243  ,4.8243
1462  ,4.192e+09   ,2.3243  ,2.4577  ,4.8243
1463  ,1.192e+02   ,-2.3  ,-2.1759  ,4.8
1464  ,2.485e+03   ,-2.3  ,-1.7631  ,4.8
1465  ,2.154e+04   ,-2.3  ,-1.1827  ,4.8
1466  ,8.970e+04   ,-2.3  ,-0.34986  ,4.8
1467  ,2.315e+05   ,-2.3  ,0.80545  ,4.8
1468  ,9.314e+06   ,-0.81337  ,2.3  ,4.8
1469  ,1.910e+08   ,0.67326  ,2.3  ,4.8
1470  ,8.970e+03   ,2.3  ,-2.1824  ,4.8
1471  ,9.213e+04   ,2.3  ,-1.7784  ,4.8
1472  ,2.624e+06   ,2.3  ,-1.2138  ,4.8
1473  ,2.139e+07   ,2.3  ,-0.40752  ,4.8
1474  ,2.640e+08   ,2.3  ,0.70532  ,4.8
1516  ,1.130e+07   ,2.3  ,2.3  ,1.6866
1517  ,1.878e+08   ,2.3  ,2.3  ,3.1733
1518  ,1.200e+02   ,2.3  ,-2.1759  ,0.2
1519  ,2.745e+03   ,2.3  ,-1.7631  ,0.2
1520  ,3.580e+04   ,2.3  ,-1.1827  ,0.2
1521  ,2.360e+05   ,2.3  ,-0.34986  ,0.2
1522  ,1.293e+06   ,2.3  ,0.80545  ,0.2
1564  ,1.580e+05   ,-0.76667  ,2.3  ,0.2
1565  ,1.510e+06   ,0.76667  ,2.3  ,0.2
1566  ,1.293e+05   ,-2.3  ,2.3  ,1.7333
1567  ,9.266e+05   ,-2.3  ,2.3  ,3.2667
1574  ,1.586e-02   ,-2.3  ,-2.1759  ,0.2
1575  ,3.466e-01   ,-2.3  ,-1.7631  ,0.2
1576  ,1.278e+01   ,-2.3  ,-1.1827  ,0.2
1577  ,2.782e+02   ,-2.3  ,-0.34986  ,0.2
1578  ,5.799e+03   ,-2.3  ,0.80545  ,0.2
1777  ,2.315e+07   ,-0.52764  ,2.5  ,4.9
1801  ,1.491e+04   ,-2.3  ,1.5527  ,0.2
1825  ,4.611e+04   ,-1.5333  ,2.3  ,0.2
1841  ,2.288e+07   ,0.063638  ,2.5  ,4.9
1876  ,2.019e+05   ,-0.5  ,2.4  ,0
1894  ,1.276e+06   ,2.3  ,1.5527  ,0.2
1907  ,8.741e+05   ,2.1  ,2.5  ,0.1
1928  ,2.474e+05   ,1.9  ,2.4  ,0
1974  ,2.080e+05   ,2.4  ,1.1  ,0
1981  ,5.357e+05   ,2.4  ,2.5  ,0.59273
1987  ,8.364e+05   ,-2.5  ,2.4  ,4
2004  ,4.107e+05   ,-2.4  ,2.5  ,4.6
2009  ,1.303e+05   ,2.4  ,1.3  ,0
2020  ,1.268e+06   ,2.5  ,1.1  ,0.1
2035  ,9.195e+01   ,-2.3  ,-0.76628  ,0.2
2070  ,1.010e+09   ,1.6404  ,2.4  ,5
2081  ,1.450e+07   ,2.4  ,2.5  ,1.9724
2095  ,6.311e+05   ,2.4  ,2.5  ,0.78982
2138  ,7.958e+01   ,-2.4  ,-0.1  ,0
2146  ,7.348e+06   ,-0.92182  ,2.4  ,5
2174  ,2.861e+06   ,2.4  ,2.5  ,1.184
2190  ,7.807e+05   ,2.5  ,2.4  ,0.98691
2203  ,3.557e+07   ,2.5  ,-0.13345  ,4.9
2232  ,7.496e+07   ,2.3  ,0.1489  ,4.8
2242  ,7.182e+07   ,2.4  ,2.5  ,2.9578
2293  ,1.329e+03   ,-2.5  ,0.5  ,0.1
2311  ,5.129e+07   ,2.3  ,2.3  ,2.4299
2313  ,7.775e+05   ,2.5  ,2.4  ,0.78982
2329  ,1.664e+07   ,2.4  ,2.5  ,2.1695
2355  ,2.615e+05   ,-2.4  ,2.5  ,4.4
2380  ,7.873e-01   ,-2.5  ,-1.5  ,0.1
2383  ,7.063e+07   ,0.45782  ,2.5  ,4.9
2408  ,5.341e+05   ,2.3  ,-1.4961  ,4.8
2445  ,2.776e+05   ,2.5  ,-1.5131  ,4.9
2484  ,2.683e-03   ,-2.5  ,-2.4  ,1.6
2495  ,4.509e+05   ,-2.4  ,1.7  ,5
2508  ,1.490e+05   ,2.4  ,0.3  ,0
2514  ,5.848e+05   ,2.3  ,0.2278  ,0.2
2570  ,4.332e+05   ,-2.4  ,1.5  ,5
2580  ,8.671e+08   ,1.6404  ,2.5  ,4.9
2603  ,2.587e+06   ,-1.1189  ,2.5  ,4.9
2695  ,3.628e+06   ,2.3  ,2.3  ,0.94331
2705  ,4.989e+06   ,2.4  ,2.5  ,1.3811
2714  ,1.131e+08   ,2.5  ,0.45782  ,4.9
2734  ,2.683e+04   ,2.4  ,-0.9  ,0
2775  ,2.762e+05   ,2.5  ,-0.1  ,0.1
2779  ,1.756e+05   ,2.4  ,-0.1  ,0
2801  ,1.352e+09   ,1.4166  ,2.3  ,4.8
2814  ,4.383e+08   ,1.4433  ,2.5  ,4.9
2863  ,2.106e+04   ,-2.4  ,2.5  ,0.6
2884  ,1.546e+04   ,-2.4  ,2.5  ,0.8
2886  ,5.082e+04   ,-2.4  ,2.5  ,1.2
2967  ,3.381e+05   ,2.4  ,1.7  ,0
2973  ,7.528e+05   ,2.5  ,1.5  ,0.1
2987  ,2.297e+05   ,-0.3  ,2.5  ,0.1
3008  ,4.195e+04   ,-2.3  ,2.3  ,0.96667
3012  ,7.674e+04   ,-2.5  ,2.4  ,2.6
3021  ,1.149e+05   ,-2.5  ,2.4  ,2.8
3025  ,1.668e+05   ,-2.5  ,2.4  ,2.4
3030  ,2.888e+05   ,-2.4  ,2.5  ,2.4
3033  ,2.786e+05   ,-2.4  ,2.5  ,2.2
3047  ,1.422e+07   ,2.4  ,2.5  ,2.3665
3052  ,2.817e+07   ,2.5  ,2.4  ,2.5636
3061  ,2.597e+07   ,2.4  ,2.5  ,2.5636
3081  ,4.398e+05   ,-2.4  ,1.3  ,5
3088  ,6.139e+05   ,-1.9073  ,2.4  ,5
3099  ,4.006e+05   ,-2.4  ,1.9  ,5
3107  ,1.347e+06   ,-2.4  ,2.5  ,3.8
3139  ,5.836e+05   ,-1.5131  ,2.4  ,5
3145  ,7.205e+05   ,-1.5131  ,2.5  ,4.9
3148  ,7.780e+05   ,-1.7102  ,2.5  ,4.9
3168  ,2.343e+03   ,-2.4  ,1.5  ,0
3188  ,9.252e-04   ,-2.5  ,-2.4  ,1
3202  ,3.366e+07   ,0.26073  ,2.5  ,4.9
3212  ,9.571e+08   ,2.5  ,1.6404  ,4.9
3247  ,1.835e+09   ,2.5  ,1.8375  ,4.9
3265  ,1.414e+09   ,2.3  ,1.4326  ,4.8
3271  ,5.539e+09   ,2.2299  ,2.2299  ,4.8
3284  ,3.081e+08   ,2.4  ,1.4433  ,5
3291  ,3.957e+08   ,2.5  ,1.4433  ,4.9
3296  ,3.144e+04   ,-2.3  ,-0.76628  ,4.8
3303  ,2.927e+04   ,-2.4  ,-0.9  ,5
3311  ,4.295e+04   ,-2.4  ,-0.7  ,5
3315  ,9.062e+05   ,1.9  ,2.5  ,0.1
3336  ,2.256e+02   ,-2.4  ,0.3  ,0
3340  ,1.127e+02   ,-2.5  ,0.1  ,0.1
3344  ,1.955e+02   ,-2.4  ,0.1  ,0
3356  ,1.822e+05   ,-0.3  ,2.4  ,0
3361  ,2.024e+07   ,-0.33054  ,2.5  ,4.9
3364  ,1.858e+07   ,-0.13345  ,2.5  ,4.9
3383  ,4.720e+08   ,2.4  ,2.5  ,3.5491
3402  ,2.992e+09   ,2.4  ,2.5  ,4.5345
3421  ,1.222e+06   ,-1.316  ,2.5  ,4.9
3439  ,3.730e+08   ,2.5  ,2.4  ,3.9433
3447  ,3.801e+08   ,2.4  ,2.5  ,3.9433
3451  ,4.743e+08   ,2.4  ,2.5  ,3.7462
3468  ,3.610e+08   ,1.4433  ,2.4  ,5
3480  ,3.603e+08   ,1.0491  ,2.4  ,5
3519  ,8.914e+05   ,1.5  ,2.4  ,0
3527  ,6.665e+03   ,2.3  ,-1.4729  ,0.2
3550  ,1.483e+04   ,-1.7  ,2.4  ,0
3554  ,2.611e+04   ,-1.7  ,2.5  ,0.1
3558  ,2.285e+04   ,-1.5  ,2.4  ,0
3562  ,4.392e+04   ,-1.5  ,2.5  ,0.1
3574  ,4.019e+05   ,-2.4  ,2.1  ,5
3581  ,1.821e+03   ,-2.5  ,1.7  ,0.1
3583  ,6.043e+03   ,-2.5  ,1.9  ,0.1
3584  ,7.155e+05   ,-1.9073  ,2.5  ,4.9
3591  ,5.422e+05   ,2.5  ,0.3  ,0.1
3595  ,5.042e+05   ,2.5  ,0.1  ,0.1
3603  ,8.106e+09   ,2.4577  ,2.391  ,4.7576
3663  ,8.800e-04   ,-1.933  ,-2.5  ,0.2
3669  ,1.190e-03   ,-2.1765  ,-2.5  ,0.2
3672  ,1.182e-03   ,-2.3  ,-2.3379  ,0.2
3682  ,4.395e-04   ,-1.9  ,-2.4  ,0
3700  ,3.739e+02   ,2.3  ,-2.5  ,2.7424
3712  ,3.617e+01   ,-2.1  ,-2.5  ,4.9
3715  ,4.801e+01   ,-1.9  ,-2.5  ,4.9
3740  ,6.705e+01   ,-1.3  ,-2.4  ,5
3746  ,1.822e+01   ,-1.2085  ,-2.5  ,4.8
3755  ,5.307e+01   ,-1.5  ,-2.4  ,5
3760  ,4.789e+01   ,-1.7  ,-2.5  ,4.9
3786  ,6.175e+06   ,2.4  ,2.5  ,1.5782
3813  ,3.749e+07   ,0.26073  ,2.4  ,5
3858  ,1.420e+01   ,-0.9  ,-2.4  ,5
3863  ,2.227e+05   ,-2.5  ,0.9  ,4.9
3875  ,5.989e+01   ,-1.9  ,-2.4  ,5
3885  ,5.739e+06   ,2.4  ,-0.72473  ,5
3910  ,5.392e-02   ,-2.4  ,-2.5  ,3.4
3959  ,1.047e+09   ,2.5  ,2.4  ,4.1404
3969  ,4.425e+08   ,2.5  ,1.0491  ,4.9
3992  ,9.354e+09   ,2.391  ,2.2576  ,4.9577
3993  ,8.266e+09   ,2.4577  ,2.2576  ,4.891
4016  ,4.058e+05   ,-2.3015  ,2.5  ,4.9
4018  ,3.979e+05   ,-2.4  ,2.5  ,4.8
4021  ,3.633e+08   ,1.2462  ,2.4  ,5
4042  ,1.277e+04   ,2.4  ,-1.1  ,0
4046  ,1.971e+05   ,-0.9  ,2.4  ,0
4055  ,9.342e+02   ,1.7  ,-2.5  ,4.9
4087  ,7.088e+05   ,1.7  ,2.4  ,0
4114  ,2.945e+07   ,2.5  ,-0.33054  ,4.9
4120  ,3.234e+01   ,2.4  ,-2.5  ,1.8
4125  ,9.432e+05   ,2.4  ,2.5  ,0.98691
4144  ,1.627e+09   ,2.4  ,2.5  ,4.3375
4161  ,9.718e+04   ,-2.4  ,0.3  ,5
4201  ,1.935e+01   ,1.933  ,-2.5  ,0.2
4225  ,9.554e-04   ,-2.3  ,-2.4  ,0
4230  ,1.359e-02   ,-2.3  ,-2.5  ,0.56701
4269  ,7.461e+00   ,-0.9  ,-2.5  ,4.9
4277  ,2.500e+01   ,-1.1  ,-2.4  ,5
4288  ,4.571e+07   ,-0.070055  ,2.3  ,4.8
4328  ,7.974e-01   ,-2.5  ,-2.4  ,4.2
4336  ,8.725e-01   ,-2.5  ,-2.4  ,4.4
4342  ,6.938e+00   ,-2.5  ,-2.4  ,4.6
4348  ,3.858e+00   ,-2.4  ,-2.4707  ,4.9707
4352  ,4.380e+00   ,-2.3  ,-2.5  ,4.9
4354  ,1.031e+01   ,-2.1765  ,-2.5  ,4.8
4355  ,1.821e+01   ,-2.3  ,-2.3379  ,4.8
4362  ,7.829e+05   ,2.5  ,2.4  ,0.59273
4364  ,3.134e+02   ,2.5  ,-2.4  ,2.4
4366  ,1.818e+02   ,2.5  ,-2.4  ,2.2
4372  ,2.006e+02   ,2.4  ,-2.5  ,2.2
4385  ,1.161e-01   ,-2.5  ,-1.9  ,0.1
4399  ,1.127e+04   ,-2.5  ,2.1  ,0.1
4407  ,6.743e-01   ,-0.7  ,-2.4  ,0
4436  ,4.413e+01   ,-2.5  ,-0.1  ,0.1
4462  ,8.820e+05   ,-2.3  ,2.3  ,4.0333
4491  ,1.272e+07   ,2.5  ,-0.52764  ,4.9
4494  ,3.581e+01   ,2.5  ,-2.4  ,1.4
4503  ,1.402e+01   ,2.4  ,-2.5  ,1.4
4508  ,1.865e+01   ,2.4  ,-2.5  ,1.2
4515  ,6.027e+01   ,2.5  ,-2.4  ,1.8
4517  ,8.909e+00   ,2.4  ,-2.5  ,1.6
4522  ,2.265e-01   ,0.7  ,-2.4  ,0
4538  ,2.220e+06   ,-1.1189  ,2.4  ,5
4546  ,8.381e+08   ,2.4  ,2.5  ,4.1404
4559  ,3.956e+00   ,1.7  ,-2.4  ,0
4590  ,3.091e-01   ,0.5  ,-2.4  ,0
4631  ,3.395e+02   ,2.4  ,-2.5  ,2.6
4634  ,4.141e+02   ,2.5  ,-2.4  ,2.8
4657  ,1.892e-03   ,-2.5  ,-2.4  ,2
4660  ,5.220e-03   ,-2.5  ,-2.4  ,1.8
4664  ,8.605e-01   ,-0.3  ,-2.4  ,0
4675  ,7.371e-01   ,-2.4  ,-2.5  ,4.8
4681  ,1.550e+02   ,-2.5  ,-0.3  ,0.1
4684  ,1.650e+03   ,1.7  ,-2.4  ,5
4703  ,2.323e+05   ,-2.4  ,0.7  ,5
4707  ,2.917e+04   ,-2.5  ,0.3  ,4.9
4714  ,2.865e+07   ,2.4  ,-0.33054  ,5
4723  ,3.055e+06   ,-1.5567  ,2.3  ,4.8
4739  ,4.934e+05   ,-2.1044  ,2.5  ,4.9
4763  ,1.873e+04   ,-1.9  ,2.4  ,0
4780  ,8.576e-02   ,-2.3  ,-1.9695  ,0.2
4782  ,8.048e-04   ,-2.4707  ,-2.4  ,0.029289
4784  ,1.043e-01   ,-2.4  ,-1.9  ,0
4791  ,4.609e-03   ,-2.4  ,-2.5  ,1.8
4796  ,6.450e+02   ,2.4707  ,-2.4707  ,4.9
4799  ,8.416e+02   ,2.5  ,-2.4  ,4.8
4806  ,7.835e+02   ,2.3  ,-2.5  ,4.9
4809  ,1.390e+09   ,2.3  ,2.3  ,3.9166
4833  ,3.141e+04   ,-2.4  ,2.5  ,0.4
4841  ,3.335e+05   ,-2.4  ,2.5  ,2.6
4846  ,2.195e+05   ,-2.5  ,2.1  ,4.9
4848  ,2.633e+05   ,-2.5  ,2.3  ,4.9
4849  ,2.551e+05   ,-2.5  ,2.4  ,4.8
4893  ,4.408e+05   ,-2.4  ,2.5  ,4.2
4897  ,3.205e+09   ,2.3333  ,2.1998  ,5
4900  ,7.989e+09   ,2.391  ,2.4577  ,4.7576
4908  ,8.022e+09   ,2.2576  ,2.391  ,4.9577
4911  ,8.004e+09   ,2.2576  ,2.4577  ,4.891
4926  ,1.814e+04   ,-2.5  ,2.4  ,1
4932  ,1.356e+05   ,-2.4  ,2.5  ,1.6
4937  ,1.989e+05   ,-1.1  ,2.5  ,0.1
4939  ,5.304e+09   ,2.3  ,2.2299  ,4.7299
4944  ,5.812e+04   ,2.5  ,-1.9073  ,4.9
4987  ,6.779e+05   ,-2.3  ,1.5527  ,4.8
5010  ,4.453e+09   ,2.4973  ,2.1331  ,4.923
5013  ,2.901e+09   ,2.5  ,2.0345  ,4.9
5017  ,3.189e+09   ,2.4  ,2.0345  ,5
5035  ,3.322e+00   ,1.3  ,-2.4  ,0
5038  ,6.034e-01   ,1.2085  ,-2.5  ,0.2
5092  ,1.632e-03   ,-2.4  ,-2.5  ,1.2
5123  ,4.612e+01   ,2.5  ,-2.4  ,0.6
5151  ,1.181e+02   ,-2.5  ,-0.5  ,0.1
5160  ,1.396e+01   ,-2.5  ,-0.7  ,0.1
5164  ,3.754e+05   ,-2.4  ,0.9  ,5
5168  ,1.560e+05   ,-2.4  ,0.5  ,5
5176  ,9.167e+04   ,2.5  ,-0.7  ,0.1
5179  ,1.331e+05   ,2.4  ,-0.5  ,0
5189  ,2.536e+02   ,2.4  ,-2.5  ,2.4
5194  ,2.188e+02   ,2.3  ,-2.5  ,2.2576
5198  ,7.621e-04   ,-2.3  ,-2.5  ,0.32348
5205  ,2.280e-04   ,-2.4  ,-2.5  ,0.2
5207  ,2.260e-04   ,-2.1  ,-2.5  ,0.1
5246  ,8.584e+05   ,-2.5  ,2.4  ,3.2
5257  ,6.122e+04   ,-2.5  ,1.5  ,4.9
5263  ,1.650e+03   ,-2.3  ,0.2278  ,0.2
5272  ,4.134e+02   ,-2.5  ,0.3  ,0.1
5275  ,7.668e+04   ,-2.5  ,0.5  ,4.9
5281  ,1.256e+09   ,1.8375  ,2.5  ,4.9
5297  ,2.090e+05   ,-0.9  ,2.5  ,0.1
5306  ,2.050e+05   ,-0.7  ,2.4  ,0
5309  ,2.841e+05   ,-0.5  ,2.5  ,0.1
5324  ,5.212e+07   ,2.4  ,2.5  ,2.7607
5332  ,5.877e+01   ,2.5  ,-2.4  ,0.8
5334  ,1.867e+01   ,2.4  ,-2.5  ,1
5360  ,8.114e+04   ,2.4  ,-1.7102  ,5
5362  ,4.536e+05   ,2.4  ,-1.5131  ,5
5368  ,1.467e+09   ,2.4  ,1.8375  ,5
5371  ,1.412e+10   ,2.4325  ,2.4888  ,4.6656
5372  ,3.495e+09   ,2.3333  ,2.5  ,4.6998
5376  ,2.490e+09   ,2.4707  ,2.4707  ,4.6331
5377  ,3.185e+09   ,2.5  ,2.4  ,4.5345
5379  ,2.083e+01   ,-1.5  ,-2.5  ,4.9
5406  ,1.013e-01   ,-2.5  ,-2.4  ,3.4
5420  ,5.972e-02   ,-2.3  ,-2.5  ,3.2226
5423  ,4.050e+00   ,1.5  ,-2.4  ,0
5502  ,2.088e-03   ,-2.5  ,-2.3  ,0.1
5504  ,9.437e-04   ,-2.5  ,-2.4  ,0.2
5506  ,1.055e-03   ,-2.4  ,-2.3  ,0
5511  ,1.336e-02   ,-2.5  ,-2.1  ,0.1
5513  ,5.899e+02   ,-2.4  ,0.5  ,0
5517  ,1.364e-01   ,-0.9  ,-2.5  ,0.1
5532  ,2.552e+05   ,-2.4707  ,2.4707  ,4.9
5534  ,2.471e+04   ,2.4  ,-0.7  ,0
5551  ,1.624e+03   ,2.5  ,-2.4  ,3.8
5566  ,4.388e+06   ,2.5  ,2.4  ,1.3811
5603  ,1.419e+05   ,2.4  ,-0.3  ,0
5617  ,3.873e+04   ,-2.1  ,2.5  ,0.1
5637  ,4.914e+02   ,-2.3  ,-1.9695  ,4.8
5641  ,1.304e+02   ,2.3  ,-2.5  ,3.4636
5645  ,2.207e-03   ,-2.4  ,-2.5  ,2
5649  ,4.230e-03   ,-2.4  ,-2.5  ,2.2
5659  ,4.475e-03   ,-2.3  ,-2.5  ,1.7774
5662  ,1.253e+03   ,2.1765  ,-2.5  ,4.8
5666  ,6.501e+02   ,2.4  ,-2.5  ,4.8
5669  ,1.562e+03   ,2.3  ,-2.3412  ,4.8
5695  ,1.112e+03   ,-2.4  ,0.7  ,0
5701  ,1.132e+05   ,-2.5  ,2.4  ,1.6
5715  ,2.302e+05   ,-2.4  ,2.5  ,1.8
5726  ,3.534e+05   ,-0.7  ,2.5  ,0.1
5727  ,5.629e+04   ,-1.1  ,2.4  ,0
5730  ,2.187e+01   ,2.3  ,-2.5  ,1.7774
5746  ,1.838e+07   ,2.5  ,2.4  ,1.7753
5755  ,1.499e+03   ,2.5  ,-2.4  ,4.4
5763  ,4.256e+03   ,2.4  ,-2.5  ,4.4
5773  ,3.889e+08   ,1.0491  ,2.5  ,4.9
5791  ,1.406e+07   ,-0.72473  ,2.4  ,5
5795  ,1.513e+09   ,1.8375  ,2.4  ,5
5803  ,1.732e+02   ,-0.3  ,-2.4  ,5
5810  ,8.934e+08   ,2.4  ,1.6404  ,5
5836  ,7.534e+04   ,-2.5  ,1.3  ,4.9
5860  ,3.645e+01   ,2.5  ,-2.4  ,1.6
5866  ,1.434e+00   ,1.5  ,-2.5  ,0.1
5884  ,1.974e+05   ,-2.4  ,-0.3  ,5
5888  ,1.004e+05   ,-2.5  ,-0.5  ,4.9
5901  ,1.331e+02   ,2.3  ,-2.5  ,2.5
5908  ,2.922e+01   ,2.5  ,-2.4  ,1.2
5909  ,2.922e+02   ,2.5  ,-2.4  ,2
5934  ,2.656e+03   ,1.9  ,-2.5  ,4.9
5938  ,4.663e+03   ,1.933  ,-2.5  ,4.8
5948  ,2.118e+00   ,-2.4  ,-2.5  ,4.6
5950  ,1.775e+00   ,-2.4707  ,-2.4707  ,4.9
5951  ,7.004e+00   ,-2.5  ,-2.4  ,4.8
5952  ,1.468e+01   ,-2.5  ,-2.3  ,4.9
5986  ,2.575e+02   ,2.3  ,-2.5  ,3.7085
5990  ,7.871e+06   ,-0.92182  ,2.5  ,4.9
6019  ,2.882e+05   ,2.5  ,1.9  ,0.1
6025  ,8.068e+03   ,2.4  ,-1.3  ,0
6035  ,1.178e+05   ,-2.5  ,1.9  ,4.9
6044  ,5.958e+05   ,0.1  ,2.5  ,0.1
6054  ,2.868e+05   ,2.4  ,0.1  ,0
6070  ,1.421e+04   ,-2.4  ,2.3  ,0
6071  ,1.641e+04   ,-2.3  ,2.4  ,0
6076  ,1.985e+04   ,-2.4  ,2.1  ,0
6083  ,7.723e+00   ,2.1  ,-2.4  ,0
6084  ,1.925e+05   ,2.4  ,2.3  ,0
6087  ,2.628e+05   ,2.3  ,2.4  ,0
6092  ,7.695e-04   ,-2.4  ,-2.5  ,0.4
6096  ,2.166e-04   ,-2.3  ,-2.5  ,0.1
6099  ,1.995e-01   ,0.7  ,-2.5  ,0.1
6149  ,5.763e+00   ,-2.4  ,-0.9  ,0
6159  ,7.373e-03   ,-2.5  ,-2.4  ,2.6
6183  ,4.189e+08   ,1.2462  ,2.5  ,4.9
6224  ,6.693e+02   ,2.5  ,-2.4  ,4
6228  ,2.223e+02   ,2.4  ,-2.5  ,3.8
6237  ,1.657e+06   ,2.5  ,0.7  ,0.1
6241  ,3.435e+09   ,2.5  ,2.3333  ,4.6998
6245  ,7.305e+06   ,2.5  ,2.4  ,1.5782
6259  ,5.074e+03   ,2.5  ,-2.1044  ,4.9
6265  ,9.253e+03   ,2.3  ,-1.9804  ,4.8
6267  ,2.477e+03   ,2.5  ,-2.3015  ,4.9
6268  ,1.133e+03   ,2.4707  ,-2.4  ,4.9707
6270  ,1.061e+04   ,2.4  ,-2.1044  ,5
6317  ,2.301e+05   ,-2.3  ,0.2278  ,4.8
6349  ,1.677e+07   ,-0.52764  ,2.4  ,5
6391  ,1.820e+07   ,2.4  ,2.5  ,1.7753
6440  ,8.553e+05   ,-2.5  ,2.4  ,3.8
6471  ,2.814e+06   ,2.5  ,-0.92182  ,4.9
6489  ,4.033e+08   ,2.5  ,1.2462  ,4.9
6523  ,1.795e-01   ,-1.1  ,-2.4  ,0
6528  ,1.086e-01   ,-1.1  ,-2.5  ,0.1
6535  ,3.719e-01   ,-0.9  ,-2.4  ,0
6538  ,4.145e+02   ,1.5  ,-2.4  ,5
6541  ,2.632e+02   ,1.5  ,-2.5  ,4.9
6551  ,6.616e+06   ,2.5  ,-0.72473  ,4.9
6564  ,3.946e+09   ,2.1331  ,2.4973  ,4.923
6565  ,2.845e+09   ,2.0345  ,2.5  ,4.9
6572  ,6.195e+02   ,2.4  ,-1.7  ,0
6581  ,2.910e+05   ,0  ,2.3  ,0.2
6592  ,5.430e+02   ,2.3  ,-1.9695  ,0.2
6594  ,2.979e+05   ,0.3  ,2.4  ,0
6601  ,1.423e+06   ,0.5  ,2.5  ,0.1
6605  ,4.395e+00   ,-2.4  ,-1.3  ,0
6606  ,7.036e+00   ,-2.4  ,-1.1  ,0
6615  ,1.365e+02   ,-2.4  ,-0.3  ,0
6634  ,1.134e+03   ,2.1  ,-2.5  ,4.9
6635  ,5.511e+02   ,2.4  ,-2.4707  ,4.9707
6636  ,1.170e+03   ,2.3  ,-2.4  ,5
6647  ,3.860e-01   ,0.5  ,-2.5  ,0.1
6704  ,1.443e+04   ,-2.4707  ,2.4707  ,0.1
6708  ,1.826e+04   ,-2.5  ,2.4  ,0.2
6712  ,1.606e+06   ,-2.4  ,2.5  ,3.6
6715  ,1.725e+06   ,-2.4  ,2.5  ,3.4
6728  ,1.744e+05   ,-2.5  ,0.7  ,4.9
6753  ,5.682e+05   ,-2.1044  ,2.4  ,5
6788  ,1.833e+09   ,2.5  ,2.4  ,4.3375
6791  ,7.538e+01   ,-1.933  ,-2.5  ,4.8
6795  ,2.971e+09   ,2.1998  ,2.5  ,4.8333
6837  ,1.657e-03   ,-2.3  ,-2.5  ,0.8063
6869  ,8.954e+04   ,2.5  ,-1.7102  ,4.9
6873  ,5.576e+04   ,2.4  ,-1.9073  ,5
6880  ,4.343e+06   ,2.4  ,-0.92182  ,5
6885  ,1.200e+07   ,2.4  ,-0.52764  ,5
6893  ,3.261e+08   ,2.4  ,1.2462  ,5
6914  ,2.027e+06   ,0.7  ,2.5  ,0.1
6920  ,1.403e+06   ,0.9  ,2.4  ,0
6923  ,1.356e+06   ,0.7  ,2.4  ,0
6936  ,2.275e+02   ,2.4  ,-2.5  ,3.4
6939  ,1.751e+02   ,2.3  ,-2.5  ,3.2226
6961  ,8.874e+01   ,-0.1  ,-2.5  ,4.9
6967  ,1.727e+03   ,-2.5  ,-1.5  ,4.9
6975  ,4.853e+05   ,-2.4  ,1.1  ,5
6978  ,2.873e+04   ,-2.4  ,2.5  ,0.2
6987  ,1.202e+06   ,2.4  ,-1.316  ,5
6994  ,2.043e+03   ,2.4  ,-1.5  ,0
7004  ,3.084e+02   ,2.4  ,-2.5  ,3.6
7011  ,2.274e+08   ,2.4  ,0.65491  ,5
7016  ,1.171e+08   ,2.4  ,0.45782  ,5
7019  ,1.975e+07   ,2.5  ,2.4  ,2.1695
7021  ,2.092e+07   ,2.5  ,2.4  ,1.9724
7052  ,8.323e+04   ,-1.3  ,2.5  ,0.1
7054  ,1.728e-03   ,-2.4  ,-2.5  ,0.8
7057  ,7.610e-01   ,0.3  ,-2.5  ,0.1
7065  ,1.226e+00   ,0.24243  ,-2.5  ,0.2
7075  ,1.380e+10   ,2.4888  ,2.4325  ,4.6656
7113  ,1.149e-02   ,-2.4  ,-2.5  ,2.6
7121  ,1.016e-02   ,-2.4  ,-2.5  ,2.8
7126  ,4.413e-02   ,-2.5  ,-2.4  ,2.8
7128  ,1.874e-04   ,-2.4707  ,-2.4707  ,0.1
7129  ,1.586e-04   ,-2.4  ,-2.4707  ,0.029289
7141  ,5.452e+01   ,-1.7  ,-2.4  ,5
7145  ,1.250e+06   ,1.1  ,2.4  ,0
7163  ,6.942e+05   ,-1.7102  ,2.4  ,5
7172  ,2.375e+02   ,2.5  ,-2.4  ,3.2
7174  ,8.756e+05   ,-2.5  ,2.4  ,3.6
7183  ,2.624e+01   ,-1.4531  ,-2.5  ,4.8
7204  ,8.819e+06   ,2.3  ,-0.81068  ,4.8
7220  ,2.878e+07   ,2.5  ,0.063638  ,4.9
7227  ,8.518e+02   ,2.5  ,-1.9  ,0.1
7256  ,1.119e+02   ,-0.1  ,-2.4  ,5
7280  ,1.755e+07   ,-0.33054  ,2.4  ,5
7299  ,2.493e+06   ,2.5  ,-1.1189  ,4.9
7316  ,1.861e-03   ,-2.5  ,-2.4  ,0.8
7323  ,5.251e-04   ,-2.4  ,-2.5  ,1
7396  ,4.830e+02   ,1.1  ,-2.4  ,5
7400  ,1.260e+03   ,-2.5  ,0.7  ,0.1
7409  ,3.651e+02   ,1.3  ,-2.4  ,5
7420  ,5.797e+05   ,2.5  ,2.1  ,0.1
7429  ,3.077e+05   ,2.4  ,1.9  ,0
7436  ,1.638e+03   ,2.5  ,-1.7  ,0.1
7438  ,2.838e+02   ,2.4  ,-2.5  ,2.8
7445  ,1.247e+10   ,2.4325  ,2.1656  ,4.9888
7464  ,5.292e+03   ,2.5  ,-1.5  ,0.1
7480  ,1.856e+01   ,2.5  ,-2.4  ,0.2
7482  ,4.814e+00   ,1.9  ,-2.5  ,0.1
7483  ,4.080e+00   ,1.7  ,-2.5  ,0.1
7486  ,1.980e+03   ,1.9  ,-2.4  ,5
7488  ,1.997e+03   ,1.6937  ,-2.5  ,4.8
7492  ,2.957e+03   ,2.1  ,-2.4  ,5
7495  ,4.726e-01   ,0.1  ,-2.5  ,0.1
7504  ,1.474e+00   ,0.3  ,-2.4  ,0
7507  ,3.315e-01   ,0.9  ,-2.5  ,0.1
7533  ,2.047e+03   ,-2.5  ,0.9  ,0.1
7536  ,6.625e-02   ,-2.4  ,-2.5  ,3.2
7540  ,5.993e-02   ,-2.4  ,-2.5  ,3
7545  ,1.080e-01   ,-2.5  ,-2.4  ,3
7582  ,1.069e+06   ,1.3  ,2.5  ,0.1
7588  ,1.294e+07   ,2.5  ,2.4  ,2.3665
7598  ,4.381e+05   ,-2.5  ,2.4  ,4.2
7607  ,8.419e+05   ,1.5333  ,2.3  ,0.2
7627  ,9.231e+04   ,-2.5  ,1.1  ,4.9
7651  ,4.122e+02   ,2.4  ,-1.9  ,0
7656  ,8.339e+05   ,2.5  ,2.4  ,0.39564
7660  ,5.546e+09   ,2.2299  ,2.3  ,4.7299
7668  ,2.497e+02   ,1.4531  ,-2.5  ,4.8
7676  ,1.730e+02   ,0.1  ,-2.5  ,4.9
7683  ,2.447e+02   ,0.1  ,-2.4  ,5
7686  ,2.051e+04   ,-2.4  ,-1.1  ,5
7702  ,6.022e-01   ,-2.3  ,-2.5  ,4.433
7710  ,7.654e+00   ,-2.3  ,-2.5  ,4.6765
7752  ,3.043e+02   ,0.9  ,-2.4  ,5
7763  ,2.035e+02   ,0.24243  ,-2.5  ,4.8
7767  ,1.326e-01   ,-2.5  ,-2.4  ,3.2
7768  ,1.068e-02   ,-2.4  ,-2.1  ,0
7776  ,2.099e+03   ,-2.4  ,0.9  ,0
7786  ,3.854e+02   ,-0.4838  ,-2.5  ,4.8
7800  ,3.189e+03   ,2.5  ,-2.4  ,4.6
7805  ,1.083e+04   ,-2.5  ,-1.3  ,4.9
7811  ,1.302e+04   ,-2.5  ,-1.1  ,4.9
7820  ,8.442e+01   ,2.5  ,-2.1  ,0.1
7824  ,9.092e+01   ,2.4  ,-2.1  ,0
7828  ,1.499e+03   ,2.4  ,-2.5  ,4.2
7831  ,3.235e+02   ,2.4  ,-2.5  ,4
7838  ,2.359e+03   ,2.5  ,-2.4  ,4.2
7839  ,4.851e+07   ,2.5  ,2.4  ,2.7607
7840  ,1.015e+08   ,2.5  ,2.4  ,2.9578
7863  ,5.318e-01   ,-2.4  ,-1.5  ,0
7890  ,8.816e+05   ,2.4  ,0.9  ,0
7897  ,2.038e+01   ,-2.4  ,-0.7  ,0
7912  ,1.913e-02   ,-1.5  ,-2.4  ,0
7917  ,9.484e-02   ,-1.3  ,-2.5  ,0.1
7931  ,1.094e+06   ,0.5  ,2.4  ,0
7934  ,1.101e+00   ,1.1  ,-2.4  ,0
7937  ,5.375e+01   ,2.4  ,-2.5  ,0.8
7941  ,4.290e-03   ,-2.4  ,-2.5  ,0.6
7969  ,1.513e+04   ,-2.5  ,2.3  ,0.1
7971  ,4.456e+03   ,-2.4  ,1.9  ,0
7972  ,3.387e+04   ,-1.9  ,2.5  ,0.1
7978  ,1.959e+03   ,-2.4  ,1.1  ,0
7996  ,1.100e+05   ,-2.4  ,-0.5  ,5
8000  ,4.603e-03   ,-2.5  ,-2.4  ,0.6
8003  ,1.240e-03   ,-2.5  ,-2.4  ,0.4
8025  ,2.383e+06   ,0.9  ,2.5  ,0.1
8035  ,7.408e+05   ,0.3  ,2.5  ,0.1
8039  ,1.673e+01   ,2.3  ,-2.5  ,0.32348
8041  ,1.206e+01   ,2.3  ,-2.3379  ,0.2
8043  ,9.716e+00   ,2.1765  ,-2.5  ,0.2
8045  ,3.969e-01   ,-0.96359  ,-2.5  ,0.2
8054  ,1.085e+06   ,1.3  ,2.4  ,0
8058  ,1.058e+06   ,1.1  ,2.5  ,0.1
8062  ,4.025e+04   ,-2.5  ,2.4  ,1.4
8067  ,1.559e+04   ,-2.5  ,2.4  ,0.8
8087  ,2.561e+03   ,-2.5  ,1.5  ,0.1
8132  ,1.938e+07   ,-0.13345  ,2.4  ,5
8183  ,6.035e+04   ,2.5  ,-0.9  ,0.1
8184  ,1.165e+01   ,1.6937  ,-2.5  ,0.2
8214  ,8.528e+00   ,-2.4707  ,-2.4  ,4.9707
8217  ,1.969e+01   ,-2.1  ,-2.4  ,5
8219  ,1.072e+00   ,-2.4  ,-2.5  ,4.4
8227  ,1.527e+08   ,2.5  ,2.4  ,3.1549
8242  ,1.358e+02   ,0.7  ,-2.5  ,4.9
8248  ,7.563e+02   ,2.5  ,-2.4  ,3.6
8254  ,3.417e+05   ,2.5  ,-0.3  ,0.1
8256  ,2.126e+05   ,2.5  ,-0.5  ,0.1
8258  ,1.608e+02   ,-0.3  ,-2.5  ,4.9
8263  ,4.025e+02   ,-0.5  ,-2.5  ,4.9
8268  ,1.499e-01   ,-2.3  ,-2.5  ,3.7085
8277  ,5.351e-01   ,-0.1  ,-2.5  ,0.1
8285  ,4.092e+02   ,1.1  ,-2.5  ,4.9
8307  ,1.055e+05   ,0.1  ,2.4  ,0
8308  ,2.596e+05   ,-0.1  ,2.5  ,0.1
8309  ,7.549e+04   ,-0.1  ,2.4  ,0
8313  ,3.719e+01   ,2.5  ,-2.3  ,0.1
8318  ,4.463e+02   ,2.5  ,-2.4  ,3
8338  ,3.926e+08   ,2.5  ,2.4  ,3.352
8339  ,1.731e+08   ,2.4  ,2.5  ,3.1549
8344  ,8.302e+05   ,-2.5  ,2.4  ,3.4
8357  ,1.220e+10   ,2.4888  ,2.1656  ,4.9325
8358  ,3.070e+09   ,2.5  ,2.1998  ,4.8333
8383  ,1.482e-02   ,-1.7  ,-2.4  ,0
8396  ,8.850e-01   ,1.1  ,-2.5  ,0.1
8399  ,3.194e+09   ,2.4526  ,2.1331  ,4.9851
8405  ,4.119e+01   ,2.5  ,-2.4  ,1
8412  ,5.959e+01   ,2.3  ,-2.5  ,0.8063
8417  ,1.322e-02   ,-2.3  ,-2.5  ,2.5
8434  ,3.492e+02   ,0.9636  ,-2.5  ,4.8
8438  ,1.217e+00   ,-0.3  ,-2.5  ,0.1
8452  ,1.736e+05   ,-2.4  ,-0.1  ,5
8468  ,3.222e+08   ,2.5  ,2.4  ,3.7462
8471  ,2.503e+01   ,-1.3  ,-2.5  ,4.9
8493  ,1.876e+01   ,-1.1  ,-2.5  ,4.9
8509  ,1.555e-01   ,-2.5  ,-1.7  ,0.1
8517  ,1.190e+06   ,-2.4  ,2.5  ,3
8531  ,3.229e+03   ,-2.4  ,1.7  ,0
8556  ,3.574e+08   ,2.5  ,2.4  ,3.5491
8573  ,8.657e+05   ,-1.316  ,2.4  ,5
8576  ,2.523e+03   ,-2.4  ,1.3  ,0
8611  ,1.763e+01   ,2.3  ,-2.5  ,1.2915
8618  ,6.744e+05   ,-2.4  ,2.5  ,4
8646  ,2.653e+03   ,-2.5  ,1.1  ,0.1
8656  ,1.330e+04   ,2.5  ,-1.3  ,0.1
8657  ,2.094e+05   ,2.4  ,2.1  ,0
8673  ,2.415e+04   ,-1.3  ,2.4  ,0
8692  ,1.310e+02   ,0.72263  ,-2.5  ,4.8
8696  ,2.008e+01   ,2.3  ,-2.5  ,1.0469
8706  ,1.877e+08   ,2.5  ,0.65491  ,4.9
8721  ,2.041e-03   ,-2.4  ,-2.5  ,1.6
8725  ,1.554e+08   ,0.65491  ,2.4  ,5
8739  ,1.301e+10   ,2.1656  ,2.4325  ,4.9888
8741  ,3.385e+09   ,2.1998  ,2.3333  ,5
8746  ,6.876e-04   ,-2.1  ,-2.4  ,0
8748  ,1.312e-03   ,-2.5  ,-2.4  ,1.2
8752  ,3.084e+09   ,2.1331  ,2.4526  ,4.9851
8759  ,4.512e-04   ,-2.3  ,-2.5  ,1.0469
8787  ,2.583e+00   ,-0.1  ,-2.4  ,0
8793  ,2.873e-03   ,-2.3  ,-2.5  ,2.2576
8795  ,1.178e-02   ,-2.4  ,-2.5  ,2.4
8798  ,2.518e-01   ,-2.3  ,-2.5  ,4.1937
8808  ,6.545e-01   ,-2.3  ,-2.5  ,3.9531
8814  ,4.565e+03   ,-2.4  ,-1.5  ,5
8849  ,5.198e+01   ,0.4838  ,-2.5  ,4.8
8851  ,1.293e-01   ,-2.4  ,-2.5  ,4.2
8868  ,1.552e+02   ,2.4  ,-2.5  ,3
8874  ,3.385e+08   ,0.852  ,2.4  ,5
8883  ,4.003e+02   ,-0.5  ,-2.4  ,5
8886  ,4.933e+01   ,-0.72262  ,-2.5  ,4.8
8893  ,4.356e+01   ,-0.7  ,-2.5  ,4.9
8897  ,2.133e-01   ,-2.5  ,-2.4  ,3.6
8899  ,9.938e-02   ,-2.3  ,-2.5  ,3.4636
8900  ,2.364e+00   ,-2.3  ,-1.4729  ,0.2
8906  ,3.013e+00   ,-2.5  ,-1.3  ,0.1
8910  ,3.295e+08   ,0.852  ,2.5  ,4.9
8925  ,7.904e+04   ,-2.4  ,2.5  ,1.4
8941  ,2.081e+05   ,2.4707  ,2.4  ,0.029289
8942  ,3.302e+05   ,2.5  ,2.3  ,0.1
8945  ,4.072e+04   ,-2.5  ,0.1  ,4.9
8950  ,3.419e+05   ,2.4707  ,2.4707  ,0.1
8951  ,1.746e+05   ,2.4  ,2.4707  ,0.029289
8959  ,6.594e+07   ,2.4  ,0.26073  ,5
8965  ,7.463e+07   ,0.45782  ,2.4  ,5
8978  ,2.756e+08   ,2.4  ,0.852  ,5
8983  ,2.517e+04   ,2.5  ,-1.1  ,0.1
8991  ,5.874e+03   ,-2.5  ,2.4  ,0.6
9008  ,3.778e+08   ,2.5  ,0.852  ,4.9
9011  ,9.156e+01   ,-2.4  ,-0.5  ,0
9025  ,1.359e-02   ,-1.5  ,-2.5  ,0.1
9038  ,3.075e+02   ,2.4  ,-2.5  ,2
9041  ,1.984e+06   ,2.5  ,0.9  ,0.1
9050  ,1.329e+06   ,2.5  ,0.5  ,0.1
9054  ,3.629e-01   ,0.9  ,-2.4  ,0
9060  ,1.871e+01   ,2.4  ,-2.5  ,0.4
9062  ,1.195e+02   ,2.3  ,-2.5  ,0.56701
9064  ,5.611e+01   ,2.5  ,-2.4  ,0.4
9069  ,4.490e+01   ,2.4  ,-2.5  ,0.6
9071  ,1.136e+00   ,1.4531  ,-2.5  ,0.2
9082  ,8.829e-04   ,-2.3  ,-2.5  ,1.2915
9086  ,1.653e-03   ,-2.4  ,-2.5  ,1.4
9091  ,2.198e-03   ,-2.5  ,-2.4  ,1.4
9094  ,4.483e+02   ,1.3  ,-2.5  ,4.9
9097  ,3.850e-01   ,-0.7  ,-2.5  ,0.1
9137  ,8.624e+03   ,-2.5  ,-0.7  ,4.9
9143  ,1.021e+05   ,-2.5  ,-0.1  ,4.9
9146  ,2.256e+04   ,-2.1  ,2.4  ,0
9148  ,1.021e+05   ,-2.5  ,1.7  ,4.9
9173  ,8.716e+05   ,-2.5  ,2.4  ,3
9192  ,6.626e+01   ,-0.7  ,-2.4  ,5
9195  ,2.445e-01   ,0.72263  ,-2.5  ,0.2
9209  ,4.593e+02   ,2.5  ,-2.4  ,3.4
9215  ,6.363e-01   ,0.9636  ,-2.5  ,0.2
9217  ,4.405e+02   ,2.4  ,-2.5  ,3.2
9218  ,7.545e+00   ,-0.96359  ,-2.5  ,4.8
9229  ,5.058e+05   ,-2.4  ,2.5  ,2.8
9248  ,6.028e+03   ,2.3  ,-2.5  ,4.433
9255  ,1.092e+06   ,2.5  ,1.3  ,0.1
9257  ,4.430e+05   ,2.4  ,1.5  ,0
9262  ,3.610e+02   ,0.5  ,-2.4  ,5
9264  ,3.204e+07   ,2.4  ,-0.13345  ,5
9272  ,2.311e+07   ,0.063638  ,2.4  ,5
9277  ,1.766e+04   ,-2.5  ,2.4  ,1.2
9279  ,5.457e+07   ,2.5  ,0.26073  ,4.9
9282  ,7.825e+02   ,1.2085  ,-2.5  ,4.8
9286  ,2.006e+02   ,0.9  ,-2.5  ,4.9
9292  ,3.602e+05   ,-2.4  ,2.4707  ,4.9707
9293  ,4.228e+05   ,-2.3015  ,2.4  ,5
9296  ,4.669e+01   ,-2.4  ,-2.1  ,5
9303  ,3.443e+02   ,-2.4  ,-1.9  ,5
9311  ,3.467e+05   ,-2.4  ,2.3  ,5
9313  ,1.139e+05   ,-2.4  ,0.1  ,5
9319  ,1.432e+00   ,-0.5  ,-2.4  ,0
9328  ,2.475e-03   ,-2.3  ,-2.5  ,1.5364
9334  ,2.860e+04   ,-2.3  ,2.5  ,0.1
9338  ,1.011e-02   ,-2.5  ,-2.4  ,2.4
9339  ,1.708e+03   ,-2.5  ,1.3  ,0.1
9341  ,8.279e-03   ,-2.3  ,-2.5  ,2.7424
9344  ,8.235e-03   ,-2.5  ,-2.4  ,2.2
9358  ,3.186e+05   ,-2.3  ,2.3  ,2.5
9364  ,4.581e+01   ,-2.5  ,-2.1  ,4.9
9367  ,2.713e+01   ,-2.4  ,-2.3  ,5
9374  ,1.354e+04   ,-2.4  ,-1.3  ,5
9378  ,1.050e+05   ,-2.5  ,2.4  ,1.8
9384  ,2.719e+02   ,2.3  ,-2.5  ,2.0162
9385  ,1.913e+05   ,-2.5  ,2.4  ,4.4
9389  ,8.529e+04   ,-2.5  ,2.4  ,2
9395  ,1.740e+03   ,2.4  ,-2.3015  ,5
9396  ,1.578e-01   ,-2.4  ,-1.7  ,0
9407  ,8.612e+03   ,-2.3  ,-1.4729  ,4.8
9411  ,4.775e+02   ,-2.5  ,-1.7  ,4.9
9423  ,9.824e-02   ,-2.4  ,-2.5  ,3.6
9432  ,2.155e+02   ,0.7  ,-2.4  ,5
9438  ,2.023e+04   ,-2.5  ,-0.9  ,4.9
9443  ,1.183e+05   ,-2.5  ,-0.3  ,4.9
9445  ,2.382e+05   ,-2.4707  ,2.4  ,4.9707
9448  ,1.692e+06   ,2.4  ,-1.1189  ,5
9453  ,7.826e+05   ,2.4  ,0.7  ,0
9455  ,6.671e+02   ,2.5  ,-2.4  ,2.6
9457  ,2.655e+02   ,2.3  ,-2.5  ,2.9838
9494  ,2.755e+04   ,-2.4  ,2.5  ,1
9500  ,2.135e+02   ,0.3  ,-2.5  ,4.9
9504  ,4.004e+02   ,0.3  ,-2.4  ,5
9506  ,4.108e+00   ,2.1  ,-2.5  ,0.1
9518  ,3.433e-04   ,-1.9  ,-2.5  ,0.1
9528  ,2.583e+00   ,2.3  ,-2.5  ,0.1
9531  ,7.130e+00   ,2.4707  ,-2.4707  ,0.1
9533  ,6.542e+00   ,2.4707  ,-2.4  ,0.029289
9534  ,2.443e+00   ,2.4  ,-2.4707  ,0.029289
9541  ,9.088e+01   ,0.5  ,-2.5  ,4.9
9544  ,9.767e-01   ,-0.5  ,-2.5  ,0.1
9559  ,8.500e+01   ,-2.5  ,-1.9  ,4.9
9562  ,2.268e+05   ,-2.5  ,2.4  ,4.6
9565  ,2.079e+05   ,-2.4  ,2.5  ,2
9571  ,5.262e-01   ,-2.5  ,-2.4  ,3.8
9574  ,1.229e-01   ,-2.4  ,-2.5  ,3.8
9577  ,7.118e-01   ,1.3  ,-2.5  ,0.1
9582  ,7.290e+00   ,-2.5  ,-0.9  ,0.1
9596  ,1.886e+05   ,2.1  ,2.4  ,0
9598  ,1.338e+06   ,-2.4  ,2.5  ,3.2
9602  ,5.548e+05   ,1.5  ,2.5  ,0.1
9610  ,7.999e+05   ,2.4  ,2.5  ,0.39564
9612  ,1.411e+07   ,-0.72473  ,2.5  ,4.9
9614  ,3.259e+05   ,1.7  ,2.5  ,0.1
9635  ,8.056e+05   ,2.5  ,1.7  ,0.1
9646  ,3.393e+05   ,2.3  ,2.5  ,0.1
9651  ,1.220e+10   ,2.1656  ,2.4888  ,4.9325
9653  ,1.107e+06   ,2.5  ,-1.316  ,4.9
9656  ,1.081e+03   ,-2.4  ,-1.7  ,5
9659  ,9.575e+02   ,2.3  ,-2.5  ,4.6765
9661  ,3.689e+02   ,2.3  ,-2.5  ,3.9531
9664  ,2.131e+01   ,-2.3  ,-2.4  ,5
9666  ,1.264e+01   ,1.9  ,-2.4  ,0
9677  ,2.427e+05   ,2.4  ,0.5  ,0
9678  ,5.430e+00   ,-2.5  ,-1.1  ,0.1
9680  ,2.070e+06   ,2.5  ,2.4  ,1.184
9681  ,2.341e+05   ,2.5  ,2.4  ,0.19855
9696  ,2.763e-03   ,-2.3  ,-2.5  ,2.0162
9698  ,1.628e+01   ,2.4  ,-2.3  ,0
9699  ,1.176e+00   ,-0.24243  ,-2.5  ,0.2
9701  ,7.005e-01   ,0.1  ,-2.4  ,0
9704  ,1.386e+00   ,-0.4838  ,-2.5  ,0.2
9718  ,2.319e-01   ,-0.72262  ,-2.5  ,0.2
9726  ,1.105e+05   ,2.3  ,-0.76628  ,0.2
9727  ,2.335e+04   ,-2.5  ,2.4  ,0.4
9730  ,1.115e+02   ,1.9433E-06  ,-2.5  ,4.8
9731  ,2.664e+02   ,-0.24243  ,-2.5  ,4.8
9732  ,1.613e+05   ,-2.5  ,2.4  ,2.2
9738  ,1.093e+00   ,-2.5  ,-2.4  ,4
9743  ,4.546e+01   ,-1.6937  ,-2.5  ,4.8
9744  ,4.142e-01   ,-2.4  ,-2.5  ,4
9750  ,8.039e-04   ,-1.7  ,-2.5  ,0.1
9752  ,3.493e-03   ,-1.6937  ,-2.5  ,0.2
9754  ,1.138e-01   ,-1.3  ,-2.4  ,0
9759  ,1.195e+04   ,-2.4707  ,2.4  ,0.029289
9760  ,1.292e+04   ,-2.4  ,2.4707  ,0.029289
9768  ,1.956e+03   ,2.3  ,-2.5  ,4.1937
9770  ,6.671e-01   ,1.9433E-06  ,-2.5  ,0.2
9771  ,4.844e-01   ,0.4838  ,-2.5  ,0.2
9772  ,1.313e+01   ,2.4  ,-2.5  ,0.2
9773  ,8.701e+02   ,2.4  ,-2.5  ,4.6
9776  ,2.844e+07   ,2.4  ,0.063638  ,5
9780  ,1.531e+08   ,0.65491  ,2.5  ,4.9
9781  ,2.724e+05   ,2.4  ,2.5  ,0.19855
9782  ,6.052e-02   ,-2.3  ,-2.5  ,2.9838
9786  ,7.373e-02   ,-1.2085  ,-2.5  ,0.2
9787  ,2.312e-02   ,-1.4531  ,-2.5  ,0.2
9790  ,1.124e+01   ,2.3  ,-2.4  ,0
9793  ,2.946e+09   ,2.0345  ,2.4  ,5
9797  ,1.676e+01   ,2.3  ,-2.5  ,1.5364
9798  ,3.371e+08   ,2.4  ,1.0491  ,5
9809  ,3.755e+08   ,2.4  ,2.5  ,3.352
